  Built with Packmol                    
    1.000000000000000     
    11.1679332695031679    0.1552392960834791    0.1839881458785959
     0.1561013960571513   11.3646121742514019    0.1172804435543240
     0.1812076677760448    0.1134256946991447   11.2294953462353888
   Fe   Ge
    48    48
Direct
  0.1436929323286400  0.6384467324189568  0.4076241439869748
  0.9198764325506341  0.1596609483058903  0.5973291204783254
  0.9236292813930441  0.9214889789475976  0.6543400106243143
  0.4342999919431069  0.3781807480322902  0.7428330281662020
  0.5082660638521462  0.0422453618313441  0.0981978300096929
  0.1494973810638301  0.0966415371119029  0.7150641913067043
  0.0428980684725749  0.3096155407280367  0.2333633640972851
  0.7312393887023880  0.5368380057135992  0.0560015399690304
  0.7594800570771304  0.8091718585678574  0.5548977070235733
  0.6864807427711920  0.9088464871718104  0.1885563106413448
  0.4677068395081212  0.0293342759346252  0.8766097044244562
  0.7181885434568109  0.0334037241248162  0.7891918413940091
  0.9934757157728390  0.7862631222971653  0.4971301821772681
  0.9851024900846025  0.2749748032686183  0.7760477551912411
  0.7292189489924403  0.7660005297471175  0.0058997683282139
  0.7243232155747438  0.2223439127018323  0.4914267457356076
  0.7228892455322273  0.5153977474516663  0.7204052254376747
  0.5364853730071139  0.5801915862102942  0.3843770806667335
  0.7519543354250621  0.5417559043336214  0.3176839251847186
  0.1878476594221258  0.8865676726499110  0.5795198797927417
  0.5740955429272318  0.1816639882557380  0.3251745967998491
  0.0216420944546540  0.7820930091635453  0.2766950515511489
  0.3463758512662138  0.6993302203633059  0.5036580480176097
  0.8699228937010297  0.3761741870283581  0.4041622701020883
  0.3873012265858632  0.9088072760391430  0.4731220554476656
  0.7012893626684088  0.1308799474418033  0.1369763826173738
  0.6300359873473557  0.1686798374560291  0.9351368124137056
  0.9878388701655484  0.3178493565733745  0.0108779408060578
  0.3186063268831820  0.5264857755757043  0.1305013146347209
  0.5854769330843126  0.9207713636527576  0.6566130134096971
  0.9562513357103687  0.5486744253032195  0.0163341419202502
  0.9090352439086726  0.9197096515175330  0.1318833348523600
  0.8350972123995548  0.4120979381073498  0.8737000589850020
  0.4371494682617322  0.2482371673416273  0.9271592981097657
  0.3004601967516788  0.0068596594907475  0.2347982438522817
  0.6030333418088861  0.3884387619064262  0.8702986517016881
  0.4503555507562726  0.5875097206954286  0.7734283276248555
  0.3799318861893159  0.0025743524855919  0.6736717618340406
  0.5519034627157838  0.1620770847180992  0.7283572584254338
  0.8360177392700956  0.6266160476954132  0.8593758223095749
  0.8618106628719696  0.1604212556812824  0.9556726231302309
  0.8667607932533179  0.6770333225712946  0.1719612782553013
  0.1665096985558720  0.8018975640646535  0.9627424717976768
  0.3345166080511029  0.9173947337980769  0.0428558169030422
  0.4439798735149422  0.3758746545680738  0.2849686822963635
  0.0581308550379248  0.6529411228529513  0.8214518986400888
  0.7641955650058526  0.2468524925525221  0.7676551506395879
  0.9453287353525056  0.1714317703490824  0.3840271816604564
  0.0821046349972035  0.8553384324937652  0.7677893078449683
  0.0244964108808598  0.9990378992400630  0.4801002920356342
  0.7557478163614725  0.0244577284114409  0.5722159342990998
  0.2541207451929848  0.0863746022575216  0.5249263900986451
  0.5036217702494639  0.9564096240057685  0.2952597735440238
  0.6182004215906921  0.3455435647896869  0.6356584970510508
  0.9066254174633229  0.6893158436773003  0.6697022443578646
  0.8814685855675612  0.4402851627606421  0.1862135656234454
  0.1466918925562013  0.4349785384765688  0.0628451117301390
  0.8687827153813512  0.3785879918840955  0.6207215119517014
  0.0492596347799993  0.4539796051132440  0.8284623607070812
  0.9373093755677996  0.0657022765397278  0.7916643683325684
  0.8212441537731983  0.8473023035160879  0.3483927845319259
  0.3878973700565836  0.4550919534736388  0.9436561712087743
  0.9534646760743916  0.7648390977798257  0.9828688888765301
  0.3646873632581291  0.1824653564303255  0.3475403545129696
  0.3035352061912188  0.1290783369153291  0.0447457253797971
  0.6151269440445026  0.6179786193687141  0.8946306257698612
  0.3287113956246341  0.1995659924864286  0.7505198923044165
  0.7359876883623646  0.3227989724118105  0.0415925059706943
  0.6472120363026627  0.7033236685727341  0.2205265717872628
  0.1499460721702310  0.6686590004228490  0.6169321066678193
  0.5617605775662737  0.7801275644189729  0.4718560126840249
  0.1061240971789205  0.1663570020844793  0.9191951753427814
  0.0833386975572126  0.4254712026462164  0.4229844610476817
  0.5238050317286622  0.0922315390109038  0.5227345644607733
  0.5114800649209069  0.2593354141387625  0.1252227369514629
  0.9288060725900867  0.1509524932482192  0.1557379386506410
  0.4474129925533122  0.5114509636155565  0.5722894524225896
  0.7065025005644541  0.5966685038258218  0.5196548747321356
  0.5374461017703307  0.5099201491449368  0.1522648814634545
  0.2637938675825754  0.6486885168554962  0.8498685857664260
  0.1285144194853795  0.9183570536548922  0.1417930465689521
  0.4193195345536068  0.7902609678599464  0.6895382096206281
  0.5355972293862599  0.8544241827427033  0.0013639529194098
  0.9314541714707487  0.6145082215442575  0.3873288475303939
  0.3339367319309881  0.5699562361581962  0.3334137585649161
  0.6316774032860070  0.3804647353972562  0.3789340929907281
  0.2410899933241987  0.3625751964204254  0.2568547887164997
  0.2653127538214195  0.9505971371273715  0.8441036036424800
  0.7397459820518528  0.8199956231437406  0.7816201919335783
  0.3385047512386037  0.7161089761652700  0.0718225903797396
  0.2145713846763445  0.8393244294313005  0.3642770307981957
  0.1351706237625868  0.1275047548351464  0.2826931731546706
  0.7505000309772688  0.9802777905453712  0.9916553705512168
  0.7688068882002546  0.0779009136742417  0.3279532560159471
  0.1043191117091005  0.2749181636123212  0.5961721347586336
  0.1154123113482067  0.6489271562196492  0.1385068632404095
 
  0.00000000E+00  0.00000000E+00  0.00000000E+00
  0.00000000E+00  0.00000000E+00  0.00000000E+00
  0.00000000E+00  0.00000000E+00  0.00000000E+00
  0.00000000E+00  0.00000000E+00  0.00000000E+00
  0.00000000E+00  0.00000000E+00  0.00000000E+00
  0.00000000E+00  0.00000000E+00  0.00000000E+00
  0.00000000E+00  0.00000000E+00  0.00000000E+00
  0.00000000E+00  0.00000000E+00  0.00000000E+00
  0.00000000E+00  0.00000000E+00  0.00000000E+00
  0.00000000E+00  0.00000000E+00  0.00000000E+00
  0.00000000E+00  0.00000000E+00  0.00000000E+00
  0.00000000E+00  0.00000000E+00  0.00000000E+00
  0.00000000E+00  0.00000000E+00  0.00000000E+00
  0.00000000E+00  0.00000000E+00  0.00000000E+00
  0.00000000E+00  0.00000000E+00  0.00000000E+00
  0.00000000E+00  0.00000000E+00  0.00000000E+00
  0.00000000E+00  0.00000000E+00  0.00000000E+00
  0.00000000E+00  0.00000000E+00  0.00000000E+00
  0.00000000E+00  0.00000000E+00  0.00000000E+00
  0.00000000E+00  0.00000000E+00  0.00000000E+00
  0.00000000E+00  0.00000000E+00  0.00000000E+00
  0.00000000E+00  0.00000000E+00  0.00000000E+00
  0.00000000E+00  0.00000000E+00  0.00000000E+00
  0.00000000E+00  0.00000000E+00  0.00000000E+00
  0.00000000E+00  0.00000000E+00  0.00000000E+00
  0.00000000E+00  0.00000000E+00  0.00000000E+00
  0.00000000E+00  0.00000000E+00  0.00000000E+00
  0.00000000E+00  0.00000000E+00  0.00000000E+00
  0.00000000E+00  0.00000000E+00  0.00000000E+00
  0.00000000E+00  0.00000000E+00  0.00000000E+00
  0.00000000E+00  0.00000000E+00  0.00000000E+00
  0.00000000E+00  0.00000000E+00  0.00000000E+00
  0.00000000E+00  0.00000000E+00  0.00000000E+00
  0.00000000E+00  0.00000000E+00  0.00000000E+00
  0.00000000E+00  0.00000000E+00  0.00000000E+00
  0.00000000E+00  0.00000000E+00  0.00000000E+00
  0.00000000E+00  0.00000000E+00  0.00000000E+00
  0.00000000E+00  0.00000000E+00  0.00000000E+00
  0.00000000E+00  0.00000000E+00  0.00000000E+00
  0.00000000E+00  0.00000000E+00  0.00000000E+00
  0.00000000E+00  0.00000000E+00  0.00000000E+00
  0.00000000E+00  0.00000000E+00  0.00000000E+00
  0.00000000E+00  0.00000000E+00  0.00000000E+00
  0.00000000E+00  0.00000000E+00  0.00000000E+00
  0.00000000E+00  0.00000000E+00  0.00000000E+00
  0.00000000E+00  0.00000000E+00  0.00000000E+00
  0.00000000E+00  0.00000000E+00  0.00000000E+00
  0.00000000E+00  0.00000000E+00  0.00000000E+00
  0.00000000E+00  0.00000000E+00  0.00000000E+00
  0.00000000E+00  0.00000000E+00  0.00000000E+00
  0.00000000E+00  0.00000000E+00  0.00000000E+00
  0.00000000E+00  0.00000000E+00  0.00000000E+00
  0.00000000E+00  0.00000000E+00  0.00000000E+00
  0.00000000E+00  0.00000000E+00  0.00000000E+00
  0.00000000E+00  0.00000000E+00  0.00000000E+00
  0.00000000E+00  0.00000000E+00  0.00000000E+00
  0.00000000E+00  0.00000000E+00  0.00000000E+00
  0.00000000E+00  0.00000000E+00  0.00000000E+00
  0.00000000E+00  0.00000000E+00  0.00000000E+00
  0.00000000E+00  0.00000000E+00  0.00000000E+00
  0.00000000E+00  0.00000000E+00  0.00000000E+00
  0.00000000E+00  0.00000000E+00  0.00000000E+00
  0.00000000E+00  0.00000000E+00  0.00000000E+00
  0.00000000E+00  0.00000000E+00  0.00000000E+00
  0.00000000E+00  0.00000000E+00  0.00000000E+00
  0.00000000E+00  0.00000000E+00  0.00000000E+00
  0.00000000E+00  0.00000000E+00  0.00000000E+00
  0.00000000E+00  0.00000000E+00  0.00000000E+00
  0.00000000E+00  0.00000000E+00  0.00000000E+00
  0.00000000E+00  0.00000000E+00  0.00000000E+00
  0.00000000E+00  0.00000000E+00  0.00000000E+00
  0.00000000E+00  0.00000000E+00  0.00000000E+00
  0.00000000E+00  0.00000000E+00  0.00000000E+00
  0.00000000E+00  0.00000000E+00  0.00000000E+00
  0.00000000E+00  0.00000000E+00  0.00000000E+00
  0.00000000E+00  0.00000000E+00  0.00000000E+00
  0.00000000E+00  0.00000000E+00  0.00000000E+00
  0.00000000E+00  0.00000000E+00  0.00000000E+00
  0.00000000E+00  0.00000000E+00  0.00000000E+00
  0.00000000E+00  0.00000000E+00  0.00000000E+00
  0.00000000E+00  0.00000000E+00  0.00000000E+00
  0.00000000E+00  0.00000000E+00  0.00000000E+00
  0.00000000E+00  0.00000000E+00  0.00000000E+00
  0.00000000E+00  0.00000000E+00  0.00000000E+00
  0.00000000E+00  0.00000000E+00  0.00000000E+00
  0.00000000E+00  0.00000000E+00  0.00000000E+00
  0.00000000E+00  0.00000000E+00  0.00000000E+00
  0.00000000E+00  0.00000000E+00  0.00000000E+00
  0.00000000E+00  0.00000000E+00  0.00000000E+00
  0.00000000E+00  0.00000000E+00  0.00000000E+00
  0.00000000E+00  0.00000000E+00  0.00000000E+00
  0.00000000E+00  0.00000000E+00  0.00000000E+00
  0.00000000E+00  0.00000000E+00  0.00000000E+00
  0.00000000E+00  0.00000000E+00  0.00000000E+00
  0.00000000E+00  0.00000000E+00  0.00000000E+00
  0.00000000E+00  0.00000000E+00  0.00000000E+00
