  Built with Packmol                    
    1.000000000000000     
    10.9292147630922809   -0.3277865603762748    0.0304097210588370
    -0.3425152378280962   11.0779454939088708    0.1704904984020370
     0.0160608626852606    0.1570485689848537   11.7453418527114923
   Fe   Ge
    48    48
Direct
  0.6419846764396553  0.4127104409130382  0.5204957143595408
  0.3492853345071083  0.7086964751285976  0.1238819765797174
  0.7403994824871631  0.7582502024269857  0.2319381818628372
  0.5706550003726605  0.7885907938179599  0.4108761274592041
  0.6211964200318221  0.5018764410341987  0.1698250953598546
  0.6294133644375037  0.6223183509231447  0.6525210320029728
  0.0229891376512938  0.6184806712021640  0.5906289321760667
  0.0768967223287618  0.0295419215850217  0.6925019211161754
  0.7141071982915932  0.1345403693254852  0.2771267851813803
  0.9404429585167335  0.4549430979624063  0.7765197647653395
  0.8006340718427438  0.3563531535521278  0.1379896654350929
  0.7386487363061889  0.6199224736913393  0.0176218516527982
  0.5998457709072511  0.2357895219788375  0.6597779628092937
  0.8667936904335463  0.9566391726433281  0.5620508248192380
  0.6918211158917842  0.5789582873522363  0.3667121934830249
  0.2297436691569885  0.7572800012345269  0.6655246059916777
  0.9733823455022019  0.7713631764940487  0.1813543801630502
  0.1657510919513072  0.8642964347758166  0.0343622753289665
  0.0826598091820969  0.9930680156892961  0.2202219257439140
  0.3202278196850017  0.4851057901080935  0.4026323438976718
  0.1261092045078556  0.6935871866345167  0.4145005463235236
  0.5423820335293215  0.5573690100822191  0.8483194002122474
  0.8418716831736219  0.7240985312881350  0.6610482089771921
  0.4328996382167318  0.8934883990994962  0.7366913225088609
  0.9850302449543449  0.8697073406479063  0.3673438513230352
  0.2299617953696398  0.9002733390713402  0.4257363486607204
  0.1677196234206164  0.3886103552544853  0.2811751142874144
  0.6181833511444808  0.7730023753885504  0.8388600840251996
  0.6814261009159779  0.9940243218108620  0.4414104420304596
  0.7717592172017262  0.1982512862090360  0.5110017568730072
  0.4060423401111208  0.8866446631849172  0.2867325541696459
  0.3481616895306487  0.0402833616788172  0.9195209398353228
  0.2104423029339628  0.4577829840262240  0.0653140992095658
  0.0112845392117507  0.2845748894088018  0.4465939402545374
  0.0064355476973574  0.8340436245475260  0.7543674096761706
  0.7502420430742873  0.0217693329444302  0.9204596609168263
  0.2722375117042688  0.9902992684384202  0.6250700434847829
  0.6236741807563391  0.8329047115065151  0.6219201166172184
  0.1090395178293022  0.0665589100451172  0.4749008392680452
  0.6095434637140755  0.3907191867736159  0.9800742349343921
  0.3488983134605022  0.7009360462965617  0.3792623640657098
  0.9028286082426362  0.0867538375728287  0.3904979409703415
  0.9063204106952156  0.6560212824892133  0.3718193223787409
  0.3897972609963247  0.4942242847361982  0.1960900068483440
  0.9510696733670230  0.9629562292544591  0.0468895334050714
  0.3857139857404803  0.7869241443138648  0.9236245705207011
  0.1960771272487492  0.8170483265733921  0.2395480917077890
  0.2458436150307932  0.2606536626455309  0.9601794611935048
  0.4313608106835574  0.1151206284263750  0.7220971255044617
  0.1946463104986336  0.5966421299008715  0.2360388258716952
  0.7977721841981236  0.1398483328706419  0.0778961573879542
  0.4572611158576620  0.2160675610259020  0.9792151009535530
  0.7915135658384571  0.8973855909257367  0.7644295523211255
  0.5437335486320478  0.9663535471816189  0.9068067181627129
  0.6674076639608586  0.2055301813527919  0.8535611805077608
  0.5224493481158135  0.6477501438233233  0.0225852046446704
  0.7763251947020748  0.7894243184838885  0.4600735644837002
  0.0898638274850256  0.3875020823172335  0.9021570676165709
  0.4236799688532997  0.6768155930368778  0.7294946211034699
  0.7475183391415570  0.8400912791254882  0.0358555329243302
  0.7707762851048940  0.5909206642495235  0.8187244521560331
  0.8143417018819363  0.5499937953540339  0.5430332582802038
  0.0598079993731488  0.3989966157027069  0.6205508432773641
  0.2879387057053364  0.0625294729103416  0.2660897566229607
  0.8287764928651882  0.3943774289200732  0.9411380568808312
  0.8395927747522052  0.5652698423651970  0.1997694712223463
  0.6127233395922929  0.9400090806274264  0.2441114930601600
  0.2257406081188691  0.2958789363366066  0.4626377918339983
  0.5254721497308310  0.6815215938996815  0.2453662076886403
  0.0676120273827721  0.6320962054930988  0.7909226815475563
  0.5215064471633468  0.4127335456852776  0.3451364540892854
  0.8288316144421231  0.3144677194863306  0.3417229585164065
  0.9588965200582962  0.0382620750397820  0.8590186427229796
  0.0581780242687415  0.8464960104536345  0.5582634510825883
  0.1964347615005906  0.6518898011066838  0.9768945292082023
  0.3834255811557057  0.4406003904729303  0.9390199667190871
  0.9690227111621397  0.7683066708573278  0.9584345335564493
  0.2417836102131545  0.5739367119634906  0.5676803573634999
  0.6657987568167059  0.0450430215863307  0.6417398815828932
  0.8548738592578005  0.9672423261683107  0.2284689020332138
  0.4184628080069785  0.8631427068938677  0.5285695396284638
  0.2996349996193501  0.2800144650049319  0.1630395961353557
  0.2081608505962222  0.1668555730197525  0.7879705736721760
  0.5681581597715990  0.2030579127757690  0.4445941060156500
  0.4984087933499382  0.5882134367738487  0.4962312238137230
  0.0237645211371600  0.4893433110598480  0.4008205132939864
  0.2116332459041885  0.8991070881603065  0.8245874927935404
  0.0694424400688192  0.1921546231298663  0.2783741047517978
  0.3512065980395818  0.1140059160455493  0.4734437444200879
  0.5448194967653137  0.4140033322617356  0.7161189324708843
  0.1417267661954256  0.0845180605983202  0.0325617809344081
  0.3754520868368303  0.9266524122334587  0.0910724690262796
  0.9552396606795739  0.1593624650287921  0.6022136409571175
  0.5858533678460489  0.2732584768712627  0.1668057659552247
  0.0118449227900257  0.3911851658232948  0.1372830848585593
  0.7978306316745005  0.3362957579640451  0.6671409329575368
 
  0.00000000E+00  0.00000000E+00  0.00000000E+00
  0.00000000E+00  0.00000000E+00  0.00000000E+00
  0.00000000E+00  0.00000000E+00  0.00000000E+00
  0.00000000E+00  0.00000000E+00  0.00000000E+00
  0.00000000E+00  0.00000000E+00  0.00000000E+00
  0.00000000E+00  0.00000000E+00  0.00000000E+00
  0.00000000E+00  0.00000000E+00  0.00000000E+00
  0.00000000E+00  0.00000000E+00  0.00000000E+00
  0.00000000E+00  0.00000000E+00  0.00000000E+00
  0.00000000E+00  0.00000000E+00  0.00000000E+00
  0.00000000E+00  0.00000000E+00  0.00000000E+00
  0.00000000E+00  0.00000000E+00  0.00000000E+00
  0.00000000E+00  0.00000000E+00  0.00000000E+00
  0.00000000E+00  0.00000000E+00  0.00000000E+00
  0.00000000E+00  0.00000000E+00  0.00000000E+00
  0.00000000E+00  0.00000000E+00  0.00000000E+00
  0.00000000E+00  0.00000000E+00  0.00000000E+00
  0.00000000E+00  0.00000000E+00  0.00000000E+00
  0.00000000E+00  0.00000000E+00  0.00000000E+00
  0.00000000E+00  0.00000000E+00  0.00000000E+00
  0.00000000E+00  0.00000000E+00  0.00000000E+00
  0.00000000E+00  0.00000000E+00  0.00000000E+00
  0.00000000E+00  0.00000000E+00  0.00000000E+00
  0.00000000E+00  0.00000000E+00  0.00000000E+00
  0.00000000E+00  0.00000000E+00  0.00000000E+00
  0.00000000E+00  0.00000000E+00  0.00000000E+00
  0.00000000E+00  0.00000000E+00  0.00000000E+00
  0.00000000E+00  0.00000000E+00  0.00000000E+00
  0.00000000E+00  0.00000000E+00  0.00000000E+00
  0.00000000E+00  0.00000000E+00  0.00000000E+00
  0.00000000E+00  0.00000000E+00  0.00000000E+00
  0.00000000E+00  0.00000000E+00  0.00000000E+00
  0.00000000E+00  0.00000000E+00  0.00000000E+00
  0.00000000E+00  0.00000000E+00  0.00000000E+00
  0.00000000E+00  0.00000000E+00  0.00000000E+00
  0.00000000E+00  0.00000000E+00  0.00000000E+00
  0.00000000E+00  0.00000000E+00  0.00000000E+00
  0.00000000E+00  0.00000000E+00  0.00000000E+00
  0.00000000E+00  0.00000000E+00  0.00000000E+00
  0.00000000E+00  0.00000000E+00  0.00000000E+00
  0.00000000E+00  0.00000000E+00  0.00000000E+00
  0.00000000E+00  0.00000000E+00  0.00000000E+00
  0.00000000E+00  0.00000000E+00  0.00000000E+00
  0.00000000E+00  0.00000000E+00  0.00000000E+00
  0.00000000E+00  0.00000000E+00  0.00000000E+00
  0.00000000E+00  0.00000000E+00  0.00000000E+00
  0.00000000E+00  0.00000000E+00  0.00000000E+00
  0.00000000E+00  0.00000000E+00  0.00000000E+00
  0.00000000E+00  0.00000000E+00  0.00000000E+00
  0.00000000E+00  0.00000000E+00  0.00000000E+00
  0.00000000E+00  0.00000000E+00  0.00000000E+00
  0.00000000E+00  0.00000000E+00  0.00000000E+00
  0.00000000E+00  0.00000000E+00  0.00000000E+00
  0.00000000E+00  0.00000000E+00  0.00000000E+00
  0.00000000E+00  0.00000000E+00  0.00000000E+00
  0.00000000E+00  0.00000000E+00  0.00000000E+00
  0.00000000E+00  0.00000000E+00  0.00000000E+00
  0.00000000E+00  0.00000000E+00  0.00000000E+00
  0.00000000E+00  0.00000000E+00  0.00000000E+00
  0.00000000E+00  0.00000000E+00  0.00000000E+00
  0.00000000E+00  0.00000000E+00  0.00000000E+00
  0.00000000E+00  0.00000000E+00  0.00000000E+00
  0.00000000E+00  0.00000000E+00  0.00000000E+00
  0.00000000E+00  0.00000000E+00  0.00000000E+00
  0.00000000E+00  0.00000000E+00  0.00000000E+00
  0.00000000E+00  0.00000000E+00  0.00000000E+00
  0.00000000E+00  0.00000000E+00  0.00000000E+00
  0.00000000E+00  0.00000000E+00  0.00000000E+00
  0.00000000E+00  0.00000000E+00  0.00000000E+00
  0.00000000E+00  0.00000000E+00  0.00000000E+00
  0.00000000E+00  0.00000000E+00  0.00000000E+00
  0.00000000E+00  0.00000000E+00  0.00000000E+00
  0.00000000E+00  0.00000000E+00  0.00000000E+00
  0.00000000E+00  0.00000000E+00  0.00000000E+00
  0.00000000E+00  0.00000000E+00  0.00000000E+00
  0.00000000E+00  0.00000000E+00  0.00000000E+00
  0.00000000E+00  0.00000000E+00  0.00000000E+00
  0.00000000E+00  0.00000000E+00  0.00000000E+00
  0.00000000E+00  0.00000000E+00  0.00000000E+00
  0.00000000E+00  0.00000000E+00  0.00000000E+00
  0.00000000E+00  0.00000000E+00  0.00000000E+00
  0.00000000E+00  0.00000000E+00  0.00000000E+00
  0.00000000E+00  0.00000000E+00  0.00000000E+00
  0.00000000E+00  0.00000000E+00  0.00000000E+00
  0.00000000E+00  0.00000000E+00  0.00000000E+00
  0.00000000E+00  0.00000000E+00  0.00000000E+00
  0.00000000E+00  0.00000000E+00  0.00000000E+00
  0.00000000E+00  0.00000000E+00  0.00000000E+00
  0.00000000E+00  0.00000000E+00  0.00000000E+00
  0.00000000E+00  0.00000000E+00  0.00000000E+00
  0.00000000E+00  0.00000000E+00  0.00000000E+00
  0.00000000E+00  0.00000000E+00  0.00000000E+00
  0.00000000E+00  0.00000000E+00  0.00000000E+00
  0.00000000E+00  0.00000000E+00  0.00000000E+00
  0.00000000E+00  0.00000000E+00  0.00000000E+00
  0.00000000E+00  0.00000000E+00  0.00000000E+00
