FeGe                                    
    1.000000000000000     
    10.9154924248780691   -0.3261372884144781    0.0417164803497941
    -0.3397734659911579   11.0747204171106155    0.1415417973691414
     0.0250524817564417    0.1264552985659391   11.7217652624241762
   Fe   Ge
    48    48
Direct
  0.6488593066763499  0.4073306917527759  0.5146611897530775
  0.3416311348984067  0.7142391302436337  0.1319822521505003
  0.7315425715779398  0.7539160014398902  0.2358541030390739
  0.5728884664774654  0.8035159641328207  0.4031694694005097
  0.6144122752112793  0.4992715529842684  0.1628848586504361
  0.6194979788245689  0.6217839322074994  0.6656330903679901
  0.0205102900092342  0.6093199964767564  0.5715884203843586
  0.0769726865251030  0.0319384538481131  0.6907774659564154
  0.7130285677951491  0.1410114164743277  0.2798502754710270
  0.9426674987404340  0.4530923986349933  0.7707581428154313
  0.7983974211780662  0.3651819065176127  0.1369392615141720
  0.7248057958981420  0.6103230844323875  0.0081915372230839
  0.6038400014610374  0.2333603404224078  0.6566395968424956
  0.8703163604650754  0.9615717231823808  0.5594732853614701
  0.7237244627883825  0.5262258715242254  0.3471934284565421
  0.2303223256297287  0.7543114065230299  0.6752810921543784
  0.9909128238159610  0.7685425465464775  0.1924946162218717
  0.1579105437415365  0.8573451160268775  0.0357172812474644
  0.0725249713149196  0.9936693120963511  0.2123401926151516
  0.3341885909589948  0.4932097558076833  0.4049101994839006
  0.1250952637895111  0.7090711521725268  0.4157199046629216
  0.5423348812963624  0.5485292708244813  0.8529695363850536
  0.8475033645545409  0.7336904649231997  0.6581851603762985
  0.4368296299459544  0.8863477194132372  0.7434357055177188
  0.0005357009200537  0.8794602751342921  0.3838369705726947
  0.2376430235325770  0.9036497041338407  0.4471749619943424
  0.1642590566452284  0.3918506230376124  0.2754342179645022
  0.6119928673315300  0.7656681794488520  0.8335968942398608
  0.6895820106964905  0.9917436837050886  0.4364992714198266
  0.7785843588986339  0.1938343112836662  0.5043329676707557
  0.4067679030304987  0.8890746961624600  0.2883602873676736
  0.3544502813270753  0.0379749723972864  0.9181767549538193
  0.2066694933608133  0.4541972742353053  0.0594088842321341
  0.0109071068494160  0.2812592036966279  0.4398896752075530
  0.0031136184378724  0.8451071333949969  0.7844446705068009
  0.7583622814550353  0.0230878311726173  0.9307761879573135
  0.2720177617583133  0.9934302353754489  0.6344547192854790
  0.6438097657155595  0.8348663801986120  0.6157144194004687
  0.1114532037550262  0.0724637451086920  0.4691370518892697
  0.6091707424160262  0.3792003157557318  0.9801183268857443
  0.3492677136891089  0.7076659529982479  0.3851852739587827
  0.9048437399404747  0.0889610254724005  0.3764608271251859
  0.9057862046516760  0.6609120432616606  0.3662866016418889
  0.3844663656842471  0.4997385817452269  0.1950373475873235
  0.9405243679654305  0.9515557315510321  0.0359497863055793
  0.3804423829091590  0.7879018261284614  0.9256479054878710
  0.1978932819616901  0.8271883191991165  0.2517698862127489
  0.2449629466751446  0.2553341806257876  0.9583907471153168
  0.4400591460564556  0.1100754451190511  0.7257347866809383
  0.1936098330744116  0.6010631002634952  0.2471182668055292
  0.7891099260624230  0.1480642852175151  0.0869973204296244
  0.4573444368613480  0.2124315552784353  0.9802623226006588
  0.7870044343933174  0.9010193444278798  0.7677962965295109
  0.5506563790484975  0.9630406466908852  0.9112788865793036
  0.6757919257537424  0.2065174571734403  0.8518499681985929
  0.5080862143785509  0.6414444611624077  0.0256574667117064
  0.7799021252064335  0.7921855993779872  0.4553634770001480
  0.0922727144314166  0.3877853787002152  0.8949707150768518
  0.4165524346994331  0.6670247836010645  0.7379464544003511
  0.7320926803672094  0.8292517286856693  0.0350385341819290
  0.7735722327125245  0.5914551506161558  0.8112702676069219
  0.8063611007898643  0.5589102333823917  0.5462312909768698
  0.0599576960275385  0.4002585259461924  0.6123973211408753
  0.2755795738194564  0.0550145540780065  0.2774824064485841
  0.8262970328585482  0.3971054457816479  0.9363381125034280
  0.8496187733414047  0.5829168513511078  0.1765034280437519
  0.6115124676762420  0.9494412791703937  0.2397850796048289
  0.2275103741323790  0.3082951565280680  0.4569445330164967
  0.5228452349001032  0.6747054901393739  0.2504904438926445
  0.0524641183480767  0.6390826520274118  0.7738244192721382
  0.5176956006034459  0.4106065876323015  0.3434139341344178
  0.8200259570186645  0.3286411695040599  0.3459279964316195
  0.9572061551061708  0.0562439992297357  0.8540761353700290
  0.0553469393841866  0.8420835744842634  0.5784579162891461
  0.1964937205113131  0.6501657859851306  0.9821695885391932
  0.3831022736186256  0.4344098777305234  0.9401641118868653
  0.9541582540987150  0.7407235664294731  0.9772047094462124
  0.2422985783378522  0.5814524588919312  0.5612762451983002
  0.6635355231957192  0.0436865339209902  0.6315409963974190
  0.8557894126818582  0.9451710073426653  0.2304408855835263
  0.4281672083743260  0.8602603208655779  0.5385817121232748
  0.2993636295528859  0.2817599235510002  0.1617649234325071
  0.2107549865280802  0.1649941157354107  0.7861784245490426
  0.5705924366419239  0.1995261906669867  0.4425208872823703
  0.5155439328246985  0.5948280588020296  0.4935677940663439
  0.0204984104102692  0.4910525316174272  0.3953816878620771
  0.2117693980199604  0.8990845889816512  0.8298214474290688
  0.0706627335809955  0.1953236138814063  0.2670551831148913
  0.3490591953220417  0.1211231757589388  0.4836534429472792
  0.5460770383632152  0.4106957858775075  0.7134179810462058
  0.1409224243411771  0.0795288121227316  0.0311327372675265
  0.3686571972916468  0.9284914715505721  0.0930939037041725
  0.9589568133474273  0.1628218163428414  0.6009757118669086
  0.5834523193642696  0.2739026275462848  0.1700867526626837
  0.0090637033688381  0.4002554916267158  0.1348029349378521
  0.7989605599910306  0.3356620353720103  0.6625530656951213
 
  0.00000000E+00  0.00000000E+00  0.00000000E+00
  0.00000000E+00  0.00000000E+00  0.00000000E+00
  0.00000000E+00  0.00000000E+00  0.00000000E+00
  0.00000000E+00  0.00000000E+00  0.00000000E+00
  0.00000000E+00  0.00000000E+00  0.00000000E+00
  0.00000000E+00  0.00000000E+00  0.00000000E+00
  0.00000000E+00  0.00000000E+00  0.00000000E+00
  0.00000000E+00  0.00000000E+00  0.00000000E+00
  0.00000000E+00  0.00000000E+00  0.00000000E+00
  0.00000000E+00  0.00000000E+00  0.00000000E+00
  0.00000000E+00  0.00000000E+00  0.00000000E+00
  0.00000000E+00  0.00000000E+00  0.00000000E+00
  0.00000000E+00  0.00000000E+00  0.00000000E+00
  0.00000000E+00  0.00000000E+00  0.00000000E+00
  0.00000000E+00  0.00000000E+00  0.00000000E+00
  0.00000000E+00  0.00000000E+00  0.00000000E+00
  0.00000000E+00  0.00000000E+00  0.00000000E+00
  0.00000000E+00  0.00000000E+00  0.00000000E+00
  0.00000000E+00  0.00000000E+00  0.00000000E+00
  0.00000000E+00  0.00000000E+00  0.00000000E+00
  0.00000000E+00  0.00000000E+00  0.00000000E+00
  0.00000000E+00  0.00000000E+00  0.00000000E+00
  0.00000000E+00  0.00000000E+00  0.00000000E+00
  0.00000000E+00  0.00000000E+00  0.00000000E+00
  0.00000000E+00  0.00000000E+00  0.00000000E+00
  0.00000000E+00  0.00000000E+00  0.00000000E+00
  0.00000000E+00  0.00000000E+00  0.00000000E+00
  0.00000000E+00  0.00000000E+00  0.00000000E+00
  0.00000000E+00  0.00000000E+00  0.00000000E+00
  0.00000000E+00  0.00000000E+00  0.00000000E+00
  0.00000000E+00  0.00000000E+00  0.00000000E+00
  0.00000000E+00  0.00000000E+00  0.00000000E+00
  0.00000000E+00  0.00000000E+00  0.00000000E+00
  0.00000000E+00  0.00000000E+00  0.00000000E+00
  0.00000000E+00  0.00000000E+00  0.00000000E+00
  0.00000000E+00  0.00000000E+00  0.00000000E+00
  0.00000000E+00  0.00000000E+00  0.00000000E+00
  0.00000000E+00  0.00000000E+00  0.00000000E+00
  0.00000000E+00  0.00000000E+00  0.00000000E+00
  0.00000000E+00  0.00000000E+00  0.00000000E+00
  0.00000000E+00  0.00000000E+00  0.00000000E+00
  0.00000000E+00  0.00000000E+00  0.00000000E+00
  0.00000000E+00  0.00000000E+00  0.00000000E+00
  0.00000000E+00  0.00000000E+00  0.00000000E+00
  0.00000000E+00  0.00000000E+00  0.00000000E+00
  0.00000000E+00  0.00000000E+00  0.00000000E+00
  0.00000000E+00  0.00000000E+00  0.00000000E+00
  0.00000000E+00  0.00000000E+00  0.00000000E+00
  0.00000000E+00  0.00000000E+00  0.00000000E+00
  0.00000000E+00  0.00000000E+00  0.00000000E+00
  0.00000000E+00  0.00000000E+00  0.00000000E+00
  0.00000000E+00  0.00000000E+00  0.00000000E+00
  0.00000000E+00  0.00000000E+00  0.00000000E+00
  0.00000000E+00  0.00000000E+00  0.00000000E+00
  0.00000000E+00  0.00000000E+00  0.00000000E+00
  0.00000000E+00  0.00000000E+00  0.00000000E+00
  0.00000000E+00  0.00000000E+00  0.00000000E+00
  0.00000000E+00  0.00000000E+00  0.00000000E+00
  0.00000000E+00  0.00000000E+00  0.00000000E+00
  0.00000000E+00  0.00000000E+00  0.00000000E+00
  0.00000000E+00  0.00000000E+00  0.00000000E+00
  0.00000000E+00  0.00000000E+00  0.00000000E+00
  0.00000000E+00  0.00000000E+00  0.00000000E+00
  0.00000000E+00  0.00000000E+00  0.00000000E+00
  0.00000000E+00  0.00000000E+00  0.00000000E+00
  0.00000000E+00  0.00000000E+00  0.00000000E+00
  0.00000000E+00  0.00000000E+00  0.00000000E+00
  0.00000000E+00  0.00000000E+00  0.00000000E+00
  0.00000000E+00  0.00000000E+00  0.00000000E+00
  0.00000000E+00  0.00000000E+00  0.00000000E+00
  0.00000000E+00  0.00000000E+00  0.00000000E+00
  0.00000000E+00  0.00000000E+00  0.00000000E+00
  0.00000000E+00  0.00000000E+00  0.00000000E+00
  0.00000000E+00  0.00000000E+00  0.00000000E+00
  0.00000000E+00  0.00000000E+00  0.00000000E+00
  0.00000000E+00  0.00000000E+00  0.00000000E+00
  0.00000000E+00  0.00000000E+00  0.00000000E+00
  0.00000000E+00  0.00000000E+00  0.00000000E+00
  0.00000000E+00  0.00000000E+00  0.00000000E+00
  0.00000000E+00  0.00000000E+00  0.00000000E+00
  0.00000000E+00  0.00000000E+00  0.00000000E+00
  0.00000000E+00  0.00000000E+00  0.00000000E+00
  0.00000000E+00  0.00000000E+00  0.00000000E+00
  0.00000000E+00  0.00000000E+00  0.00000000E+00
  0.00000000E+00  0.00000000E+00  0.00000000E+00
  0.00000000E+00  0.00000000E+00  0.00000000E+00
  0.00000000E+00  0.00000000E+00  0.00000000E+00
  0.00000000E+00  0.00000000E+00  0.00000000E+00
  0.00000000E+00  0.00000000E+00  0.00000000E+00
  0.00000000E+00  0.00000000E+00  0.00000000E+00
  0.00000000E+00  0.00000000E+00  0.00000000E+00
  0.00000000E+00  0.00000000E+00  0.00000000E+00
  0.00000000E+00  0.00000000E+00  0.00000000E+00
  0.00000000E+00  0.00000000E+00  0.00000000E+00
  0.00000000E+00  0.00000000E+00  0.00000000E+00
  0.00000000E+00  0.00000000E+00  0.00000000E+00
