  Built with Packmol                    
    1.000000000000000     
    11.1219200015288759    0.1101533124821948    0.1441053927709791
     0.1102289948479067   11.5178763207750787    0.0522444287856970
     0.1435653441712979    0.0508787076171536   11.1150913975624341
   Fe   Ge
    48    48
Direct
  0.1465328566313318  0.6326783050143305  0.4015390860104660
  0.9330965345349682  0.1463495860747557  0.5926234180456689
  0.9342137682003511  0.9324674056409137  0.6501297732010443
  0.4467215445411199  0.3778399318595831  0.7491998410151339
  0.5082041468163894  0.0563153067256508  0.1109173244547961
  0.1468373951153410  0.1032771670088337  0.7122443320973773
  0.0454421840093673  0.3148368367961325  0.2382966250409666
  0.7337445843050219  0.5517552626419189  0.0616472878882988
  0.7633773895597997  0.8215514612632617  0.5600685035409612
  0.6846095271716166  0.9297154065357915  0.1944859883701113
  0.4574297254531814  0.0268828631895204  0.8843562718382785
  0.7145270574595273  0.0208142036118346  0.8073842635921054
  0.9951673710127267  0.7878636645108656  0.4841852699628717
  0.9757980636642856  0.2771848390412970  0.7678674274227930
  0.7281999522109786  0.7715157280114084  0.0117288598695993
  0.7408766321400861  0.2161815768303228  0.4816607053285011
  0.6855849430586147  0.4965034290167267  0.7262819248687222
  0.5446520340405385  0.5869570339917871  0.3929803673053200
  0.7429875646087822  0.5434778027178737  0.3199104122773093
  0.1865355304784018  0.8918702289141933  0.5823618410977005
  0.5755690759879784  0.1733717739448011  0.3202187667800658
  0.0315035556914154  0.7694480364441105  0.2761248681913955
  0.3490845231565629  0.6984478816116209  0.5113464186550800
  0.8792322405466351  0.3762289410510036  0.4018024296422382
  0.3949697227155511  0.9058827843038699  0.4823111938987665
  0.6998881055734074  0.1567761356468722  0.1307000857511582
  0.6216128527711575  0.1468587092638032  0.9434348495590115
  0.9926992602937545  0.3254263187787032  0.9947341395203964
  0.3216467292830316  0.5303186898878280  0.1320244438119715
  0.5808819087935007  0.9217245597009054  0.6570857526640026
  0.9545401824610167  0.5323789542483084  0.0043577419472101
  0.9143958365785494  0.8756180351127441  0.1319077802157835
  0.8262259908169725  0.4049283294757444  0.8630056177825978
  0.4362082828494991  0.2451659154938710  0.9265929540807463
  0.2992124250104311  0.0096652974659506  0.2335899769321372
  0.6258007074878478  0.3256374866072136  0.8532748517301840
  0.4405162970862122  0.5931754533775049  0.7821231217619342
  0.3740885826658840  0.9987792315153357  0.6886806411307731
  0.5445403010413585  0.1491626436492837  0.7290722040265578
  0.8199199459048145  0.6154603247353450  0.8479472887766235
  0.8329646906799510  0.1916878418368029  0.9352388879711313
  0.8762437440834745  0.6755485277594673  0.1778858673572614
  0.1548029256750283  0.7989956543196541  0.9644504205694915
  0.3406161406989696  0.9164301996931243  0.0459759215451712
  0.4470504476131580  0.3803603392074635  0.2908095648259348
  0.0494782258560349  0.6478628451549326  0.8102686355581810
  0.7681943237347184  0.2124629868886672  0.7255671196768390
  0.9483047017118693  0.1773915018749719  0.3820339298997482
  0.0797525453120045  0.8482455353983696  0.7672672737892583
  0.0292163253175772  0.9938217069428958  0.4667462454345426
  0.7513376242096612  0.0311205996950932  0.5856038020310237
  0.2601371764353431  0.0806263961481477  0.5265785382077510
  0.4994343403660793  0.9562748712151290  0.3019443215625230
  0.6059815987246822  0.3203526564662127  0.6189777352853341
  0.9047020724671455  0.7054308018371245  0.6674146123722764
  0.8901588040730601  0.4548184145928218  0.1895723846641104
  0.1553301438256582  0.4267010263117683  0.0588792060982541
  0.8546698901752166  0.3811871617600815  0.6185495670022121
  0.0462523676593705  0.4534490822415336  0.8136552125235141
  0.9385131684902177  0.0681825432189314  0.8010361874468117
  0.8239657727967966  0.8462755409009688  0.3473666924473306
  0.3906525101521723  0.4536919329039151  0.9433545821902456
  0.9435213112623018  0.7422777022540927  0.9732099649830133
  0.3645096713940745  0.1887041901801680  0.3534372163360047
  0.3065234941357389  0.1252580672123713  0.0464436551272200
  0.6060788125392094  0.6201643199781230  0.9017072064491103
  0.3298033948803578  0.2023415331522926  0.7482476850651594
  0.7205636762174308  0.3462117177717516  0.0467556373438143
  0.6592621436661119  0.7167899430261571  0.2212675112924316
  0.1491381008926282  0.6727087912837817  0.6100476606063907
  0.5665300715466515  0.7809582568157225  0.4803494187619037
  0.1200190272950366  0.1813993141542127  0.9103273203099533
  0.0881536326803385  0.4303085401193840  0.4264035949030713
  0.5158424243909607  0.0865862165346840  0.5223568947476522
  0.5037282196170239  0.2680775639900332  0.1266582058639401
  0.9040893351569608  0.1990726100702531  0.1487715441860047
  0.4698233304921189  0.5202479210408129  0.5869612612430046
  0.7115747027382113  0.5969585873515584  0.5325381517299022
  0.5399237771593235  0.5201853425389729  0.1607953492428820
  0.2520302741213456  0.6461144183431955  0.8492234863150685
  0.1281018562729344  0.9166027025284080  0.1436375266579404
  0.4155267120401334  0.7911201507244385  0.6991508117884990
  0.5471744607096767  0.8744884119911021  0.0099787172225945
  0.9296271037304109  0.6107451911848329  0.3925901237203959
  0.3407154197856244  0.5695715307894744  0.3400623729522749
  0.6421334434319519  0.3714355358673274  0.3710656284995295
  0.2446216836270523  0.3676191896036158  0.2606096822192185
  0.2505017004736274  0.9544935786003137  0.8543588713795387
  0.7224154295440499  0.8120685123227958  0.7881408588071821
  0.3389548513155134  0.7173118040482009  0.0643506797842193
  0.2237337870459868  0.8346646015028725  0.3708194144633410
  0.1354768484967579  0.1317812610264255  0.2741342031946914
  0.7891521679829268  0.9925097544000607  0.0089143769930544
  0.7731586278265183  0.0774882152598622  0.3171824844451478
  0.1054087710335949  0.2782542481575803  0.5936926850872482
  0.1175985418239947  0.6392341914423127  0.1329918626017346
 
  0.00000000E+00  0.00000000E+00  0.00000000E+00
  0.00000000E+00  0.00000000E+00  0.00000000E+00
  0.00000000E+00  0.00000000E+00  0.00000000E+00
  0.00000000E+00  0.00000000E+00  0.00000000E+00
  0.00000000E+00  0.00000000E+00  0.00000000E+00
  0.00000000E+00  0.00000000E+00  0.00000000E+00
  0.00000000E+00  0.00000000E+00  0.00000000E+00
  0.00000000E+00  0.00000000E+00  0.00000000E+00
  0.00000000E+00  0.00000000E+00  0.00000000E+00
  0.00000000E+00  0.00000000E+00  0.00000000E+00
  0.00000000E+00  0.00000000E+00  0.00000000E+00
  0.00000000E+00  0.00000000E+00  0.00000000E+00
  0.00000000E+00  0.00000000E+00  0.00000000E+00
  0.00000000E+00  0.00000000E+00  0.00000000E+00
  0.00000000E+00  0.00000000E+00  0.00000000E+00
  0.00000000E+00  0.00000000E+00  0.00000000E+00
  0.00000000E+00  0.00000000E+00  0.00000000E+00
  0.00000000E+00  0.00000000E+00  0.00000000E+00
  0.00000000E+00  0.00000000E+00  0.00000000E+00
  0.00000000E+00  0.00000000E+00  0.00000000E+00
  0.00000000E+00  0.00000000E+00  0.00000000E+00
  0.00000000E+00  0.00000000E+00  0.00000000E+00
  0.00000000E+00  0.00000000E+00  0.00000000E+00
  0.00000000E+00  0.00000000E+00  0.00000000E+00
  0.00000000E+00  0.00000000E+00  0.00000000E+00
  0.00000000E+00  0.00000000E+00  0.00000000E+00
  0.00000000E+00  0.00000000E+00  0.00000000E+00
  0.00000000E+00  0.00000000E+00  0.00000000E+00
  0.00000000E+00  0.00000000E+00  0.00000000E+00
  0.00000000E+00  0.00000000E+00  0.00000000E+00
  0.00000000E+00  0.00000000E+00  0.00000000E+00
  0.00000000E+00  0.00000000E+00  0.00000000E+00
  0.00000000E+00  0.00000000E+00  0.00000000E+00
  0.00000000E+00  0.00000000E+00  0.00000000E+00
  0.00000000E+00  0.00000000E+00  0.00000000E+00
  0.00000000E+00  0.00000000E+00  0.00000000E+00
  0.00000000E+00  0.00000000E+00  0.00000000E+00
  0.00000000E+00  0.00000000E+00  0.00000000E+00
  0.00000000E+00  0.00000000E+00  0.00000000E+00
  0.00000000E+00  0.00000000E+00  0.00000000E+00
  0.00000000E+00  0.00000000E+00  0.00000000E+00
  0.00000000E+00  0.00000000E+00  0.00000000E+00
  0.00000000E+00  0.00000000E+00  0.00000000E+00
  0.00000000E+00  0.00000000E+00  0.00000000E+00
  0.00000000E+00  0.00000000E+00  0.00000000E+00
  0.00000000E+00  0.00000000E+00  0.00000000E+00
  0.00000000E+00  0.00000000E+00  0.00000000E+00
  0.00000000E+00  0.00000000E+00  0.00000000E+00
  0.00000000E+00  0.00000000E+00  0.00000000E+00
  0.00000000E+00  0.00000000E+00  0.00000000E+00
  0.00000000E+00  0.00000000E+00  0.00000000E+00
  0.00000000E+00  0.00000000E+00  0.00000000E+00
  0.00000000E+00  0.00000000E+00  0.00000000E+00
  0.00000000E+00  0.00000000E+00  0.00000000E+00
  0.00000000E+00  0.00000000E+00  0.00000000E+00
  0.00000000E+00  0.00000000E+00  0.00000000E+00
  0.00000000E+00  0.00000000E+00  0.00000000E+00
  0.00000000E+00  0.00000000E+00  0.00000000E+00
  0.00000000E+00  0.00000000E+00  0.00000000E+00
  0.00000000E+00  0.00000000E+00  0.00000000E+00
  0.00000000E+00  0.00000000E+00  0.00000000E+00
  0.00000000E+00  0.00000000E+00  0.00000000E+00
  0.00000000E+00  0.00000000E+00  0.00000000E+00
  0.00000000E+00  0.00000000E+00  0.00000000E+00
  0.00000000E+00  0.00000000E+00  0.00000000E+00
  0.00000000E+00  0.00000000E+00  0.00000000E+00
  0.00000000E+00  0.00000000E+00  0.00000000E+00
  0.00000000E+00  0.00000000E+00  0.00000000E+00
  0.00000000E+00  0.00000000E+00  0.00000000E+00
  0.00000000E+00  0.00000000E+00  0.00000000E+00
  0.00000000E+00  0.00000000E+00  0.00000000E+00
  0.00000000E+00  0.00000000E+00  0.00000000E+00
  0.00000000E+00  0.00000000E+00  0.00000000E+00
  0.00000000E+00  0.00000000E+00  0.00000000E+00
  0.00000000E+00  0.00000000E+00  0.00000000E+00
  0.00000000E+00  0.00000000E+00  0.00000000E+00
  0.00000000E+00  0.00000000E+00  0.00000000E+00
  0.00000000E+00  0.00000000E+00  0.00000000E+00
  0.00000000E+00  0.00000000E+00  0.00000000E+00
  0.00000000E+00  0.00000000E+00  0.00000000E+00
  0.00000000E+00  0.00000000E+00  0.00000000E+00
  0.00000000E+00  0.00000000E+00  0.00000000E+00
  0.00000000E+00  0.00000000E+00  0.00000000E+00
  0.00000000E+00  0.00000000E+00  0.00000000E+00
  0.00000000E+00  0.00000000E+00  0.00000000E+00
  0.00000000E+00  0.00000000E+00  0.00000000E+00
  0.00000000E+00  0.00000000E+00  0.00000000E+00
  0.00000000E+00  0.00000000E+00  0.00000000E+00
  0.00000000E+00  0.00000000E+00  0.00000000E+00
  0.00000000E+00  0.00000000E+00  0.00000000E+00
  0.00000000E+00  0.00000000E+00  0.00000000E+00
  0.00000000E+00  0.00000000E+00  0.00000000E+00
  0.00000000E+00  0.00000000E+00  0.00000000E+00
  0.00000000E+00  0.00000000E+00  0.00000000E+00
  0.00000000E+00  0.00000000E+00  0.00000000E+00
  0.00000000E+00  0.00000000E+00  0.00000000E+00
