  Built with Packmol                    
    1.000000000000000     
    11.2211445618758958   -0.3278140516141069   -0.2170165817357048
    -0.3348978159537520   11.4774026394096218   -0.0262424197918406
    -0.2290975171602695   -0.0152682215249978   10.9905102690417724
   Fe   Ge
    48    48
Direct
  0.1695420538959382  0.0772371979436386  0.5236222937086907
  0.9647480089380878  0.8989418378511118  0.9445122077182120
  0.9556690717817204  0.0985788942835768  0.5946653947542586
  0.3302476556826761  0.5115484536092865  0.8748851173309120
  0.5007531050071918  0.4020927274022057  0.5847912706519622
  0.1877266707697416  0.2546668591900385  0.4029169972888624
  0.5975946405360304  0.2231874448017805  0.6615748193770727
  0.2425078173323314  0.6913078416221694  0.5158224469190031
  0.4458225566583636  0.7022943029101540  0.2182567207844244
  0.1387512338614769  0.6385558477416069  0.9009693296602777
  0.3491785806537280  0.2880269557479096  0.2359239787266034
  0.5553851222449424  0.3478539354169641  0.1687026605824400
  0.6998553881508727  0.8076684441810116  0.2047620523402855
  0.0752261610389340  0.2942615236998023  0.2019036068821691
  0.2602849421729658  0.6323175680580135  0.0915633331452881
  0.8880320819218568  0.4521603123574991  0.5096630653314023
  0.6844129750241450  0.1937671627819455  0.2862460980523309
  0.4866215299301615  0.1258495757973535  0.2347017959330628
  0.1169197321886131  0.4574398726171864  0.4046654415562685
  0.3991999665139900  0.3418907440888219  0.7712868406766376
  0.3429776515401670  0.8367622951600779  0.0679410322158205
  0.8533792293158484  0.9978607668816295  0.2357296165295963
  0.9120954816258120  0.7941440522971988  0.3405203283562486
  0.7668505332320166  0.3077261409790992  0.8785741305753803
  0.4558289415523049  0.4917261163119093  0.2779885142148117
  0.5105839599034852  0.3073674492360539  0.3863645908097979
  0.3551130779138134  0.0880055296764084  0.4144402626421737
  0.5283161537616294  0.0130537010754779  0.9755483069302215
  0.4394645368877192  0.2007978442264289  0.0453311193945609
  0.2822547164917211  0.6061272775655482  0.3252892130140097
  0.2145807410116660  0.7891280760709307  0.2575852447891478
  0.6418716879814923  0.5041089547524535  0.4332035567412831
  0.7277461125764901  0.8916115280685162  0.9954979010445371
  0.7377702322900390  0.4106828058622511  0.2789045790237807
  0.5413178128828164  0.3875869499818663  0.9549560080170494
  0.6682998205059576  0.2034675795326777  0.0589917449524506
  0.0783328601592927  0.9754321088691356  0.7247417851510818
  0.4489659962363106  0.5809770950785946  0.4841175232937900
  0.7079627726484077  0.9802374357303663  0.6074171312748433
  0.0121921122701210  0.1269412154473599  0.3520565765555901
  0.5479537143650077  0.9490087377271621  0.3908891521335534
  0.6977178581136059  0.0750274204588166  0.8415254405257713
  0.2069240054680250  0.8719275131511708  0.8668894823165374
  0.1386967215031021  0.4440099699363742  0.9952309343485837
  0.5963515935167365  0.1375239545558884  0.4632679971763523
  0.9825198829639632  0.7135009778795478  0.5768419225632755
  0.8314990328446399  0.6007949891988744  0.1606255403519512
  0.0219376346458233  0.0965388122386415  0.1156895887403309
  0.8094398305570536  0.1885735379076365  0.6988939282648587
  0.9999464314152817  0.9158260423421893  0.5090632445826415
  0.3007678828434450  0.3268458890072026  0.9876495985859179
  0.7673071368179478  0.6862260399966829  0.9397408201059960
  0.9763808666926863  0.7393159438268313  0.8011384412735936
  0.6404658550796682  0.6149722989895352  0.2554397905477757
  0.4446306764866108  0.7722403409656664  0.4438015162145490
  0.3571240189276423  0.2188082513515823  0.5853620380723896
  0.0752434808258116  0.6665148328514903  0.3716780469154557
  0.5422401545168327  0.7996619973486361  0.0471902904794490
  0.3231198676686020  0.4152283842219475  0.4394689279585151
  0.3468931783229792  0.7167073408056908  0.8878792640607145
  0.0794250593679351  0.5328126752836937  0.6028903045035321
  0.6114630083632235  0.8786674713045599  0.8002307859629028
  0.4604133818163234  0.5421119369756866  0.0603697769146621
  0.3515496527200312  0.5700755966121847  0.6686291039223349
  0.7316485847648977  0.8617959423957444  0.4121581428942704
  0.1325258601732315  0.1906499131096382  0.7129613012970495
  0.1278079211136927  0.8030443769922613  0.0528314338055864
  0.8527781496869906  0.4250019768764517  0.7159809713403646
  0.6402543432312626  0.0039538014805842  0.1740172764061398
  0.8445060137414160  0.0764484819693578  0.9962653089893081
  0.1484396624787365  0.4130788918823569  0.7838266253558999
  0.1764557779037048  0.7897669772441347  0.6765521211196983
  0.8220096819119078  0.6244342973327335  0.4245663214007251
  0.8719024227649825  0.2300873951328413  0.2053875861584302
  0.8679483079737906  0.9759620509282882  0.7639085730114203
  0.2215378715715630  0.4491457547939888  0.1969634504009434
  0.7351828285256090  0.4384738614952894  0.0483679115275635
  0.2091234894322582  0.1243655367850778  0.2346786122600477
  0.0638405177727321  0.9337629988296428  0.2638883069945521
  0.8062530076600183  0.0854222434400995  0.4355192441138556
  0.9985857761027503  0.2859341972747416  0.4977425654659413
  0.8912940105718548  0.7998007095812980  0.1209390028189574
  0.1103757697113465  0.0625136083848190  0.9244248974482190
  0.3931768223397896  0.9455247703882108  0.7955577443801189
  0.7130510329769635  0.3255322862897216  0.4986684016862881
  0.9461231939837234  0.4625550161002039  0.2777267026767589
  0.3832012258523108  0.9280811168282384  0.2536231524238133
  0.6200539957518032  0.4392657184267108  0.7693294745063497
  0.4894106973656633  0.0076166749652486  0.5951193406886333
  0.2451932779467825  0.8963334700109868  0.4570622217082345
  0.7869130669872817  0.7766720428818630  0.6314716801974001
  0.6200046461567155  0.6127753558474964  0.6148205949665311
  0.3168781816780992  0.0292166884841976  0.0132198273773838
  0.5350530027039468  0.1916814757493412  0.8598438387914911
  0.9920954267911810  0.5673152249467535  0.0424436586357899
  0.9761598870075687  0.3084108843539397  0.9808161682058625
 
  0.00000000E+00  0.00000000E+00  0.00000000E+00
  0.00000000E+00  0.00000000E+00  0.00000000E+00
  0.00000000E+00  0.00000000E+00  0.00000000E+00
  0.00000000E+00  0.00000000E+00  0.00000000E+00
  0.00000000E+00  0.00000000E+00  0.00000000E+00
  0.00000000E+00  0.00000000E+00  0.00000000E+00
  0.00000000E+00  0.00000000E+00  0.00000000E+00
  0.00000000E+00  0.00000000E+00  0.00000000E+00
  0.00000000E+00  0.00000000E+00  0.00000000E+00
  0.00000000E+00  0.00000000E+00  0.00000000E+00
  0.00000000E+00  0.00000000E+00  0.00000000E+00
  0.00000000E+00  0.00000000E+00  0.00000000E+00
  0.00000000E+00  0.00000000E+00  0.00000000E+00
  0.00000000E+00  0.00000000E+00  0.00000000E+00
  0.00000000E+00  0.00000000E+00  0.00000000E+00
  0.00000000E+00  0.00000000E+00  0.00000000E+00
  0.00000000E+00  0.00000000E+00  0.00000000E+00
  0.00000000E+00  0.00000000E+00  0.00000000E+00
  0.00000000E+00  0.00000000E+00  0.00000000E+00
  0.00000000E+00  0.00000000E+00  0.00000000E+00
  0.00000000E+00  0.00000000E+00  0.00000000E+00
  0.00000000E+00  0.00000000E+00  0.00000000E+00
  0.00000000E+00  0.00000000E+00  0.00000000E+00
  0.00000000E+00  0.00000000E+00  0.00000000E+00
  0.00000000E+00  0.00000000E+00  0.00000000E+00
  0.00000000E+00  0.00000000E+00  0.00000000E+00
  0.00000000E+00  0.00000000E+00  0.00000000E+00
  0.00000000E+00  0.00000000E+00  0.00000000E+00
  0.00000000E+00  0.00000000E+00  0.00000000E+00
  0.00000000E+00  0.00000000E+00  0.00000000E+00
  0.00000000E+00  0.00000000E+00  0.00000000E+00
  0.00000000E+00  0.00000000E+00  0.00000000E+00
  0.00000000E+00  0.00000000E+00  0.00000000E+00
  0.00000000E+00  0.00000000E+00  0.00000000E+00
  0.00000000E+00  0.00000000E+00  0.00000000E+00
  0.00000000E+00  0.00000000E+00  0.00000000E+00
  0.00000000E+00  0.00000000E+00  0.00000000E+00
  0.00000000E+00  0.00000000E+00  0.00000000E+00
  0.00000000E+00  0.00000000E+00  0.00000000E+00
  0.00000000E+00  0.00000000E+00  0.00000000E+00
  0.00000000E+00  0.00000000E+00  0.00000000E+00
  0.00000000E+00  0.00000000E+00  0.00000000E+00
  0.00000000E+00  0.00000000E+00  0.00000000E+00
  0.00000000E+00  0.00000000E+00  0.00000000E+00
  0.00000000E+00  0.00000000E+00  0.00000000E+00
  0.00000000E+00  0.00000000E+00  0.00000000E+00
  0.00000000E+00  0.00000000E+00  0.00000000E+00
  0.00000000E+00  0.00000000E+00  0.00000000E+00
  0.00000000E+00  0.00000000E+00  0.00000000E+00
  0.00000000E+00  0.00000000E+00  0.00000000E+00
  0.00000000E+00  0.00000000E+00  0.00000000E+00
  0.00000000E+00  0.00000000E+00  0.00000000E+00
  0.00000000E+00  0.00000000E+00  0.00000000E+00
  0.00000000E+00  0.00000000E+00  0.00000000E+00
  0.00000000E+00  0.00000000E+00  0.00000000E+00
  0.00000000E+00  0.00000000E+00  0.00000000E+00
  0.00000000E+00  0.00000000E+00  0.00000000E+00
  0.00000000E+00  0.00000000E+00  0.00000000E+00
  0.00000000E+00  0.00000000E+00  0.00000000E+00
  0.00000000E+00  0.00000000E+00  0.00000000E+00
  0.00000000E+00  0.00000000E+00  0.00000000E+00
  0.00000000E+00  0.00000000E+00  0.00000000E+00
  0.00000000E+00  0.00000000E+00  0.00000000E+00
  0.00000000E+00  0.00000000E+00  0.00000000E+00
  0.00000000E+00  0.00000000E+00  0.00000000E+00
  0.00000000E+00  0.00000000E+00  0.00000000E+00
  0.00000000E+00  0.00000000E+00  0.00000000E+00
  0.00000000E+00  0.00000000E+00  0.00000000E+00
  0.00000000E+00  0.00000000E+00  0.00000000E+00
  0.00000000E+00  0.00000000E+00  0.00000000E+00
  0.00000000E+00  0.00000000E+00  0.00000000E+00
  0.00000000E+00  0.00000000E+00  0.00000000E+00
  0.00000000E+00  0.00000000E+00  0.00000000E+00
  0.00000000E+00  0.00000000E+00  0.00000000E+00
  0.00000000E+00  0.00000000E+00  0.00000000E+00
  0.00000000E+00  0.00000000E+00  0.00000000E+00
  0.00000000E+00  0.00000000E+00  0.00000000E+00
  0.00000000E+00  0.00000000E+00  0.00000000E+00
  0.00000000E+00  0.00000000E+00  0.00000000E+00
  0.00000000E+00  0.00000000E+00  0.00000000E+00
  0.00000000E+00  0.00000000E+00  0.00000000E+00
  0.00000000E+00  0.00000000E+00  0.00000000E+00
  0.00000000E+00  0.00000000E+00  0.00000000E+00
  0.00000000E+00  0.00000000E+00  0.00000000E+00
  0.00000000E+00  0.00000000E+00  0.00000000E+00
  0.00000000E+00  0.00000000E+00  0.00000000E+00
  0.00000000E+00  0.00000000E+00  0.00000000E+00
  0.00000000E+00  0.00000000E+00  0.00000000E+00
  0.00000000E+00  0.00000000E+00  0.00000000E+00
  0.00000000E+00  0.00000000E+00  0.00000000E+00
  0.00000000E+00  0.00000000E+00  0.00000000E+00
  0.00000000E+00  0.00000000E+00  0.00000000E+00
  0.00000000E+00  0.00000000E+00  0.00000000E+00
  0.00000000E+00  0.00000000E+00  0.00000000E+00
  0.00000000E+00  0.00000000E+00  0.00000000E+00
  0.00000000E+00  0.00000000E+00  0.00000000E+00
