  Built with Packmol                    
   1.00000000000000     
    11.0953890787502996    0.1094110113641133    0.1632036490526285
     0.1078674069413592   11.5176297732065045    0.0948859245102398
     0.1600599729498850    0.0917055647747712   11.1743832396631078
   Fe   Ge
    48    48
Direct
  0.1535171303435447  0.6315817360555656  0.4013854135983266
  0.9285071942937648  0.1498948212647093  0.5892980214471351
  0.9438319869024241  0.9352461031009298  0.6469096497238951
  0.4518141394964346  0.3822101442175381  0.7481975166204364
  0.5081963901787603  0.0486846035357047  0.1196005575057058
  0.1408858862570810  0.1031007536471620  0.7184595337079074
  0.0433261835634653  0.3121799360806108  0.2385460111434696
  0.7360987822163167  0.5549076357698084  0.0683861137795958
  0.7633387121318904  0.8169364502818226  0.5562093505900947
  0.6968058364838612  0.9095271711594464  0.1907349312732620
  0.4605772688760936  0.0255598925203415  0.8794927474540231
  0.7005972328662793  0.0076195842318469  0.8141382797031653
  0.0033154436536549  0.7959167292974882  0.4904689684526815
  0.9640496056243393  0.2766864406695078  0.7729146583434883
  0.7367898634893848  0.7771891942188134  0.0086011691740921
  0.7346388848067136  0.2090283727466939  0.4811310860720326
  0.6768180694890020  0.5008598001132825  0.7305188783403480
  0.5493833147475158  0.5823713185793054  0.3852326110687798
  0.7607615352557957  0.5421424752978652  0.3278673698614369
  0.1879454485391321  0.8881553294588471  0.5803152202538158
  0.5666153807889671  0.1775549197298716  0.3208519742901572
  0.0349289167902924  0.7784493878845566  0.2766664174079452
  0.3490373434852927  0.6993885614415234  0.5110705976464942
  0.8759775396467120  0.3746690166545577  0.4066487068944795
  0.3971301298381817  0.9108697990853543  0.4767814046447540
  0.6968583988652952  0.1547767224530432  0.1297102783116273
  0.6167423225740905  0.1391304092192129  0.9452846043019463
  0.9901573761860760  0.3316232073008791  0.9936569679059630
  0.3196028572665313  0.5296890652514605  0.1316142745235567
  0.5758290260053869  0.9143910202489067  0.6522522698314788
  0.9603891552703203  0.5404120181619874  0.0084739452690954
  0.9207204280674546  0.8795695959055791  0.1315440021500081
  0.8195091033314270  0.4208108095098098  0.8695635231340120
  0.4399174722557504  0.2478044762665519  0.9227690195042584
  0.3072372381366790  0.0088021146763637  0.2326656060608272
  0.6351012342472231  0.3189425178099441  0.8484619251756342
  0.4502127926518753  0.5930786187987493  0.7809478867133492
  0.3732992410882616  0.0082835671906025  0.6831278651958712
  0.5384424552195597  0.1484813462366787  0.7191956449701991
  0.8255589073887606  0.6188646037394108  0.8511252511570930
  0.8268558499792746  0.2003890118413594  0.9343801918013099
  0.8769588465882094  0.6772488710550988  0.1763231143140729
  0.1601457769210484  0.8011824615735534  0.9646444367058109
  0.3432205572604872  0.9192513601437824  0.0444564201867905
  0.4471559312363098  0.3772913090472940  0.2890454909710485
  0.0532251602357761  0.6487504621060012  0.8091581358818587
  0.7585021405748549  0.1965137893975992  0.7275701841193509
  0.9396192490534574  0.1745843692619786  0.3757615787279320
  0.0850921493925725  0.8502424852676498  0.7686114668404969
  0.0309558966300472  0.0005934744310920  0.4601590063811400
  0.7518421067973335  0.0231177897505574  0.5895006398647880
  0.2511661834279693  0.0833139452183929  0.5277482470826769
  0.5142772117028045  0.9489037403285963  0.3026838809586749
  0.6051735119609063  0.3223605151075475  0.6145827353721174
  0.9059408933100883  0.7074430229193922  0.6679954673836264
  0.8920230238271927  0.4518694045572929  0.1886790469714015
  0.1537360032191302  0.4260720131391764  0.0615042081425017
  0.8452059455773409  0.3771465874485713  0.6252769090727028
  0.0378603222621692  0.4545452349742121  0.8127881960142318
  0.9294413155214230  0.0663961933860691  0.8022684649681295
  0.8284379642107922  0.8459105022525222  0.3490415364734503
  0.3897408538139686  0.4510787939083514  0.9458789404676438
  0.9506118351198367  0.7486505764219444  0.9709834551023135
  0.3575179778540374  0.1880524061270847  0.3537229029358855
  0.3095217210702472  0.1284882937862832  0.0426825041472441
  0.6113296125485874  0.6163139311232015  0.9105319213601746
  0.3246027688103652  0.2098252975318573  0.7495506030145407
  0.7153262169284389  0.3497689517593869  0.0483830557086407
  0.6578078334056841  0.7052390952787775  0.2269425996556294
  0.1530221013138870  0.6683421873737529  0.6107524178050880
  0.5623674299912338  0.7744234809123185  0.4813191031572757
  0.1107735551723223  0.1802600414140869  0.9152027707796151
  0.0866103571352212  0.4279072905940424  0.4304819111242963
  0.5198691810972065  0.0825026110734015  0.5148026673808914
  0.5031901612089413  0.2663032383132062  0.1239293033577979
  0.9010072808418386  0.2016326281167764  0.1456679900812290
  0.4668759062863046  0.5221598553894609  0.5797719944697519
  0.7127212058276413  0.5921883377087767  0.5333003893683568
  0.5386107040484731  0.5202057346512206  0.1610710220647320
  0.2570267235493873  0.6471332960635792  0.8532982276729513
  0.1349222094942277  0.9191037011420988  0.1422596203976667
  0.3997675313348381  0.7964118590120037  0.6925347037915230
  0.5525902207440225  0.8771053492106589  0.0076642095781949
  0.9397407853394526  0.6174173391659465  0.3938047978457462
  0.3468986657450515  0.5721251794900581  0.3379527561344844
  0.6409482739205501  0.3746440297156397  0.3744438413524591
  0.2410991011886878  0.3718815140260787  0.2653086699201666
  0.2523030773661432  0.9605004179046261  0.8545372405254241
  0.7139148941619453  0.7996465072053596  0.7805381425383331
  0.3415331180335102  0.7187890279442755  0.0667629025852179
  0.2286346922951239  0.8327201736907313  0.3681705036866205
  0.1350002087430369  0.1300650375676895  0.2687294407591452
  0.7917601977914970  0.9972000897211615  0.0104418919806406
  0.7611831105633868  0.0739526081349027  0.3136603269158300
  0.1014896051253800  0.2815313279158218  0.6033375013478590
  0.1186302912335435  0.6430786009324194  0.1351434824187763
 
  0.00000000E+00  0.00000000E+00  0.00000000E+00
  0.00000000E+00  0.00000000E+00  0.00000000E+00
  0.00000000E+00  0.00000000E+00  0.00000000E+00
  0.00000000E+00  0.00000000E+00  0.00000000E+00
  0.00000000E+00  0.00000000E+00  0.00000000E+00
  0.00000000E+00  0.00000000E+00  0.00000000E+00
  0.00000000E+00  0.00000000E+00  0.00000000E+00
  0.00000000E+00  0.00000000E+00  0.00000000E+00
  0.00000000E+00  0.00000000E+00  0.00000000E+00
  0.00000000E+00  0.00000000E+00  0.00000000E+00
  0.00000000E+00  0.00000000E+00  0.00000000E+00
  0.00000000E+00  0.00000000E+00  0.00000000E+00
  0.00000000E+00  0.00000000E+00  0.00000000E+00
  0.00000000E+00  0.00000000E+00  0.00000000E+00
  0.00000000E+00  0.00000000E+00  0.00000000E+00
  0.00000000E+00  0.00000000E+00  0.00000000E+00
  0.00000000E+00  0.00000000E+00  0.00000000E+00
  0.00000000E+00  0.00000000E+00  0.00000000E+00
  0.00000000E+00  0.00000000E+00  0.00000000E+00
  0.00000000E+00  0.00000000E+00  0.00000000E+00
  0.00000000E+00  0.00000000E+00  0.00000000E+00
  0.00000000E+00  0.00000000E+00  0.00000000E+00
  0.00000000E+00  0.00000000E+00  0.00000000E+00
  0.00000000E+00  0.00000000E+00  0.00000000E+00
  0.00000000E+00  0.00000000E+00  0.00000000E+00
  0.00000000E+00  0.00000000E+00  0.00000000E+00
  0.00000000E+00  0.00000000E+00  0.00000000E+00
  0.00000000E+00  0.00000000E+00  0.00000000E+00
  0.00000000E+00  0.00000000E+00  0.00000000E+00
  0.00000000E+00  0.00000000E+00  0.00000000E+00
  0.00000000E+00  0.00000000E+00  0.00000000E+00
  0.00000000E+00  0.00000000E+00  0.00000000E+00
  0.00000000E+00  0.00000000E+00  0.00000000E+00
  0.00000000E+00  0.00000000E+00  0.00000000E+00
  0.00000000E+00  0.00000000E+00  0.00000000E+00
  0.00000000E+00  0.00000000E+00  0.00000000E+00
  0.00000000E+00  0.00000000E+00  0.00000000E+00
  0.00000000E+00  0.00000000E+00  0.00000000E+00
  0.00000000E+00  0.00000000E+00  0.00000000E+00
  0.00000000E+00  0.00000000E+00  0.00000000E+00
  0.00000000E+00  0.00000000E+00  0.00000000E+00
  0.00000000E+00  0.00000000E+00  0.00000000E+00
  0.00000000E+00  0.00000000E+00  0.00000000E+00
  0.00000000E+00  0.00000000E+00  0.00000000E+00
  0.00000000E+00  0.00000000E+00  0.00000000E+00
  0.00000000E+00  0.00000000E+00  0.00000000E+00
  0.00000000E+00  0.00000000E+00  0.00000000E+00
  0.00000000E+00  0.00000000E+00  0.00000000E+00
  0.00000000E+00  0.00000000E+00  0.00000000E+00
  0.00000000E+00  0.00000000E+00  0.00000000E+00
  0.00000000E+00  0.00000000E+00  0.00000000E+00
  0.00000000E+00  0.00000000E+00  0.00000000E+00
  0.00000000E+00  0.00000000E+00  0.00000000E+00
  0.00000000E+00  0.00000000E+00  0.00000000E+00
  0.00000000E+00  0.00000000E+00  0.00000000E+00
  0.00000000E+00  0.00000000E+00  0.00000000E+00
  0.00000000E+00  0.00000000E+00  0.00000000E+00
  0.00000000E+00  0.00000000E+00  0.00000000E+00
  0.00000000E+00  0.00000000E+00  0.00000000E+00
  0.00000000E+00  0.00000000E+00  0.00000000E+00
  0.00000000E+00  0.00000000E+00  0.00000000E+00
  0.00000000E+00  0.00000000E+00  0.00000000E+00
  0.00000000E+00  0.00000000E+00  0.00000000E+00
  0.00000000E+00  0.00000000E+00  0.00000000E+00
  0.00000000E+00  0.00000000E+00  0.00000000E+00
  0.00000000E+00  0.00000000E+00  0.00000000E+00
  0.00000000E+00  0.00000000E+00  0.00000000E+00
  0.00000000E+00  0.00000000E+00  0.00000000E+00
  0.00000000E+00  0.00000000E+00  0.00000000E+00
  0.00000000E+00  0.00000000E+00  0.00000000E+00
  0.00000000E+00  0.00000000E+00  0.00000000E+00
  0.00000000E+00  0.00000000E+00  0.00000000E+00
  0.00000000E+00  0.00000000E+00  0.00000000E+00
  0.00000000E+00  0.00000000E+00  0.00000000E+00
  0.00000000E+00  0.00000000E+00  0.00000000E+00
  0.00000000E+00  0.00000000E+00  0.00000000E+00
  0.00000000E+00  0.00000000E+00  0.00000000E+00
  0.00000000E+00  0.00000000E+00  0.00000000E+00
  0.00000000E+00  0.00000000E+00  0.00000000E+00
  0.00000000E+00  0.00000000E+00  0.00000000E+00
  0.00000000E+00  0.00000000E+00  0.00000000E+00
  0.00000000E+00  0.00000000E+00  0.00000000E+00
  0.00000000E+00  0.00000000E+00  0.00000000E+00
  0.00000000E+00  0.00000000E+00  0.00000000E+00
  0.00000000E+00  0.00000000E+00  0.00000000E+00
  0.00000000E+00  0.00000000E+00  0.00000000E+00
  0.00000000E+00  0.00000000E+00  0.00000000E+00
  0.00000000E+00  0.00000000E+00  0.00000000E+00
  0.00000000E+00  0.00000000E+00  0.00000000E+00
  0.00000000E+00  0.00000000E+00  0.00000000E+00
  0.00000000E+00  0.00000000E+00  0.00000000E+00
  0.00000000E+00  0.00000000E+00  0.00000000E+00
  0.00000000E+00  0.00000000E+00  0.00000000E+00
  0.00000000E+00  0.00000000E+00  0.00000000E+00
  0.00000000E+00  0.00000000E+00  0.00000000E+00
  0.00000000E+00  0.00000000E+00  0.00000000E+00
