  Built with Packmol                    
    1.000000000000000     
    10.9050724917176556   -0.3369296021779664   -0.0248008684891750
    -0.3509891904810545   11.0829521059351066    0.1008852622004957
    -0.0472015099865353    0.0786400244275668   11.7548572239133531
   Fe   Ge
    48    48
Direct
  0.6437295110411796  0.4061230820592457  0.5143027051500474
  0.3441293125861847  0.7123569056784111  0.1277913540241243
  0.7358706054300704  0.7613229784075299  0.2428822139489964
  0.5637377152739194  0.7973309125726009  0.4017688786153902
  0.6009255375122907  0.4880873090887977  0.1550438111699315
  0.6239034741269933  0.6141850264310746  0.6643175195642583
  0.0265770738100103  0.6218232584520578  0.5815692997614336
  0.0771318232508861  0.0318513223861602  0.6934757882671643
  0.7207154964018385  0.1336207140991902  0.2799203042847159
  0.9422205772906627  0.4566584320945890  0.7771305955292109
  0.7970766567095909  0.3663429455471389  0.1399244029216491
  0.7250271101037570  0.6107399328114299  0.0169272288390338
  0.6022078544725497  0.2308512342546878  0.6591761268588566
  0.8729952037490372  0.9541244195578127  0.5608680024897150
  0.7190284177627201  0.5203958849786264  0.3431161846798884
  0.2317111702147418  0.7494358131746668  0.6891052134911481
  0.9774682130637102  0.7779310402440879  0.1758820593938256
  0.1663120417465067  0.8702782946178093  0.0415802282759326
  0.0840442435361975  0.9948769757281410  0.2242603043145487
  0.3320346337599651  0.4783499303863081  0.4138715339188632
  0.1196316066393368  0.7086503124784145  0.4057267058512832
  0.5460284984083663  0.5521357284080569  0.8588037392336072
  0.8316252050717401  0.7216788441151533  0.6654890265924183
  0.4393660870477964  0.8904350047671119  0.7346992436586283
  0.9861134182772437  0.8730463275062604  0.3752067006169572
  0.2319689812566980  0.9134705484532123  0.4153247399059938
  0.1678890471410011  0.3937695092798513  0.2852795307859954
  0.6176875250076000  0.7720588881859928  0.8335461677202706
  0.6860933948384899  0.9885940495698704  0.4355964559958788
  0.7737114474123409  0.1969616811739516  0.5110308808807877
  0.4078631001928349  0.8861476888359910  0.2777470766443770
  0.3483451994839989  0.0402182608108506  0.9161880323399767
  0.2058206562088056  0.4569998970902804  0.0650135196566354
  0.0093751814683015  0.2875715809930146  0.4484741107166285
  0.0020165653230028  0.8360152064838487  0.7496224452774116
  0.7572222553829245  0.0166430545053009  0.9288045384369458
  0.2722491782209249  0.9861130369437392  0.6288722532416614
  0.6164304580942935  0.8235587391261903  0.6097571620779023
  0.1111601928593468  0.0708510439640945  0.4791087740318745
  0.6137604683032997  0.3737835127846189  0.9736196670180913
  0.3484236183254864  0.6988334357930680  0.3690567164154903
  0.9070120073764475  0.0914872943622825  0.3912035883833777
  0.8992715741827009  0.6568544566021784  0.3685712788583486
  0.3783259267880441  0.4989477110344909  0.2036494201913128
  0.9451244240841459  0.9717066271549210  0.0464085817584385
  0.3733845971000471  0.7869704595110358  0.9173600024109394
  0.1941777643603036  0.8153698319033061  0.2401796009942107
  0.2479296739378718  0.2622927905727561  0.9662319536379794
  0.4345094134942283  0.1102559358598524  0.7218692907807462
  0.1843871476437051  0.5990600672874323  0.2334226858651776
  0.7983039720522407  0.1468598052183612  0.0841696772377991
  0.4583265625435909  0.2122594325098557  0.9774437119787970
  0.7873969549454739  0.9013257555138809  0.7607492636625023
  0.5464834953888046  0.9648292144242600  0.9062147566374221
  0.6761605159596551  0.2008123265577768  0.8534250181265659
  0.5203232834812151  0.6727872742449647  0.0183318411980030
  0.7735696822520575  0.7872445562155617  0.4597732328477039
  0.0926077117873731  0.3911170929124992  0.9001189508791581
  0.4209751698574838  0.6679148024705903  0.7385932459473188
  0.7498285802161364  0.8297969153967417  0.0394914886897382
  0.7712063189269875  0.5886559834320169  0.8216148213228498
  0.8080072320675319  0.5559364197699209  0.5399839192805665
  0.0472822444745315  0.4080988821573022  0.6147296350441805
  0.2973175508387753  0.0635479946853540  0.2631288360887016
  0.8321926224284899  0.3947353417577346  0.9415058741369011
  0.8506088870954998  0.5812876856122468  0.1809566821815914
  0.6104016069917112  0.9463893830326882  0.2383929815831700
  0.2241702713205494  0.3022264158963513  0.4703479264783197
  0.5267325601908920  0.6674221609419527  0.2455848532926108
  0.0667767814605912  0.6335803812308172  0.7846142214306233
  0.5135344617945622  0.4028003054932649  0.3396813093636449
  0.8206891445094212  0.3255104641025360  0.3490460986814141
  0.9592624385553115  0.0434774412352620  0.8558144609195910
  0.0761661240836369  0.8496078251503926  0.5617228646338618
  0.1939489870480998  0.6531209616785766  0.9798911276779478
  0.4001245249921364  0.4460986780752856  0.9766399087868178
  0.9780227910533724  0.7778092784565294  0.9536172033768137
  0.2459120970079603  0.5965488098849516  0.5520239158552303
  0.6608900295906663  0.0380301343652131  0.6303526311269517
  0.8562082037638461  0.9659135138746233  0.2319044717943130
  0.3992767861608159  0.8431694510462433  0.5313876270316877
  0.2991606997709509  0.2822327030829776  0.1702938034740352
  0.2086788246065418  0.1684972961775449  0.7919812178846852
  0.5681162974106136  0.1972250206053593  0.4449254127283962
  0.5153028809617293  0.5935177650136382  0.4914989642508949
  0.0215246482981689  0.4946940626433960  0.3998118036407498
  0.2039812409082949  0.8996239962412368  0.8299822202412562
  0.0726697654061496  0.1954046097186827  0.2812853287068396
  0.3491415854526048  0.1125254188876237  0.4796433889766462
  0.5467891285794703  0.4071532548894363  0.7234912745091451
  0.1418968253579897  0.0886056615526797  0.0372051959866199
  0.3789597699968557  0.9285508085533893  0.0862115623689941
  0.9560751765331847  0.1609887767142544  0.6030250525868404
  0.5891981639530754  0.2634599194996740  0.1672499110120715
  0.0100100503045061  0.3959179777943015  0.1396740798361967
  0.7966147013436607  0.3380297877104117  0.6669681885033912
 
  0.00000000E+00  0.00000000E+00  0.00000000E+00
  0.00000000E+00  0.00000000E+00  0.00000000E+00
  0.00000000E+00  0.00000000E+00  0.00000000E+00
  0.00000000E+00  0.00000000E+00  0.00000000E+00
  0.00000000E+00  0.00000000E+00  0.00000000E+00
  0.00000000E+00  0.00000000E+00  0.00000000E+00
  0.00000000E+00  0.00000000E+00  0.00000000E+00
  0.00000000E+00  0.00000000E+00  0.00000000E+00
  0.00000000E+00  0.00000000E+00  0.00000000E+00
  0.00000000E+00  0.00000000E+00  0.00000000E+00
  0.00000000E+00  0.00000000E+00  0.00000000E+00
  0.00000000E+00  0.00000000E+00  0.00000000E+00
  0.00000000E+00  0.00000000E+00  0.00000000E+00
  0.00000000E+00  0.00000000E+00  0.00000000E+00
  0.00000000E+00  0.00000000E+00  0.00000000E+00
  0.00000000E+00  0.00000000E+00  0.00000000E+00
  0.00000000E+00  0.00000000E+00  0.00000000E+00
  0.00000000E+00  0.00000000E+00  0.00000000E+00
  0.00000000E+00  0.00000000E+00  0.00000000E+00
  0.00000000E+00  0.00000000E+00  0.00000000E+00
  0.00000000E+00  0.00000000E+00  0.00000000E+00
  0.00000000E+00  0.00000000E+00  0.00000000E+00
  0.00000000E+00  0.00000000E+00  0.00000000E+00
  0.00000000E+00  0.00000000E+00  0.00000000E+00
  0.00000000E+00  0.00000000E+00  0.00000000E+00
  0.00000000E+00  0.00000000E+00  0.00000000E+00
  0.00000000E+00  0.00000000E+00  0.00000000E+00
  0.00000000E+00  0.00000000E+00  0.00000000E+00
  0.00000000E+00  0.00000000E+00  0.00000000E+00
  0.00000000E+00  0.00000000E+00  0.00000000E+00
  0.00000000E+00  0.00000000E+00  0.00000000E+00
  0.00000000E+00  0.00000000E+00  0.00000000E+00
  0.00000000E+00  0.00000000E+00  0.00000000E+00
  0.00000000E+00  0.00000000E+00  0.00000000E+00
  0.00000000E+00  0.00000000E+00  0.00000000E+00
  0.00000000E+00  0.00000000E+00  0.00000000E+00
  0.00000000E+00  0.00000000E+00  0.00000000E+00
  0.00000000E+00  0.00000000E+00  0.00000000E+00
  0.00000000E+00  0.00000000E+00  0.00000000E+00
  0.00000000E+00  0.00000000E+00  0.00000000E+00
  0.00000000E+00  0.00000000E+00  0.00000000E+00
  0.00000000E+00  0.00000000E+00  0.00000000E+00
  0.00000000E+00  0.00000000E+00  0.00000000E+00
  0.00000000E+00  0.00000000E+00  0.00000000E+00
  0.00000000E+00  0.00000000E+00  0.00000000E+00
  0.00000000E+00  0.00000000E+00  0.00000000E+00
  0.00000000E+00  0.00000000E+00  0.00000000E+00
  0.00000000E+00  0.00000000E+00  0.00000000E+00
  0.00000000E+00  0.00000000E+00  0.00000000E+00
  0.00000000E+00  0.00000000E+00  0.00000000E+00
  0.00000000E+00  0.00000000E+00  0.00000000E+00
  0.00000000E+00  0.00000000E+00  0.00000000E+00
  0.00000000E+00  0.00000000E+00  0.00000000E+00
  0.00000000E+00  0.00000000E+00  0.00000000E+00
  0.00000000E+00  0.00000000E+00  0.00000000E+00
  0.00000000E+00  0.00000000E+00  0.00000000E+00
  0.00000000E+00  0.00000000E+00  0.00000000E+00
  0.00000000E+00  0.00000000E+00  0.00000000E+00
  0.00000000E+00  0.00000000E+00  0.00000000E+00
  0.00000000E+00  0.00000000E+00  0.00000000E+00
  0.00000000E+00  0.00000000E+00  0.00000000E+00
  0.00000000E+00  0.00000000E+00  0.00000000E+00
  0.00000000E+00  0.00000000E+00  0.00000000E+00
  0.00000000E+00  0.00000000E+00  0.00000000E+00
  0.00000000E+00  0.00000000E+00  0.00000000E+00
  0.00000000E+00  0.00000000E+00  0.00000000E+00
  0.00000000E+00  0.00000000E+00  0.00000000E+00
  0.00000000E+00  0.00000000E+00  0.00000000E+00
  0.00000000E+00  0.00000000E+00  0.00000000E+00
  0.00000000E+00  0.00000000E+00  0.00000000E+00
  0.00000000E+00  0.00000000E+00  0.00000000E+00
  0.00000000E+00  0.00000000E+00  0.00000000E+00
  0.00000000E+00  0.00000000E+00  0.00000000E+00
  0.00000000E+00  0.00000000E+00  0.00000000E+00
  0.00000000E+00  0.00000000E+00  0.00000000E+00
  0.00000000E+00  0.00000000E+00  0.00000000E+00
  0.00000000E+00  0.00000000E+00  0.00000000E+00
  0.00000000E+00  0.00000000E+00  0.00000000E+00
  0.00000000E+00  0.00000000E+00  0.00000000E+00
  0.00000000E+00  0.00000000E+00  0.00000000E+00
  0.00000000E+00  0.00000000E+00  0.00000000E+00
  0.00000000E+00  0.00000000E+00  0.00000000E+00
  0.00000000E+00  0.00000000E+00  0.00000000E+00
  0.00000000E+00  0.00000000E+00  0.00000000E+00
  0.00000000E+00  0.00000000E+00  0.00000000E+00
  0.00000000E+00  0.00000000E+00  0.00000000E+00
  0.00000000E+00  0.00000000E+00  0.00000000E+00
  0.00000000E+00  0.00000000E+00  0.00000000E+00
  0.00000000E+00  0.00000000E+00  0.00000000E+00
  0.00000000E+00  0.00000000E+00  0.00000000E+00
  0.00000000E+00  0.00000000E+00  0.00000000E+00
  0.00000000E+00  0.00000000E+00  0.00000000E+00
  0.00000000E+00  0.00000000E+00  0.00000000E+00
  0.00000000E+00  0.00000000E+00  0.00000000E+00
  0.00000000E+00  0.00000000E+00  0.00000000E+00
  0.00000000E+00  0.00000000E+00  0.00000000E+00
