  Built with Packmol                    
   1.00000000000000     
    11.1458540691972541    0.0943045008356253    0.2229914032435558
     0.0851755952094069   11.3090844633511534    0.1213140857389275
     0.2225689314228942    0.1106013545053396   11.2624539678324087
   Fe   Ge
    48    48
Direct
  0.1389812128979244  0.6310633326762840  0.4038900031215107
  0.9031804559071617  0.1440635653628703  0.6177186121396048
  0.9109872627673852  0.9102816133330123  0.6649592552230601
  0.4359807051741456  0.3939713814787567  0.7422732961511258
  0.5132534259594976  0.0410220564792283  0.0944735658625930
  0.1545546304296792  0.1026681347791936  0.7189756523344855
  0.0418470754507112  0.3008942953554978  0.2360051609623994
  0.7359800352201091  0.5301111841513091  0.0562150914988706
  0.7455243424398219  0.8016887428568040  0.5588008256525328
  0.6887333530917914  0.9251502073575111  0.1963408667194528
  0.4835509248548888  0.0213987342759694  0.8782464262147442
  0.7247727478464299  0.0372680243986849  0.7861118097981503
  0.9825143380253820  0.7907902342379529  0.4984236291043516
  0.9784768817083389  0.2764875787727377  0.7760190695462370
  0.7319869773202754  0.7688884042351347  0.0140778020069305
  0.7255215989713903  0.2173418801575338  0.5105633837297674
  0.7220431277312969  0.5279082308143899  0.7152279866671449
  0.5381639619551208  0.5773114885331836  0.3795646479431198
  0.7420380480496505  0.5407964814886981  0.3081704207542870
  0.1899557331153190  0.8932417637851131  0.5806275552848490
  0.5798653448014122  0.1681732570723469  0.3162830824942446
  0.0232529829353183  0.7784128805319597  0.2769521749943067
  0.3377590651906957  0.6987060579385869  0.4993987090996228
  0.8666741429110303  0.3781354803645627  0.4026305998329320
  0.3899246551089561  0.9147982792225804  0.4705488462811545
  0.7084721039318111  0.1308962886264169  0.1348052867131599
  0.6333893768609045  0.1668819119203562  0.9292319691413127
  0.9840415821772908  0.3213657385711244  0.0071459405889982
  0.3202738231898863  0.5234104404249535  0.1320170959812259
  0.5772782455225069  0.9138336474931279  0.6664809461965646
  0.9620741765302867  0.5455468743861687  0.0139544059156762
  0.9144388850221716  0.9163648677120406  0.1309311195561733
  0.8330037523004492  0.4155364935239305  0.8738952355433582
  0.4429821131900624  0.2450958439174897  0.9242237037737624
  0.3000007734510106  0.0043361033082761  0.2320784832317315
  0.6079904009833612  0.3838036064550678  0.8737787333530207
  0.4548244232580387  0.6037899595370817  0.7642709852398752
  0.3832348776803229  0.0161754079229723  0.6755990254964175
  0.5514329612787066  0.1631096185656133  0.7248313431612559
  0.8319621664833790  0.6292070420384874  0.8674874080990804
  0.8560056225094286  0.1673857046875185  0.9439516201072493
  0.8734297919628773  0.6680790569978470  0.1708491736044735
  0.1711647143957933  0.7996338260557820  0.9589684900379893
  0.3355080645277368  0.9143305045568866  0.0397529142102471
  0.4440056301094799  0.3728887273752051  0.2860484753809800
  0.0531963466131060  0.6570567654238033  0.8158914196473148
  0.7589612054919783  0.2498079137513258  0.7602246563459545
  0.9646983685447310  0.1936140161263182  0.4170726698705849
  0.0896092880557262  0.8599145983666929  0.7661890293179354
  0.0230724882795741  0.9988862485332746  0.4921899926386146
  0.7465519413210586  0.0110078350238325  0.5681198855318783
  0.2553510466592357  0.0895793206481912  0.5268883320543196
  0.5021930794051457  0.9538623764317862  0.2946636645736618
  0.6168957468831664  0.3568256681332898  0.6354045203012291
  0.8947770003846003  0.6759222357984811  0.6667028203220156
  0.8867387746010493  0.4370961955608266  0.1870436363971706
  0.1469106753352705  0.4281684163051835  0.0674999773758316
  0.8659154044927035  0.3830775298473057  0.6186092977246318
  0.0470800480430498  0.4571572047726846  0.8257762699170783
  0.9525330444473994  0.0523067214182547  0.8053437146007667
  0.8247614854821776  0.8586449897445974  0.3535230574210360
  0.3877559067710052  0.4488601462916790  0.9469712831938821
  0.9551704198568274  0.7630225299263103  0.9826187081978688
  0.3674446928958659  0.1764729585624352  0.3438693403530237
  0.3101632843819715  0.1259608927167903  0.0461258558528925
  0.6155446048998172  0.6145316392211697  0.9027404323591810
  0.3320061610790432  0.2149089297447446  0.7454049937666554
  0.7397916701301455  0.3219208867397185  0.0451621303908709
  0.6536590092447767  0.7148680683572550  0.2208995519334280
  0.1408224285330348  0.6755927130013788  0.6107022887745970
  0.5525586455560472  0.7769490031972168  0.4727705776529092
  0.1205900917271592  0.1844152117836728  0.9151745212458735
  0.0777375449953226  0.4210170214244542  0.4195148202764187
  0.5251160267578641  0.0896532453432286  0.5188551509188528
  0.5129667418326989  0.2588240011864613  0.1234090977654674
  0.9434020179802758  0.1407545802443693  0.1375517820824541
  0.4321712670657050  0.5130969698926577  0.5657296131593057
  0.6978866057867137  0.5926879997851628  0.5144512469418601
  0.5412608395715779  0.5115657295146505  0.1563120060642404
  0.2589791144794873  0.6407693617708645  0.8418977328051724
  0.1336288732332065  0.9105357893902877  0.1424123204174990
  0.3869975736209881  0.8013648450818778  0.6782722694559027
  0.5373294522653040  0.8493856080657949  0.9984613327773673
  0.9227926218873819  0.6150621334864681  0.3897808361838315
  0.3322295353200388  0.5687406983448966  0.3330764156504173
  0.6346203535320143  0.3678643255432092  0.3772827691577589
  0.2409451975536001  0.3566335234458435  0.2581086206489118
  0.2687041234806387  0.9617346102350695  0.8473806961349837
  0.7347963888084834  0.8198280551472266  0.7901195417509754
  0.3427107192519188  0.7097148431768119  0.0603384108375238
  0.2120243984308701  0.8386591742373142  0.3715399274595654
  0.1328374462170103  0.1214445684344057  0.2864015399863362
  0.7519128667545161  0.9793160912657939  0.9890738836135569
  0.7904387531304735  0.1088245495480109  0.3285313802169085
  0.0941437649274519  0.2695264471569558  0.5926628874818860
  0.1188300758843681  0.6454854824607850  0.1390156845703387
 
  0.00000000E+00  0.00000000E+00  0.00000000E+00
  0.00000000E+00  0.00000000E+00  0.00000000E+00
  0.00000000E+00  0.00000000E+00  0.00000000E+00
  0.00000000E+00  0.00000000E+00  0.00000000E+00
  0.00000000E+00  0.00000000E+00  0.00000000E+00
  0.00000000E+00  0.00000000E+00  0.00000000E+00
  0.00000000E+00  0.00000000E+00  0.00000000E+00
  0.00000000E+00  0.00000000E+00  0.00000000E+00
  0.00000000E+00  0.00000000E+00  0.00000000E+00
  0.00000000E+00  0.00000000E+00  0.00000000E+00
  0.00000000E+00  0.00000000E+00  0.00000000E+00
  0.00000000E+00  0.00000000E+00  0.00000000E+00
  0.00000000E+00  0.00000000E+00  0.00000000E+00
  0.00000000E+00  0.00000000E+00  0.00000000E+00
  0.00000000E+00  0.00000000E+00  0.00000000E+00
  0.00000000E+00  0.00000000E+00  0.00000000E+00
  0.00000000E+00  0.00000000E+00  0.00000000E+00
  0.00000000E+00  0.00000000E+00  0.00000000E+00
  0.00000000E+00  0.00000000E+00  0.00000000E+00
  0.00000000E+00  0.00000000E+00  0.00000000E+00
  0.00000000E+00  0.00000000E+00  0.00000000E+00
  0.00000000E+00  0.00000000E+00  0.00000000E+00
  0.00000000E+00  0.00000000E+00  0.00000000E+00
  0.00000000E+00  0.00000000E+00  0.00000000E+00
  0.00000000E+00  0.00000000E+00  0.00000000E+00
  0.00000000E+00  0.00000000E+00  0.00000000E+00
  0.00000000E+00  0.00000000E+00  0.00000000E+00
  0.00000000E+00  0.00000000E+00  0.00000000E+00
  0.00000000E+00  0.00000000E+00  0.00000000E+00
  0.00000000E+00  0.00000000E+00  0.00000000E+00
  0.00000000E+00  0.00000000E+00  0.00000000E+00
  0.00000000E+00  0.00000000E+00  0.00000000E+00
  0.00000000E+00  0.00000000E+00  0.00000000E+00
  0.00000000E+00  0.00000000E+00  0.00000000E+00
  0.00000000E+00  0.00000000E+00  0.00000000E+00
  0.00000000E+00  0.00000000E+00  0.00000000E+00
  0.00000000E+00  0.00000000E+00  0.00000000E+00
  0.00000000E+00  0.00000000E+00  0.00000000E+00
  0.00000000E+00  0.00000000E+00  0.00000000E+00
  0.00000000E+00  0.00000000E+00  0.00000000E+00
  0.00000000E+00  0.00000000E+00  0.00000000E+00
  0.00000000E+00  0.00000000E+00  0.00000000E+00
  0.00000000E+00  0.00000000E+00  0.00000000E+00
  0.00000000E+00  0.00000000E+00  0.00000000E+00
  0.00000000E+00  0.00000000E+00  0.00000000E+00
  0.00000000E+00  0.00000000E+00  0.00000000E+00
  0.00000000E+00  0.00000000E+00  0.00000000E+00
  0.00000000E+00  0.00000000E+00  0.00000000E+00
  0.00000000E+00  0.00000000E+00  0.00000000E+00
  0.00000000E+00  0.00000000E+00  0.00000000E+00
  0.00000000E+00  0.00000000E+00  0.00000000E+00
  0.00000000E+00  0.00000000E+00  0.00000000E+00
  0.00000000E+00  0.00000000E+00  0.00000000E+00
  0.00000000E+00  0.00000000E+00  0.00000000E+00
  0.00000000E+00  0.00000000E+00  0.00000000E+00
  0.00000000E+00  0.00000000E+00  0.00000000E+00
  0.00000000E+00  0.00000000E+00  0.00000000E+00
  0.00000000E+00  0.00000000E+00  0.00000000E+00
  0.00000000E+00  0.00000000E+00  0.00000000E+00
  0.00000000E+00  0.00000000E+00  0.00000000E+00
  0.00000000E+00  0.00000000E+00  0.00000000E+00
  0.00000000E+00  0.00000000E+00  0.00000000E+00
  0.00000000E+00  0.00000000E+00  0.00000000E+00
  0.00000000E+00  0.00000000E+00  0.00000000E+00
  0.00000000E+00  0.00000000E+00  0.00000000E+00
  0.00000000E+00  0.00000000E+00  0.00000000E+00
  0.00000000E+00  0.00000000E+00  0.00000000E+00
  0.00000000E+00  0.00000000E+00  0.00000000E+00
  0.00000000E+00  0.00000000E+00  0.00000000E+00
  0.00000000E+00  0.00000000E+00  0.00000000E+00
  0.00000000E+00  0.00000000E+00  0.00000000E+00
  0.00000000E+00  0.00000000E+00  0.00000000E+00
  0.00000000E+00  0.00000000E+00  0.00000000E+00
  0.00000000E+00  0.00000000E+00  0.00000000E+00
  0.00000000E+00  0.00000000E+00  0.00000000E+00
  0.00000000E+00  0.00000000E+00  0.00000000E+00
  0.00000000E+00  0.00000000E+00  0.00000000E+00
  0.00000000E+00  0.00000000E+00  0.00000000E+00
  0.00000000E+00  0.00000000E+00  0.00000000E+00
  0.00000000E+00  0.00000000E+00  0.00000000E+00
  0.00000000E+00  0.00000000E+00  0.00000000E+00
  0.00000000E+00  0.00000000E+00  0.00000000E+00
  0.00000000E+00  0.00000000E+00  0.00000000E+00
  0.00000000E+00  0.00000000E+00  0.00000000E+00
  0.00000000E+00  0.00000000E+00  0.00000000E+00
  0.00000000E+00  0.00000000E+00  0.00000000E+00
  0.00000000E+00  0.00000000E+00  0.00000000E+00
  0.00000000E+00  0.00000000E+00  0.00000000E+00
  0.00000000E+00  0.00000000E+00  0.00000000E+00
  0.00000000E+00  0.00000000E+00  0.00000000E+00
  0.00000000E+00  0.00000000E+00  0.00000000E+00
  0.00000000E+00  0.00000000E+00  0.00000000E+00
  0.00000000E+00  0.00000000E+00  0.00000000E+00
  0.00000000E+00  0.00000000E+00  0.00000000E+00
  0.00000000E+00  0.00000000E+00  0.00000000E+00
  0.00000000E+00  0.00000000E+00  0.00000000E+00
