  Built with Packmol                    
    1.000000000000000     
    11.0414117600978585   -0.2533209307221181    0.0591673101036706
    -0.2671309865676589   11.1117403580003042    0.1521551906759120
     0.0472345221314276    0.1407885210430133   11.5052024694625885
   Fe   Ge
    48    48
Direct
  0.6295790586465770  0.4041569372550740  0.5128775416905498
  0.3523879138814578  0.7422946673537609  0.1416542289279477
  0.7420317756660566  0.7557880109188346  0.2405913594484517
  0.5661713791372449  0.7945212684024199  0.3974492171263364
  0.5701428618607451  0.4673229903627742  0.1455264212849343
  0.6292349569233835  0.6098892164345244  0.6677305466515335
  0.9897291996029765  0.5532805319788636  0.5709605365102988
  0.0820601284552893  0.0298539231605659  0.6896022259871373
  0.7140778283765314  0.1324772292266871  0.2822785261991996
  0.9453048458428412  0.4613471926635953  0.7701486817183252
  0.7887755957637808  0.3580487636882879  0.1291992362289207
  0.7041717065203841  0.6102034798149916  0.0442185340486461
  0.6139715980358105  0.2297339301532588  0.6561071435009680
  0.8740188775894282  0.9454950539168649  0.5629413725707479
  0.7083830015487820  0.5291254648323260  0.3015366332137930
  0.2518385549034008  0.7661083394944441  0.6931091092658974
  0.9989147819522231  0.7867690408748018  0.1891555691244662
  0.1715461915807310  0.8782435742805816  0.0486958532739763
  0.0746616817070276  0.0091684050822138  0.2206259888749074
  0.3105750280074773  0.4971790069812485  0.4049780491964157
  0.1252773149787529  0.6782855008554591  0.3995097596125277
  0.5539622458488722  0.5461682900136182  0.8663234935474335
  0.8358768759429864  0.6970502821645965  0.6666577292733322
  0.4511624076303775  0.8922144149655082  0.7398088585682245
  0.0202574799430195  0.8860837891601534  0.3828618276058791
  0.2215021999773796  0.8739588169251107  0.4706286589703765
  0.1601707623069899  0.3976425224370672  0.2766458627031270
  0.6194972760815176  0.7739069281647630  0.8361165914268511
  0.6799179347818551  0.9877032813474145  0.4363866865942967
  0.7705935244749185  0.1907528888742505  0.5032217905491336
  0.4092734645428777  0.9035899656709176  0.2904190954912167
  0.3500568226604841  0.0475992157715126  0.9048239925635997
  0.2024934117346575  0.4599606889543963  0.0622733225710732
  0.9979173015778855  0.2973136567978116  0.4525080316270120
  0.0075037751953104  0.8410663751933711  0.7524979899266384
  0.7492124057967189  0.0107766357172352  0.9246476733345617
  0.2825078793772917  0.9988910006130709  0.6450150419900851
  0.6289877712943550  0.8195563628261198  0.6148278251938493
  0.1245150751572766  0.0784436724760766  0.4692306762309073
  0.6203525649861490  0.3627149924652002  0.9624018954062663
  0.3533280569532238  0.7046477493316274  0.3655010198458228
  0.9142798800413985  0.0839931918834651  0.3943406706641781
  0.9080134746484916  0.6669307486689391  0.3670609796546600
  0.3690132242954078  0.5063883177844062  0.2016976894437903
  0.9503412854232991  0.9677887892330546  0.0529340128944682
  0.3696537495782550  0.8107667675118435  0.9271826983682061
  0.1994726797597508  0.8338103934272922  0.2608175570718956
  0.2480186323514459  0.2666192526464712  0.9583197318461956
  0.4460019475653567  0.1176566104445484  0.7224597043678500
  0.1816333399854244  0.6140882639797027  0.2150343086693383
  0.8027531387745483  0.1327827671574298  0.0846898707158488
  0.4567288460290442  0.2113133359352020  0.9782292082130368
  0.7991735884813522  0.8844612015541173  0.7652403851748133
  0.5458524150709678  0.9638433440331369  0.9161936813608875
  0.6822327545586191  0.1921566939894817  0.8497903361160297
  0.5067116793162256  0.6804600361947948  0.0107355340376003
  0.7743223008790494  0.7926229193605820  0.4531398895830563
  0.0916532986034611  0.3979432556170508  0.8994985481437823
  0.4269413762522163  0.6699114204919212  0.7544021952866089
  0.7551248710586762  0.8318927052656164  0.0405303243783663
  0.7733976039724197  0.5926885871914180  0.8429569010905809
  0.7821225864941255  0.5556518712766234  0.5114709586155186
  0.0906831839654529  0.3752309904538507  0.6407053445713800
  0.2698583665864973  0.0575960503718420  0.2893406608817060
  0.8353264017577331  0.3823882398160876  0.9304583527281238
  0.8785935707493522  0.5954642956633691  0.1683820497129460
  0.6135009128354199  0.9451888906063459  0.2289645024259812
  0.2158563793372750  0.3044077242161976  0.4636134152645894
  0.5371331128508814  0.6637037197901350  0.2350045343767633
  0.0687643958161104  0.6376732200829807  0.7663246798158241
  0.5062218616845016  0.4117856694574300  0.3424235883474438
  0.8084165611526828  0.3277304801744521  0.3415411877342720
  0.9538042235290405  0.0410249750756080  0.8561526047401813
  0.0304219680714155  0.7755550725659788  0.5624553977977200
  0.2123024110175535  0.6631022241114124  0.9794035412655475
  0.4013385115604748  0.4451965825959263  0.9796416714281548
  0.9936090819810985  0.7873063991108751  0.9570338735782471
  0.2262915102715510  0.6010863431119802  0.5663962358837722
  0.6708349582123958  0.0334103671719888  0.6393147372169850
  0.8556734585008527  0.9545125669819399  0.2438561543535798
  0.4242629875747852  0.8651626980216562  0.5330568952692332
  0.2974122172292439  0.2822278417415731  0.1678672423068690
  0.2025166376355827  0.1805476843164797  0.7786430241171161
  0.5665280058578048  0.1947965234966844  0.4361799404369151
  0.5018918914902386  0.5965384505313907  0.4995196160069071
  0.0088631145882090  0.4908202317311705  0.3774606092996748
  0.1981386106532952  0.9072993217628493  0.8349581149885239
  0.0608286690365816  0.2060078724730943  0.2790407885633144
  0.3501736040127454  0.1221733972948229  0.4894215008722043
  0.5551950971280348  0.4045864845604044  0.7256231055305520
  0.1355097578100910  0.0965438529562732  0.0299907517113880
  0.3744754610245096  0.9537942845170804  0.0938372510897238
  0.9533516189327713  0.1514183687513722  0.5978986116547702
  0.5872515888116254  0.2525094109915216  0.1661942272525181
  0.0013693855385242  0.4007533397943632  0.1315426010646945
  0.8127929299083902  0.3518615790080872  0.6426110116176815
 
  0.00000000E+00  0.00000000E+00  0.00000000E+00
  0.00000000E+00  0.00000000E+00  0.00000000E+00
  0.00000000E+00  0.00000000E+00  0.00000000E+00
  0.00000000E+00  0.00000000E+00  0.00000000E+00
  0.00000000E+00  0.00000000E+00  0.00000000E+00
  0.00000000E+00  0.00000000E+00  0.00000000E+00
  0.00000000E+00  0.00000000E+00  0.00000000E+00
  0.00000000E+00  0.00000000E+00  0.00000000E+00
  0.00000000E+00  0.00000000E+00  0.00000000E+00
  0.00000000E+00  0.00000000E+00  0.00000000E+00
  0.00000000E+00  0.00000000E+00  0.00000000E+00
  0.00000000E+00  0.00000000E+00  0.00000000E+00
  0.00000000E+00  0.00000000E+00  0.00000000E+00
  0.00000000E+00  0.00000000E+00  0.00000000E+00
  0.00000000E+00  0.00000000E+00  0.00000000E+00
  0.00000000E+00  0.00000000E+00  0.00000000E+00
  0.00000000E+00  0.00000000E+00  0.00000000E+00
  0.00000000E+00  0.00000000E+00  0.00000000E+00
  0.00000000E+00  0.00000000E+00  0.00000000E+00
  0.00000000E+00  0.00000000E+00  0.00000000E+00
  0.00000000E+00  0.00000000E+00  0.00000000E+00
  0.00000000E+00  0.00000000E+00  0.00000000E+00
  0.00000000E+00  0.00000000E+00  0.00000000E+00
  0.00000000E+00  0.00000000E+00  0.00000000E+00
  0.00000000E+00  0.00000000E+00  0.00000000E+00
  0.00000000E+00  0.00000000E+00  0.00000000E+00
  0.00000000E+00  0.00000000E+00  0.00000000E+00
  0.00000000E+00  0.00000000E+00  0.00000000E+00
  0.00000000E+00  0.00000000E+00  0.00000000E+00
  0.00000000E+00  0.00000000E+00  0.00000000E+00
  0.00000000E+00  0.00000000E+00  0.00000000E+00
  0.00000000E+00  0.00000000E+00  0.00000000E+00
  0.00000000E+00  0.00000000E+00  0.00000000E+00
  0.00000000E+00  0.00000000E+00  0.00000000E+00
  0.00000000E+00  0.00000000E+00  0.00000000E+00
  0.00000000E+00  0.00000000E+00  0.00000000E+00
  0.00000000E+00  0.00000000E+00  0.00000000E+00
  0.00000000E+00  0.00000000E+00  0.00000000E+00
  0.00000000E+00  0.00000000E+00  0.00000000E+00
  0.00000000E+00  0.00000000E+00  0.00000000E+00
  0.00000000E+00  0.00000000E+00  0.00000000E+00
  0.00000000E+00  0.00000000E+00  0.00000000E+00
  0.00000000E+00  0.00000000E+00  0.00000000E+00
  0.00000000E+00  0.00000000E+00  0.00000000E+00
  0.00000000E+00  0.00000000E+00  0.00000000E+00
  0.00000000E+00  0.00000000E+00  0.00000000E+00
  0.00000000E+00  0.00000000E+00  0.00000000E+00
  0.00000000E+00  0.00000000E+00  0.00000000E+00
  0.00000000E+00  0.00000000E+00  0.00000000E+00
  0.00000000E+00  0.00000000E+00  0.00000000E+00
  0.00000000E+00  0.00000000E+00  0.00000000E+00
  0.00000000E+00  0.00000000E+00  0.00000000E+00
  0.00000000E+00  0.00000000E+00  0.00000000E+00
  0.00000000E+00  0.00000000E+00  0.00000000E+00
  0.00000000E+00  0.00000000E+00  0.00000000E+00
  0.00000000E+00  0.00000000E+00  0.00000000E+00
  0.00000000E+00  0.00000000E+00  0.00000000E+00
  0.00000000E+00  0.00000000E+00  0.00000000E+00
  0.00000000E+00  0.00000000E+00  0.00000000E+00
  0.00000000E+00  0.00000000E+00  0.00000000E+00
  0.00000000E+00  0.00000000E+00  0.00000000E+00
  0.00000000E+00  0.00000000E+00  0.00000000E+00
  0.00000000E+00  0.00000000E+00  0.00000000E+00
  0.00000000E+00  0.00000000E+00  0.00000000E+00
  0.00000000E+00  0.00000000E+00  0.00000000E+00
  0.00000000E+00  0.00000000E+00  0.00000000E+00
  0.00000000E+00  0.00000000E+00  0.00000000E+00
  0.00000000E+00  0.00000000E+00  0.00000000E+00
  0.00000000E+00  0.00000000E+00  0.00000000E+00
  0.00000000E+00  0.00000000E+00  0.00000000E+00
  0.00000000E+00  0.00000000E+00  0.00000000E+00
  0.00000000E+00  0.00000000E+00  0.00000000E+00
  0.00000000E+00  0.00000000E+00  0.00000000E+00
  0.00000000E+00  0.00000000E+00  0.00000000E+00
  0.00000000E+00  0.00000000E+00  0.00000000E+00
  0.00000000E+00  0.00000000E+00  0.00000000E+00
  0.00000000E+00  0.00000000E+00  0.00000000E+00
  0.00000000E+00  0.00000000E+00  0.00000000E+00
  0.00000000E+00  0.00000000E+00  0.00000000E+00
  0.00000000E+00  0.00000000E+00  0.00000000E+00
  0.00000000E+00  0.00000000E+00  0.00000000E+00
  0.00000000E+00  0.00000000E+00  0.00000000E+00
  0.00000000E+00  0.00000000E+00  0.00000000E+00
  0.00000000E+00  0.00000000E+00  0.00000000E+00
  0.00000000E+00  0.00000000E+00  0.00000000E+00
  0.00000000E+00  0.00000000E+00  0.00000000E+00
  0.00000000E+00  0.00000000E+00  0.00000000E+00
  0.00000000E+00  0.00000000E+00  0.00000000E+00
  0.00000000E+00  0.00000000E+00  0.00000000E+00
  0.00000000E+00  0.00000000E+00  0.00000000E+00
  0.00000000E+00  0.00000000E+00  0.00000000E+00
  0.00000000E+00  0.00000000E+00  0.00000000E+00
  0.00000000E+00  0.00000000E+00  0.00000000E+00
  0.00000000E+00  0.00000000E+00  0.00000000E+00
  0.00000000E+00  0.00000000E+00  0.00000000E+00
  0.00000000E+00  0.00000000E+00  0.00000000E+00
