  Built with Packmol                    
    1.000000000000000     
    10.9241751998803309   -0.2367731494357332    0.0062301960922292
    -0.2543215723213904   11.0211232768636389    0.3153444212786853
    -0.0046162607722341    0.3059754567553948   11.7209565448670148
   Fe   Ge
    48    48
Direct
  0.6517670990454434  0.4113365395858963  0.5125488071078905
  0.3360430560601557  0.6997645282999230  0.1047064960749040
  0.7217396369736733  0.7580933960118728  0.2338827249227649
  0.5789760280974861  0.7873223383950503  0.4134472502138706
  0.6123252818971494  0.5064962589943036  0.1765976613779756
  0.6277790642479459  0.6252002317984875  0.6455968884227303
  0.0299545431774533  0.6183347527336451  0.5703582031623924
  0.0760489841539069  0.0237203690787311  0.6994388338380517
  0.7146647503218304  0.1485306596543268  0.2862700731586756
  0.9373192655862894  0.4480676897199984  0.7662217264174842
  0.7985577937486070  0.3635560715075385  0.1374890919316911
  0.7344261230485003  0.6113670950856118  0.0142691714136305
  0.6016405391722870  0.2375735172461972  0.6535535388864986
  0.8784038109303225  0.9540902582806510  0.5660020131091343
  0.6890842176530683  0.5788773264523073  0.3718368381810180
  0.2248203554645443  0.7331131012742986  0.7280599060441801
  0.9949407020369705  0.7575129960804077  0.1983804412329846
  0.1420087243007018  0.8389316480015410  0.0304119810147228
  0.0769769817461636  0.9912162458919127  0.2285747171648822
  0.3037377414524158  0.5114995701351788  0.3900392283026193
  0.1300270588297749  0.6841059994601295  0.3926231212535285
  0.5432483229081697  0.5520496550518033  0.8437572879655306
  0.8502377633870211  0.7320107809261103  0.6705309738747758
  0.4370786304834766  0.9074605675747733  0.7324068552137888
  0.9984814209173010  0.8660593699764831  0.3976413781150185
  0.2296824436239007  0.8921480255176064  0.4291808017057264
  0.1673612909025408  0.3912049942848839  0.2746149241640978
  0.6255992496565739  0.7654169521634842  0.8406511812118680
  0.6906441062335631  0.9863324296840474  0.4494212858122779
  0.7765047912237364  0.1915039279254884  0.5045301535757432
  0.4219849368441615  0.8749227056991344  0.2637181745735688
  0.3564443959089658  0.0536444142459445  0.9141865140270369
  0.2041281706962934  0.4693716376708679  0.0511968196616550
  0.0043780098003054  0.2794616497405400  0.4397631771867410
  0.0177325619267137  0.8393924163297442  0.8227397620950683
  0.7565033778217796  0.0288980728091559  0.9322956068608050
  0.2751769181986887  0.9843512898790792  0.6210441023202193
  0.6384755297754197  0.8396063129861702  0.6279803903351180
  0.1034544613112018  0.0566952266181531  0.4755036261206413
  0.6076858724135761  0.3930819555668990  0.9816149200846809
  0.3526893955563253  0.7228349837261732  0.3952624591979941
  0.8991036007058142  0.0864724263283634  0.3778866902451412
  0.9043324900664516  0.6565131955677401  0.3674123009582360
  0.3790570111746234  0.4949188869047134  0.1912967398479992
  0.9538778382348383  0.9394562132935746  0.0417115610764398
  0.4004232723485757  0.7876504094914338  0.9126935538202119
  0.2066811781107489  0.8227187699405789  0.2313572832306505
  0.2471237350005566  0.2511392388210680  0.9531567806510850
  0.4300676937121182  0.1258648869889285  0.7149958577712781
  0.1622087239969616  0.6026933329983919  0.2037054661132913
  0.7831522493387908  0.1461411088923299  0.0907364236636354
  0.4639829211691833  0.2175852072710711  0.9880106547951186
  0.8030013992172158  0.8990836513934184  0.7786575950933567
  0.5520129772853153  0.9717862665401427  0.8999410526388871
  0.6699936427392998  0.2130178240485705  0.8519667148995964
  0.5168473210558915  0.6314242699226753  0.0215603377475233
  0.7851614388778998  0.7853613281075411  0.4697917837947188
  0.0885976410351788  0.3869342720756066  0.8960490139514548
  0.4371970874962017  0.6915330055715430  0.7225467653276851
  0.7315962651216381  0.8356858613213234  0.0349195819008230
  0.7646975015429334  0.5842477769914751  0.8137320853083381
  0.8194077096863808  0.5520598253190556  0.5551423255895358
  0.0753967405352327  0.3947365119450410  0.6187854970763738
  0.2915690172328951  0.0477681797260985  0.2655476548177873
  0.8272623254568785  0.3950767435658094  0.9389272308245467
  0.8325168340551485  0.5694528083676644  0.1974804304712023
  0.6175957679579511  0.9593843277717582  0.2517970784258523
  0.2264068409919133  0.3114690953851920  0.4648580406443799
  0.5076131492238005  0.6763907505924891  0.2499659683858013
  0.0313149338609549  0.6352050492229111  0.7780058883325935
  0.5055752930137771  0.4140257100234379  0.3502553212486532
  0.8134644960557580  0.3383549873588265  0.3488312506554507
  0.9605595206038871  0.0581084583780864  0.8643426714380524
  0.0735076850213687  0.8372715298805815  0.5970700448807733
  0.2243492572268337  0.6433487347060378  0.9258959486402887
  0.3772138164331196  0.4329933613173154  0.9275481288527629
  0.9398266690835868  0.7218262845562293  0.9916876483972104
  0.2478266959618196  0.6159724833584406  0.5655920088818860
  0.6721589210980028  0.0477041728259522  0.6458148557747521
  0.8603273727538294  0.9378246338003251  0.2365008907810946
  0.4359794167551811  0.8777279185678921  0.5264781467477277
  0.2910393759696106  0.2848952504668674  0.1517107055640849
  0.2018738615702702  0.1756878122343508  0.7757936054752648
  0.5676244280720724  0.1993025452911752  0.4428707765577258
  0.4931513151824518  0.5828297110750285  0.4963945229549438
  0.0240159645545859  0.4860543547763712  0.3983746565982358
  0.2241685993029350  0.9164897345126022  0.8262873200258483
  0.0752161794676880  0.1927169307548056  0.2782053447642951
  0.3428274804006222  0.1202595802888879  0.4670453551185432
  0.5414450060692033  0.4163130903142545  0.7048605202335025
  0.1418871688554901  0.0759403289534291  0.0363804034461950
  0.3677058530640878  0.9180417950866726  0.0754672873381850
  0.9611108579628933  0.1584187353805717  0.6015942695184577
  0.5829602397872264  0.2829605433383691  0.1747237652365570
  0.0106722733050404  0.3921683615309135  0.1323450744668193
  0.8011581751601753  0.3283434493473720  0.6602196191428149
 
  0.00000000E+00  0.00000000E+00  0.00000000E+00
  0.00000000E+00  0.00000000E+00  0.00000000E+00
  0.00000000E+00  0.00000000E+00  0.00000000E+00
  0.00000000E+00  0.00000000E+00  0.00000000E+00
  0.00000000E+00  0.00000000E+00  0.00000000E+00
  0.00000000E+00  0.00000000E+00  0.00000000E+00
  0.00000000E+00  0.00000000E+00  0.00000000E+00
  0.00000000E+00  0.00000000E+00  0.00000000E+00
  0.00000000E+00  0.00000000E+00  0.00000000E+00
  0.00000000E+00  0.00000000E+00  0.00000000E+00
  0.00000000E+00  0.00000000E+00  0.00000000E+00
  0.00000000E+00  0.00000000E+00  0.00000000E+00
  0.00000000E+00  0.00000000E+00  0.00000000E+00
  0.00000000E+00  0.00000000E+00  0.00000000E+00
  0.00000000E+00  0.00000000E+00  0.00000000E+00
  0.00000000E+00  0.00000000E+00  0.00000000E+00
  0.00000000E+00  0.00000000E+00  0.00000000E+00
  0.00000000E+00  0.00000000E+00  0.00000000E+00
  0.00000000E+00  0.00000000E+00  0.00000000E+00
  0.00000000E+00  0.00000000E+00  0.00000000E+00
  0.00000000E+00  0.00000000E+00  0.00000000E+00
  0.00000000E+00  0.00000000E+00  0.00000000E+00
  0.00000000E+00  0.00000000E+00  0.00000000E+00
  0.00000000E+00  0.00000000E+00  0.00000000E+00
  0.00000000E+00  0.00000000E+00  0.00000000E+00
  0.00000000E+00  0.00000000E+00  0.00000000E+00
  0.00000000E+00  0.00000000E+00  0.00000000E+00
  0.00000000E+00  0.00000000E+00  0.00000000E+00
  0.00000000E+00  0.00000000E+00  0.00000000E+00
  0.00000000E+00  0.00000000E+00  0.00000000E+00
  0.00000000E+00  0.00000000E+00  0.00000000E+00
  0.00000000E+00  0.00000000E+00  0.00000000E+00
  0.00000000E+00  0.00000000E+00  0.00000000E+00
  0.00000000E+00  0.00000000E+00  0.00000000E+00
  0.00000000E+00  0.00000000E+00  0.00000000E+00
  0.00000000E+00  0.00000000E+00  0.00000000E+00
  0.00000000E+00  0.00000000E+00  0.00000000E+00
  0.00000000E+00  0.00000000E+00  0.00000000E+00
  0.00000000E+00  0.00000000E+00  0.00000000E+00
  0.00000000E+00  0.00000000E+00  0.00000000E+00
  0.00000000E+00  0.00000000E+00  0.00000000E+00
  0.00000000E+00  0.00000000E+00  0.00000000E+00
  0.00000000E+00  0.00000000E+00  0.00000000E+00
  0.00000000E+00  0.00000000E+00  0.00000000E+00
  0.00000000E+00  0.00000000E+00  0.00000000E+00
  0.00000000E+00  0.00000000E+00  0.00000000E+00
  0.00000000E+00  0.00000000E+00  0.00000000E+00
  0.00000000E+00  0.00000000E+00  0.00000000E+00
  0.00000000E+00  0.00000000E+00  0.00000000E+00
  0.00000000E+00  0.00000000E+00  0.00000000E+00
  0.00000000E+00  0.00000000E+00  0.00000000E+00
  0.00000000E+00  0.00000000E+00  0.00000000E+00
  0.00000000E+00  0.00000000E+00  0.00000000E+00
  0.00000000E+00  0.00000000E+00  0.00000000E+00
  0.00000000E+00  0.00000000E+00  0.00000000E+00
  0.00000000E+00  0.00000000E+00  0.00000000E+00
  0.00000000E+00  0.00000000E+00  0.00000000E+00
  0.00000000E+00  0.00000000E+00  0.00000000E+00
  0.00000000E+00  0.00000000E+00  0.00000000E+00
  0.00000000E+00  0.00000000E+00  0.00000000E+00
  0.00000000E+00  0.00000000E+00  0.00000000E+00
  0.00000000E+00  0.00000000E+00  0.00000000E+00
  0.00000000E+00  0.00000000E+00  0.00000000E+00
  0.00000000E+00  0.00000000E+00  0.00000000E+00
  0.00000000E+00  0.00000000E+00  0.00000000E+00
  0.00000000E+00  0.00000000E+00  0.00000000E+00
  0.00000000E+00  0.00000000E+00  0.00000000E+00
  0.00000000E+00  0.00000000E+00  0.00000000E+00
  0.00000000E+00  0.00000000E+00  0.00000000E+00
  0.00000000E+00  0.00000000E+00  0.00000000E+00
  0.00000000E+00  0.00000000E+00  0.00000000E+00
  0.00000000E+00  0.00000000E+00  0.00000000E+00
  0.00000000E+00  0.00000000E+00  0.00000000E+00
  0.00000000E+00  0.00000000E+00  0.00000000E+00
  0.00000000E+00  0.00000000E+00  0.00000000E+00
  0.00000000E+00  0.00000000E+00  0.00000000E+00
  0.00000000E+00  0.00000000E+00  0.00000000E+00
  0.00000000E+00  0.00000000E+00  0.00000000E+00
  0.00000000E+00  0.00000000E+00  0.00000000E+00
  0.00000000E+00  0.00000000E+00  0.00000000E+00
  0.00000000E+00  0.00000000E+00  0.00000000E+00
  0.00000000E+00  0.00000000E+00  0.00000000E+00
  0.00000000E+00  0.00000000E+00  0.00000000E+00
  0.00000000E+00  0.00000000E+00  0.00000000E+00
  0.00000000E+00  0.00000000E+00  0.00000000E+00
  0.00000000E+00  0.00000000E+00  0.00000000E+00
  0.00000000E+00  0.00000000E+00  0.00000000E+00
  0.00000000E+00  0.00000000E+00  0.00000000E+00
  0.00000000E+00  0.00000000E+00  0.00000000E+00
  0.00000000E+00  0.00000000E+00  0.00000000E+00
  0.00000000E+00  0.00000000E+00  0.00000000E+00
  0.00000000E+00  0.00000000E+00  0.00000000E+00
  0.00000000E+00  0.00000000E+00  0.00000000E+00
  0.00000000E+00  0.00000000E+00  0.00000000E+00
  0.00000000E+00  0.00000000E+00  0.00000000E+00
  0.00000000E+00  0.00000000E+00  0.00000000E+00
