  Built with Packmol                    
   1.00000000000000     
    11.0316768570882129   -0.2781809770765618   -0.2168466627968628
    -0.2846299885924755   11.3474719550605609   -0.0462962864926100
    -0.2198322111538233   -0.0403864954010904   11.2016895799307523
   Fe   Ge
    48    48
Direct
  0.1753638915022364  0.0889505781962185  0.5502260913508294
  0.9590806341422748  0.8953430864731899  0.9387148921816646
  0.9510255181403053  0.1088418977177597  0.5800758178246355
  0.3246015369703414  0.5025321606711657  0.8894327812058833
  0.4991723152349081  0.4055733333008291  0.5842696559451710
  0.2590635414963529  0.2375651722043983  0.4087346146064377
  0.5953364146996520  0.2249391690675608  0.6657863065184983
  0.2207665479034659  0.6277903076469542  0.5448309485146225
  0.4317007142196658  0.7068222093202152  0.1905958211661911
  0.1346677348655732  0.6139738070513658  0.8828183702325489
  0.3403256143713307  0.3191573481488277  0.1898872796504563
  0.5615824513898104  0.3411080070352739  0.1728378645017798
  0.6793880478264214  0.8133804873838031  0.2185479598831677
  0.0694206562969129  0.2984124972533664  0.2253807703465895
  0.2507047485939680  0.6290466936235930  0.0840379624855103
  0.8825284283315753  0.4534450172627587  0.5052134182882924
  0.6586867479367342  0.2012135852891461  0.3037292291844054
  0.4385439114649188  0.1472587539133414  0.2689901591159156
  0.1070588727781754  0.4649560679946134  0.4238804584021523
  0.4094782005745472  0.3449542563366990  0.7755194714910658
  0.3398906362681515  0.8361874193967935  0.0549864306914074
  0.8346670561416971  0.0062088527444430  0.2227523704862264
  0.9227430260206262  0.8012084664794799  0.3328357260425747
  0.7762986973581931  0.3048100951625869  0.8826450373784525
  0.4430100756091662  0.5092340110244962  0.2795666845859159
  0.4956913744507148  0.3364061194272878  0.3709282118944230
  0.3436229855394686  0.0191595773974313  0.4390281020224549
  0.5261325435921336  0.0053420484020137  0.9603679249752943
  0.4637639689021427  0.1834916503818533  0.0601555504537288
  0.2838088315029026  0.6287890009693768  0.3360484172045446
  0.2121968063907076  0.7940890906045510  0.2409852574779450
  0.6146423097822762  0.5332837188110773  0.4344661859856345
  0.7257249799005407  0.8941888710884456  0.9925877279944331
  0.7326908064968194  0.4185021805077866  0.3009794313729515
  0.5538860338457425  0.3759372820175813  0.9589152776412533
  0.6858543555526282  0.2106899322006797  0.0743980442709145
  0.0780293169271999  0.9593223883898148  0.7061045747546828
  0.4392868731538329  0.6239912179757425  0.5073445924379882
  0.7115317388265865  0.9806375187461427  0.6024408997419144
  0.0251272772069342  0.1124700044536624  0.3483007297932019
  0.5616013501828760  0.9802403823371080  0.3691311390501042
  0.7091621533670676  0.0830393274771950  0.8430495804127816
  0.2020088991939986  0.8587950584393553  0.8526583275033346
  0.1547508064892256  0.4257125163232445  0.0207599146349722
  0.5148785127679858  0.1660598977199612  0.4756254938038396
  0.9811176062960527  0.7190405349853251  0.5688064813582727
  0.8381604385573880  0.5993675245141361  0.1645468572619038
  0.0264268706603374  0.1061218660959256  0.1124740201973324
  0.8081537808272046  0.1939193598028055  0.6923380171033102
  0.0188260429806419  0.9289420114847715  0.4904854871970130
  0.3134814321407617  0.2980437243330627  0.9683959432446940
  0.7809735976176029  0.6954097833181834  0.9297047167896011
  0.9818421455990745  0.7401279679830282  0.7933376529435208
  0.6341939024922496  0.6012651887598253  0.2194411820558528
  0.5409226616609502  0.7571853477197692  0.3826579486740442
  0.3528445867226537  0.2101027507496340  0.6151784845920361
  0.0780273457031555  0.6731612101284554  0.3760837611787622
  0.5441269175182910  0.8019121906431863  0.0373347672458593
  0.3212910302731444  0.4427614581183690  0.4509829680566213
  0.3489191241936567  0.7080198676215375  0.8877566320978758
  0.0570836017949148  0.5240703171724448  0.6289821718488611
  0.6233900955474141  0.8851398406939168  0.7950863957394887
  0.4424638433545169  0.5129639655785070  0.0680608634133932
  0.3556110850312706  0.5445371098921186  0.6888038590330865
  0.7578960910836017  0.8940405456281297  0.4067161033734976
  0.1026003215883406  0.1823362613335817  0.7253513677094858
  0.1225037531507382  0.7984087974555436  0.0386222161481911
  0.8490097460427748  0.4243655447951511  0.7171096582633041
  0.6161391427169605  0.0219169783931505  0.1631342519404058
  0.8477146742333161  0.0753746092774747  0.0007992846586831
  0.1412714016488934  0.3953919422931236  0.8084989994289060
  0.1810584905159871  0.7845331866990506  0.6612462989415206
  0.8173792989048039  0.6311958625398617  0.4090776739745721
  0.8624688809152872  0.2262459464724600  0.2249010118251107
  0.8721753907374818  0.9815659269070878  0.7535843146792160
  0.2049277135599823  0.4683752312487215  0.2239103006364331
  0.7462868193717469  0.4368251783203121  0.0533924186866130
  0.2170735111484134  0.1421598359649465  0.2182523614438239
  0.0631603743991036  0.9403096879946915  0.2379596312672447
  0.7997126483076116  0.1138386969986200  0.4321544534257029
  0.0489227906503586  0.2738109301927665  0.4829290963474904
  0.8768242787472289  0.8070297319155628  0.1225967080660126
  0.1081652367881389  0.0548475370322024  0.9180136925923961
  0.3909635381420387  0.9399108055893493  0.7911486523362896
  0.6906496695338404  0.3330391981266985  0.4992783748994682
  0.9444002600426771  0.4604154193661714  0.2825271165152188
  0.3773126661521644  0.9339924360729839  0.2420586576796211
  0.6191492076015805  0.4430310027860074  0.7750759267688778
  0.4975554554366752  0.9889991654831221  0.5926487506441021
  0.3107722773735375  0.8081929136017223  0.4617733768680310
  0.7877158886969582  0.7814720905454209  0.6186832723031870
  0.6104476891442303  0.6290788166823020  0.6413164491989747
  0.3158010551210850  0.0293737078802749  0.0044160151975561
  0.5331508648171877  0.1868353511155902  0.8606766534372881
  0.0123772151042800  0.5702343913703416  0.0560689341045872
  0.9812387007112875  0.2986363069994624  0.0027512936214862
 
  0.00000000E+00  0.00000000E+00  0.00000000E+00
  0.00000000E+00  0.00000000E+00  0.00000000E+00
  0.00000000E+00  0.00000000E+00  0.00000000E+00
  0.00000000E+00  0.00000000E+00  0.00000000E+00
  0.00000000E+00  0.00000000E+00  0.00000000E+00
  0.00000000E+00  0.00000000E+00  0.00000000E+00
  0.00000000E+00  0.00000000E+00  0.00000000E+00
  0.00000000E+00  0.00000000E+00  0.00000000E+00
  0.00000000E+00  0.00000000E+00  0.00000000E+00
  0.00000000E+00  0.00000000E+00  0.00000000E+00
  0.00000000E+00  0.00000000E+00  0.00000000E+00
  0.00000000E+00  0.00000000E+00  0.00000000E+00
  0.00000000E+00  0.00000000E+00  0.00000000E+00
  0.00000000E+00  0.00000000E+00  0.00000000E+00
  0.00000000E+00  0.00000000E+00  0.00000000E+00
  0.00000000E+00  0.00000000E+00  0.00000000E+00
  0.00000000E+00  0.00000000E+00  0.00000000E+00
  0.00000000E+00  0.00000000E+00  0.00000000E+00
  0.00000000E+00  0.00000000E+00  0.00000000E+00
  0.00000000E+00  0.00000000E+00  0.00000000E+00
  0.00000000E+00  0.00000000E+00  0.00000000E+00
  0.00000000E+00  0.00000000E+00  0.00000000E+00
  0.00000000E+00  0.00000000E+00  0.00000000E+00
  0.00000000E+00  0.00000000E+00  0.00000000E+00
  0.00000000E+00  0.00000000E+00  0.00000000E+00
  0.00000000E+00  0.00000000E+00  0.00000000E+00
  0.00000000E+00  0.00000000E+00  0.00000000E+00
  0.00000000E+00  0.00000000E+00  0.00000000E+00
  0.00000000E+00  0.00000000E+00  0.00000000E+00
  0.00000000E+00  0.00000000E+00  0.00000000E+00
  0.00000000E+00  0.00000000E+00  0.00000000E+00
  0.00000000E+00  0.00000000E+00  0.00000000E+00
  0.00000000E+00  0.00000000E+00  0.00000000E+00
  0.00000000E+00  0.00000000E+00  0.00000000E+00
  0.00000000E+00  0.00000000E+00  0.00000000E+00
  0.00000000E+00  0.00000000E+00  0.00000000E+00
  0.00000000E+00  0.00000000E+00  0.00000000E+00
  0.00000000E+00  0.00000000E+00  0.00000000E+00
  0.00000000E+00  0.00000000E+00  0.00000000E+00
  0.00000000E+00  0.00000000E+00  0.00000000E+00
  0.00000000E+00  0.00000000E+00  0.00000000E+00
  0.00000000E+00  0.00000000E+00  0.00000000E+00
  0.00000000E+00  0.00000000E+00  0.00000000E+00
  0.00000000E+00  0.00000000E+00  0.00000000E+00
  0.00000000E+00  0.00000000E+00  0.00000000E+00
  0.00000000E+00  0.00000000E+00  0.00000000E+00
  0.00000000E+00  0.00000000E+00  0.00000000E+00
  0.00000000E+00  0.00000000E+00  0.00000000E+00
  0.00000000E+00  0.00000000E+00  0.00000000E+00
  0.00000000E+00  0.00000000E+00  0.00000000E+00
  0.00000000E+00  0.00000000E+00  0.00000000E+00
  0.00000000E+00  0.00000000E+00  0.00000000E+00
  0.00000000E+00  0.00000000E+00  0.00000000E+00
  0.00000000E+00  0.00000000E+00  0.00000000E+00
  0.00000000E+00  0.00000000E+00  0.00000000E+00
  0.00000000E+00  0.00000000E+00  0.00000000E+00
  0.00000000E+00  0.00000000E+00  0.00000000E+00
  0.00000000E+00  0.00000000E+00  0.00000000E+00
  0.00000000E+00  0.00000000E+00  0.00000000E+00
  0.00000000E+00  0.00000000E+00  0.00000000E+00
  0.00000000E+00  0.00000000E+00  0.00000000E+00
  0.00000000E+00  0.00000000E+00  0.00000000E+00
  0.00000000E+00  0.00000000E+00  0.00000000E+00
  0.00000000E+00  0.00000000E+00  0.00000000E+00
  0.00000000E+00  0.00000000E+00  0.00000000E+00
  0.00000000E+00  0.00000000E+00  0.00000000E+00
  0.00000000E+00  0.00000000E+00  0.00000000E+00
  0.00000000E+00  0.00000000E+00  0.00000000E+00
  0.00000000E+00  0.00000000E+00  0.00000000E+00
  0.00000000E+00  0.00000000E+00  0.00000000E+00
  0.00000000E+00  0.00000000E+00  0.00000000E+00
  0.00000000E+00  0.00000000E+00  0.00000000E+00
  0.00000000E+00  0.00000000E+00  0.00000000E+00
  0.00000000E+00  0.00000000E+00  0.00000000E+00
  0.00000000E+00  0.00000000E+00  0.00000000E+00
  0.00000000E+00  0.00000000E+00  0.00000000E+00
  0.00000000E+00  0.00000000E+00  0.00000000E+00
  0.00000000E+00  0.00000000E+00  0.00000000E+00
  0.00000000E+00  0.00000000E+00  0.00000000E+00
  0.00000000E+00  0.00000000E+00  0.00000000E+00
  0.00000000E+00  0.00000000E+00  0.00000000E+00
  0.00000000E+00  0.00000000E+00  0.00000000E+00
  0.00000000E+00  0.00000000E+00  0.00000000E+00
  0.00000000E+00  0.00000000E+00  0.00000000E+00
  0.00000000E+00  0.00000000E+00  0.00000000E+00
  0.00000000E+00  0.00000000E+00  0.00000000E+00
  0.00000000E+00  0.00000000E+00  0.00000000E+00
  0.00000000E+00  0.00000000E+00  0.00000000E+00
  0.00000000E+00  0.00000000E+00  0.00000000E+00
  0.00000000E+00  0.00000000E+00  0.00000000E+00
  0.00000000E+00  0.00000000E+00  0.00000000E+00
  0.00000000E+00  0.00000000E+00  0.00000000E+00
  0.00000000E+00  0.00000000E+00  0.00000000E+00
  0.00000000E+00  0.00000000E+00  0.00000000E+00
  0.00000000E+00  0.00000000E+00  0.00000000E+00
  0.00000000E+00  0.00000000E+00  0.00000000E+00
