  Built with Packmol                    
    1.000000000000000     
    11.2134493912095827   -0.1045564732943264    0.0822330475448575
    -0.0988125289887672   11.3532434804198736    0.2593135137097726
     0.0816568468447181    0.2641100483950289   11.2566915555386018
   Fe   Ge
    48    48
Direct
  0.1776527562924244  0.0673014806215946  0.5273819379556173
  0.9554594798459277  0.9030251458493481  0.9600784788099546
  0.9517685490692003  0.1116143751187550  0.5775526565841247
  0.3507352742033802  0.5053965998442820  0.8582818549996034
  0.5094854397558635  0.4170271261144975  0.5558863753860948
  0.2725072036316902  0.2313865314858887  0.3927148592202272
  0.5899037196705663  0.2200122315824373  0.6598540502702193
  0.2134838205944334  0.6361703096525559  0.5326138853551683
  0.4332752708130414  0.7259230321051149  0.2382302834146159
  0.1571215569643485  0.6407121930400166  0.9106139186586049
  0.3376442414237317  0.3200342861046863  0.1620465656591747
  0.5488184535664118  0.3401862555247561  0.1552092641030143
  0.6717221577732673  0.8149991585808039  0.2531251122504727
  0.0710424298666084  0.2925242698530326  0.2431362815296225
  0.2668216329140165  0.6320049131106487  0.0958755799558304
  0.8842131801717485  0.4077124022193885  0.5145924515448712
  0.6617368619631065  0.1955953903948497  0.2995411511030071
  0.4336727507474265  0.1431382157738952  0.2747494097401173
  0.1028088557800828  0.4633419676595949  0.4116321348118390
  0.4122584158468570  0.3310018967367441  0.7472083030023313
  0.3482417096998347  0.8327373121469606  0.0604673617876799
  0.8128382809185482  0.9987805475840190  0.2339918632129567
  0.9031951185155052  0.8054335170956293  0.3585811707352846
  0.7351980841739874  0.3019707107654739  0.8582945315229580
  0.4115508088833906  0.5161536136513334  0.2399309050259930
  0.5158599547532035  0.3768776389531325  0.3518602274619482
  0.3747048389209908  0.0151697267673612  0.4557326820135046
  0.5250675625276671  0.9959745345863311  0.9667914389243464
  0.4389080443875528  0.1697584449478029  0.0604897894828014
  0.2685405661209899  0.6235198841167531  0.3369614586583651
  0.2130105473370207  0.7924251944009555  0.2363717470899687
  0.7047318236716791  0.5095073088196003  0.4264868058145552
  0.7223031987992528  0.9129942286884756  0.0240145471286723
  0.7354360026948328  0.3929403008072185  0.2513056823776978
  0.5449955824091219  0.3670638540214739  0.9386314514074670
  0.6757788749867402  0.2016812885357240  0.0608666538069542
  0.0826402830868673  0.9411334309479287  0.7051020904535008
  0.4731782105041589  0.6030117262293828  0.4396820669794650
  0.7263601204423722  0.9968539333977731  0.6290212612813164
  0.0021068034612313  0.0965426164942116  0.3491054865246852
  0.5898907653980885  0.0067309041156491  0.3872622715683036
  0.7143492152858215  0.0874988590757155  0.8457527744424027
  0.2127043816036363  0.8706641240237047  0.8604175852103353
  0.1787111144484967  0.4390377720646157  0.0155085514254054
  0.5032974281226998  0.1960090976341462  0.4683794358943416
  0.9996265828550435  0.7399260177951774  0.5978354394040224
  0.8173174597428954  0.5808200826137764  0.1434287954417286
  0.0180486874784904  0.1016207076885465  0.1166355753786235
  0.8052368185154180  0.2121433115936284  0.6759205087412781
  0.0036442686107705  0.9299882710652838  0.4973287271794504
  0.3124157181093565  0.2997201569967132  0.9380814771673940
  0.7838784239849659  0.7175126033513592  0.9470191883066548
  0.9923867060225930  0.7439834463821526  0.8223823105249437
  0.6148573293519632  0.5907782373705217  0.2465461987853601
  0.4880683064882021  0.8168028461449310  0.4200018076945042
  0.3291095282860326  0.2024733768511169  0.6051466328235264
  0.0651700216529605  0.6767820227813175  0.3657533699737385
  0.5501695178006116  0.7981597268941982  0.0688332604759978
  0.3179991672561613  0.4347956570354015  0.4433952485923029
  0.3666457552400786  0.7078158443164000  0.8950663396683041
  0.0424992632608578  0.5233886306159334  0.6052823730481691
  0.6364661628671300  0.8911112814116322  0.8138838621247686
  0.4431911985950805  0.5057386349198154  0.0421865058079760
  0.3577302709089238  0.5434499551031067  0.6529138223650790
  0.7362254493216298  0.8705148137866487  0.4583401293186924
  0.1051739518990473  0.1709838589174240  0.7124284974548729
  0.1240951758492628  0.8015299122796478  0.0476425684639850
  0.8576842148000168  0.4260268710099808  0.7326872433683818
  0.5964154787046283  0.0279724350254469  0.1708141313759555
  0.8493760719427002  0.0881912796078907  0.0012739780005617
  0.1433774793919014  0.4651201075831892  0.8059393216925770
  0.1929378362481486  0.7432285380674415  0.7025923254345585
  0.8530596952749576  0.6351995369477876  0.4875325150931005
  0.8671809310727028  0.2227860223680196  0.2125245239779758
  0.8876630983288010  0.9956784981235742  0.7641475868917809
  0.1946931781759105  0.4641893502122372  0.2205557472046848
  0.7381365754220539  0.4183535472085538  0.0316451421108752
  0.2136876899419207  0.1434200831694383  0.2011704598576358
  0.0572536230612002  0.9276748184542214  0.2458610576516875
  0.7972854159506326  0.0974200800436620  0.4352800575186677
  0.0588748020842829  0.2621236980129567  0.4623977801219041
  0.8703784143091440  0.7961499380775621  0.1470724085990298
  0.1033435854730413  0.0538352575637759  0.9145444091887072
  0.4037842205801425  0.9271636579304854  0.7863674738957940
  0.6895867055717702  0.3088642773083237  0.4805967337507155
  0.9314094163852573  0.4645439035311156  0.2925097390377402
  0.3544455744271033  0.9436912838381346  0.2413905712181403
  0.6039413875645323  0.4406839296430860  0.7474328171080060
  0.5230988484200552  0.0214854583037152  0.6075946418549165
  0.2363324247723781  0.8467624787770305  0.4551130614636989
  0.7842402368945613  0.7745260907002773  0.6738211081063241
  0.6236287014573207  0.6231366599144721  0.5904226726419779
  0.3118871162646784  0.0204724764891253  0.9840457261064657
  0.5238948407315078  0.1770080402571708  0.8573004646433304
  0.0079862133380715  0.5617130248249325  0.0442042232420548
  0.0529081928337121  0.2838980308934964  0.0234780780375488
 
  0.00000000E+00  0.00000000E+00  0.00000000E+00
  0.00000000E+00  0.00000000E+00  0.00000000E+00
  0.00000000E+00  0.00000000E+00  0.00000000E+00
  0.00000000E+00  0.00000000E+00  0.00000000E+00
  0.00000000E+00  0.00000000E+00  0.00000000E+00
  0.00000000E+00  0.00000000E+00  0.00000000E+00
  0.00000000E+00  0.00000000E+00  0.00000000E+00
  0.00000000E+00  0.00000000E+00  0.00000000E+00
  0.00000000E+00  0.00000000E+00  0.00000000E+00
  0.00000000E+00  0.00000000E+00  0.00000000E+00
  0.00000000E+00  0.00000000E+00  0.00000000E+00
  0.00000000E+00  0.00000000E+00  0.00000000E+00
  0.00000000E+00  0.00000000E+00  0.00000000E+00
  0.00000000E+00  0.00000000E+00  0.00000000E+00
  0.00000000E+00  0.00000000E+00  0.00000000E+00
  0.00000000E+00  0.00000000E+00  0.00000000E+00
  0.00000000E+00  0.00000000E+00  0.00000000E+00
  0.00000000E+00  0.00000000E+00  0.00000000E+00
  0.00000000E+00  0.00000000E+00  0.00000000E+00
  0.00000000E+00  0.00000000E+00  0.00000000E+00
  0.00000000E+00  0.00000000E+00  0.00000000E+00
  0.00000000E+00  0.00000000E+00  0.00000000E+00
  0.00000000E+00  0.00000000E+00  0.00000000E+00
  0.00000000E+00  0.00000000E+00  0.00000000E+00
  0.00000000E+00  0.00000000E+00  0.00000000E+00
  0.00000000E+00  0.00000000E+00  0.00000000E+00
  0.00000000E+00  0.00000000E+00  0.00000000E+00
  0.00000000E+00  0.00000000E+00  0.00000000E+00
  0.00000000E+00  0.00000000E+00  0.00000000E+00
  0.00000000E+00  0.00000000E+00  0.00000000E+00
  0.00000000E+00  0.00000000E+00  0.00000000E+00
  0.00000000E+00  0.00000000E+00  0.00000000E+00
  0.00000000E+00  0.00000000E+00  0.00000000E+00
  0.00000000E+00  0.00000000E+00  0.00000000E+00
  0.00000000E+00  0.00000000E+00  0.00000000E+00
  0.00000000E+00  0.00000000E+00  0.00000000E+00
  0.00000000E+00  0.00000000E+00  0.00000000E+00
  0.00000000E+00  0.00000000E+00  0.00000000E+00
  0.00000000E+00  0.00000000E+00  0.00000000E+00
  0.00000000E+00  0.00000000E+00  0.00000000E+00
  0.00000000E+00  0.00000000E+00  0.00000000E+00
  0.00000000E+00  0.00000000E+00  0.00000000E+00
  0.00000000E+00  0.00000000E+00  0.00000000E+00
  0.00000000E+00  0.00000000E+00  0.00000000E+00
  0.00000000E+00  0.00000000E+00  0.00000000E+00
  0.00000000E+00  0.00000000E+00  0.00000000E+00
  0.00000000E+00  0.00000000E+00  0.00000000E+00
  0.00000000E+00  0.00000000E+00  0.00000000E+00
  0.00000000E+00  0.00000000E+00  0.00000000E+00
  0.00000000E+00  0.00000000E+00  0.00000000E+00
  0.00000000E+00  0.00000000E+00  0.00000000E+00
  0.00000000E+00  0.00000000E+00  0.00000000E+00
  0.00000000E+00  0.00000000E+00  0.00000000E+00
  0.00000000E+00  0.00000000E+00  0.00000000E+00
  0.00000000E+00  0.00000000E+00  0.00000000E+00
  0.00000000E+00  0.00000000E+00  0.00000000E+00
  0.00000000E+00  0.00000000E+00  0.00000000E+00
  0.00000000E+00  0.00000000E+00  0.00000000E+00
  0.00000000E+00  0.00000000E+00  0.00000000E+00
  0.00000000E+00  0.00000000E+00  0.00000000E+00
  0.00000000E+00  0.00000000E+00  0.00000000E+00
  0.00000000E+00  0.00000000E+00  0.00000000E+00
  0.00000000E+00  0.00000000E+00  0.00000000E+00
  0.00000000E+00  0.00000000E+00  0.00000000E+00
  0.00000000E+00  0.00000000E+00  0.00000000E+00
  0.00000000E+00  0.00000000E+00  0.00000000E+00
  0.00000000E+00  0.00000000E+00  0.00000000E+00
  0.00000000E+00  0.00000000E+00  0.00000000E+00
  0.00000000E+00  0.00000000E+00  0.00000000E+00
  0.00000000E+00  0.00000000E+00  0.00000000E+00
  0.00000000E+00  0.00000000E+00  0.00000000E+00
  0.00000000E+00  0.00000000E+00  0.00000000E+00
  0.00000000E+00  0.00000000E+00  0.00000000E+00
  0.00000000E+00  0.00000000E+00  0.00000000E+00
  0.00000000E+00  0.00000000E+00  0.00000000E+00
  0.00000000E+00  0.00000000E+00  0.00000000E+00
  0.00000000E+00  0.00000000E+00  0.00000000E+00
  0.00000000E+00  0.00000000E+00  0.00000000E+00
  0.00000000E+00  0.00000000E+00  0.00000000E+00
  0.00000000E+00  0.00000000E+00  0.00000000E+00
  0.00000000E+00  0.00000000E+00  0.00000000E+00
  0.00000000E+00  0.00000000E+00  0.00000000E+00
  0.00000000E+00  0.00000000E+00  0.00000000E+00
  0.00000000E+00  0.00000000E+00  0.00000000E+00
  0.00000000E+00  0.00000000E+00  0.00000000E+00
  0.00000000E+00  0.00000000E+00  0.00000000E+00
  0.00000000E+00  0.00000000E+00  0.00000000E+00
  0.00000000E+00  0.00000000E+00  0.00000000E+00
  0.00000000E+00  0.00000000E+00  0.00000000E+00
  0.00000000E+00  0.00000000E+00  0.00000000E+00
  0.00000000E+00  0.00000000E+00  0.00000000E+00
  0.00000000E+00  0.00000000E+00  0.00000000E+00
  0.00000000E+00  0.00000000E+00  0.00000000E+00
  0.00000000E+00  0.00000000E+00  0.00000000E+00
  0.00000000E+00  0.00000000E+00  0.00000000E+00
  0.00000000E+00  0.00000000E+00  0.00000000E+00
