  Built with Packmol                    
   1.00000000000000     
    11.2107341081661716    0.1607336441283488    0.3200966723873139
     0.1500839273310914   11.1389980424792796    0.0340282644013086
     0.3187458954283241    0.0357063906718737   11.1244334143311967
   Fe   Ge
    48    48
Direct
  0.1552065161834619  0.6285974825328324  0.3743175576380438
  0.8829962491671282  0.1570227543452987  0.5585669510802305
  0.8590433568367786  0.9079450768054969  0.6433396310267412
  0.3621458924965637  0.4048503190922830  0.7418883713474216
  0.5130519613892162  0.0301581685859205  0.0679977656071173
  0.1523590113699029  0.0913292527454956  0.7311212601048567
  0.0305918490946766  0.2941108281328724  0.2633891214118336
  0.7260673463959364  0.5279667349447408  0.0697971053564928
  0.7816658870254543  0.7904832979136387  0.4748574194710500
  0.6677942146111917  0.8843118082133330  0.1479469005653939
  0.4990143897722135  0.9806206891845122  0.8531082358181976
  0.7246296724152046  0.0450624610359611  0.7724632486353613
  0.0340016197971025  0.7913902531725157  0.5305853134797545
  0.9851096110395332  0.2766102736377576  0.7762904375864963
  0.7405063649882280  0.7416393893222875  0.0004640704788912
  0.6837842322268202  0.2406707667699095  0.5363971338453055
  0.7249742180568006  0.5000966366967674  0.7278576552411096
  0.5431401038806811  0.5952525579942787  0.4031077374363647
  0.7621019094845636  0.5619071083532390  0.3395306556708704
  0.2316311683229344  0.8698202905639576  0.6082442511355950
  0.5951143657004678  0.1863160124116163  0.3442801201463155
  0.0210413517345316  0.8372759841322406  0.3037767671619847
  0.3678257922431882  0.6904392397335144  0.5084298734687920
  0.8639890745979883  0.3842371369024065  0.4235094812083986
  0.3937813594073347  0.9412178168054126  0.4528970742250777
  0.7192619902563848  0.1073408708782182  0.1763797386074160
  0.6399335623702243  0.1628875532897283  0.9340633341275435
  0.9814672913440958  0.3261694381987823  0.0169335605296226
  0.3051912687046539  0.5202708011665536  0.1446581413560892
  0.5982333032060509  0.9208224733625627  0.6464932023002845
  0.9453166482339128  0.5620404963076311  0.0311689487699880
  0.9093056017430712  0.9376324192482315  0.1010901732840850
  0.8213807979368255  0.4056988821390348  0.8966000736608706
  0.4419510911986961  0.2221823111560113  0.9391837084102335
  0.2977632558519474  0.9914413997235485  0.2319699567635070
  0.5946356032040114  0.3857152098017878  0.9208521374188905
  0.4886473751915759  0.5801302424291990  0.6865677787199189
  0.3850130304654158  0.0119205688432658  0.6703459239173384
  0.5448895720415550  0.1569335571354813  0.7367277924016449
  0.8432215124504268  0.6190221720145530  0.8511430690188604
  0.8631593378596492  0.1569502172850505  0.9422156302478868
  0.8606183863838410  0.7096247908002553  0.1849200953013437
  0.1710609730631276  0.7704383032559008  0.9230979579083254
  0.3276011802605936  0.9028937114194662  0.0259397502700907
  0.4383297517916915  0.3743717982783821  0.3087247552906547
  0.0641355979584333  0.6657224637489705  0.7773864105797941
  0.7468042700819524  0.2597792757112174  0.7701511228911713
  0.0773561086941825  0.2234720098685798  0.4998090459705438
  0.0536219489755894  0.8802701260912187  0.7345213764026539
  0.9962702103882748  0.9907573025145524  0.4709032911581303
  0.7387962196208875  0.0127150175703719  0.5117721502247576
  0.2383729428799768  0.0821719206292144  0.5327886825715140
  0.5224717666754870  0.9701305060048639  0.2778522612638810
  0.5718383188953027  0.3651774062215480  0.6871229513861863
  0.8817941308226906  0.6884645075313500  0.6522514978040803
  0.8851832735538494  0.4443193560822394  0.2056767286231391
  0.1332843526424199  0.4216263799495792  0.0933354414160448
  0.8728919519171470  0.3705510735098230  0.6294781522808819
  0.0244447158774790  0.4687783290004504  0.8379960652025744
  0.9350076083951677  0.0747852284907822  0.7516113821432739
  0.8100589147377306  0.9144715364384908  0.2923287363827924
  0.3648814369914319  0.4173857098970473  0.9632804599570548
  0.9564911082865848  0.7731619320034113  0.9655609883132783
  0.3750879709331727  0.1662332103928179  0.3376812974194223
  0.2965269127511689  0.1146600331079242  0.0481632240893290
  0.6118262845409319  0.6040091530944807  0.8845072574173329
  0.3297810290381733  0.1933962952432537  0.7720942064055407
  0.7480498049002549  0.3007852007169660  0.0717775353030987
  0.6389224031813399  0.6871520424385409  0.2204806240319215
  0.1734680496322625  0.6341904445424689  0.5883728769220724
  0.5605416178727154  0.8002357727736751  0.4663746900895589
  0.0987498983701087  0.1638036259298090  0.9284383875525180
  0.0673935882134558  0.4372005370079108  0.4441968935842411
  0.5194016911760642  0.1033749905865662  0.5314193226781043
  0.5196318765724399  0.2410348059816130  0.1368511605895080
  0.9506997186971873  0.1396974329519267  0.1400164774855952
  0.4019998454840064  0.4556686138528079  0.5203254869471721
  0.6953695017856347  0.5940020073485854  0.5454445237454095
  0.5195943658326883  0.4848815385196801  0.1325140972842149
  0.2771728928620334  0.6032793178986253  0.8021970424327094
  0.1242300493073358  0.9021312934571739  0.1159289861870789
  0.4311844463319261  0.7943239335265915  0.6865558461853283
  0.5257112655044409  0.8187913078721891  0.0099346850999353
  0.9419651976794654  0.6475450841036974  0.3889835750950326
  0.3629596918607589  0.6109953091671727  0.3110304917919038
  0.6343015825866587  0.3928577492934835  0.3898486267520127
  0.2303530791652335  0.3762576387489958  0.2935450932248571
  0.2636630066225791  0.9446086195028585  0.8355810223755924
  0.7192677242917398  0.8243119400370063  0.7913662954472898
  0.3256498143748345  0.6940927924732208  0.0419239768269080
  0.2242266618980793  0.8335840420823999  0.3874095622790676
  0.1388491114592725  0.1205060660844097  0.2982196123754477
  0.7481543601626228  0.9774720930819925  0.9755339111905457
  0.8252708073911208  0.1947959619197235  0.3461589738053661
  0.1703233153181003  0.3246388444489412  0.6679208175516536
  0.0976701821247303  0.6570882871339805  0.1587002306788889
 
  0.00000000E+00  0.00000000E+00  0.00000000E+00
  0.00000000E+00  0.00000000E+00  0.00000000E+00
  0.00000000E+00  0.00000000E+00  0.00000000E+00
  0.00000000E+00  0.00000000E+00  0.00000000E+00
  0.00000000E+00  0.00000000E+00  0.00000000E+00
  0.00000000E+00  0.00000000E+00  0.00000000E+00
  0.00000000E+00  0.00000000E+00  0.00000000E+00
  0.00000000E+00  0.00000000E+00  0.00000000E+00
  0.00000000E+00  0.00000000E+00  0.00000000E+00
  0.00000000E+00  0.00000000E+00  0.00000000E+00
  0.00000000E+00  0.00000000E+00  0.00000000E+00
  0.00000000E+00  0.00000000E+00  0.00000000E+00
  0.00000000E+00  0.00000000E+00  0.00000000E+00
  0.00000000E+00  0.00000000E+00  0.00000000E+00
  0.00000000E+00  0.00000000E+00  0.00000000E+00
  0.00000000E+00  0.00000000E+00  0.00000000E+00
  0.00000000E+00  0.00000000E+00  0.00000000E+00
  0.00000000E+00  0.00000000E+00  0.00000000E+00
  0.00000000E+00  0.00000000E+00  0.00000000E+00
  0.00000000E+00  0.00000000E+00  0.00000000E+00
  0.00000000E+00  0.00000000E+00  0.00000000E+00
  0.00000000E+00  0.00000000E+00  0.00000000E+00
  0.00000000E+00  0.00000000E+00  0.00000000E+00
  0.00000000E+00  0.00000000E+00  0.00000000E+00
  0.00000000E+00  0.00000000E+00  0.00000000E+00
  0.00000000E+00  0.00000000E+00  0.00000000E+00
  0.00000000E+00  0.00000000E+00  0.00000000E+00
  0.00000000E+00  0.00000000E+00  0.00000000E+00
  0.00000000E+00  0.00000000E+00  0.00000000E+00
  0.00000000E+00  0.00000000E+00  0.00000000E+00
  0.00000000E+00  0.00000000E+00  0.00000000E+00
  0.00000000E+00  0.00000000E+00  0.00000000E+00
  0.00000000E+00  0.00000000E+00  0.00000000E+00
  0.00000000E+00  0.00000000E+00  0.00000000E+00
  0.00000000E+00  0.00000000E+00  0.00000000E+00
  0.00000000E+00  0.00000000E+00  0.00000000E+00
  0.00000000E+00  0.00000000E+00  0.00000000E+00
  0.00000000E+00  0.00000000E+00  0.00000000E+00
  0.00000000E+00  0.00000000E+00  0.00000000E+00
  0.00000000E+00  0.00000000E+00  0.00000000E+00
  0.00000000E+00  0.00000000E+00  0.00000000E+00
  0.00000000E+00  0.00000000E+00  0.00000000E+00
  0.00000000E+00  0.00000000E+00  0.00000000E+00
  0.00000000E+00  0.00000000E+00  0.00000000E+00
  0.00000000E+00  0.00000000E+00  0.00000000E+00
  0.00000000E+00  0.00000000E+00  0.00000000E+00
  0.00000000E+00  0.00000000E+00  0.00000000E+00
  0.00000000E+00  0.00000000E+00  0.00000000E+00
  0.00000000E+00  0.00000000E+00  0.00000000E+00
  0.00000000E+00  0.00000000E+00  0.00000000E+00
  0.00000000E+00  0.00000000E+00  0.00000000E+00
  0.00000000E+00  0.00000000E+00  0.00000000E+00
  0.00000000E+00  0.00000000E+00  0.00000000E+00
  0.00000000E+00  0.00000000E+00  0.00000000E+00
  0.00000000E+00  0.00000000E+00  0.00000000E+00
  0.00000000E+00  0.00000000E+00  0.00000000E+00
  0.00000000E+00  0.00000000E+00  0.00000000E+00
  0.00000000E+00  0.00000000E+00  0.00000000E+00
  0.00000000E+00  0.00000000E+00  0.00000000E+00
  0.00000000E+00  0.00000000E+00  0.00000000E+00
  0.00000000E+00  0.00000000E+00  0.00000000E+00
  0.00000000E+00  0.00000000E+00  0.00000000E+00
  0.00000000E+00  0.00000000E+00  0.00000000E+00
  0.00000000E+00  0.00000000E+00  0.00000000E+00
  0.00000000E+00  0.00000000E+00  0.00000000E+00
  0.00000000E+00  0.00000000E+00  0.00000000E+00
  0.00000000E+00  0.00000000E+00  0.00000000E+00
  0.00000000E+00  0.00000000E+00  0.00000000E+00
  0.00000000E+00  0.00000000E+00  0.00000000E+00
  0.00000000E+00  0.00000000E+00  0.00000000E+00
  0.00000000E+00  0.00000000E+00  0.00000000E+00
  0.00000000E+00  0.00000000E+00  0.00000000E+00
  0.00000000E+00  0.00000000E+00  0.00000000E+00
  0.00000000E+00  0.00000000E+00  0.00000000E+00
  0.00000000E+00  0.00000000E+00  0.00000000E+00
  0.00000000E+00  0.00000000E+00  0.00000000E+00
  0.00000000E+00  0.00000000E+00  0.00000000E+00
  0.00000000E+00  0.00000000E+00  0.00000000E+00
  0.00000000E+00  0.00000000E+00  0.00000000E+00
  0.00000000E+00  0.00000000E+00  0.00000000E+00
  0.00000000E+00  0.00000000E+00  0.00000000E+00
  0.00000000E+00  0.00000000E+00  0.00000000E+00
  0.00000000E+00  0.00000000E+00  0.00000000E+00
  0.00000000E+00  0.00000000E+00  0.00000000E+00
  0.00000000E+00  0.00000000E+00  0.00000000E+00
  0.00000000E+00  0.00000000E+00  0.00000000E+00
  0.00000000E+00  0.00000000E+00  0.00000000E+00
  0.00000000E+00  0.00000000E+00  0.00000000E+00
  0.00000000E+00  0.00000000E+00  0.00000000E+00
  0.00000000E+00  0.00000000E+00  0.00000000E+00
  0.00000000E+00  0.00000000E+00  0.00000000E+00
  0.00000000E+00  0.00000000E+00  0.00000000E+00
  0.00000000E+00  0.00000000E+00  0.00000000E+00
  0.00000000E+00  0.00000000E+00  0.00000000E+00
  0.00000000E+00  0.00000000E+00  0.00000000E+00
  0.00000000E+00  0.00000000E+00  0.00000000E+00
