  Built with Packmol                    
    1.000000000000000     
    11.1518625612635347   -0.1748479708165724   -0.2756409094626537
    -0.1852034720053294   11.2870378893235852   -0.1181965510549610
    -0.2903849630800969   -0.1137652509496610   11.0481326627096923
   Fe   Ge
    48    48
Direct
  0.1778244247421270  0.0898938709596138  0.5275147764367176
  0.9580271197195032  0.9009566172763996  0.9334699233438144
  0.9569364891482195  0.1106796823533145  0.5881078368900958
  0.3214510763460154  0.4953606604793492  0.8953081215385268
  0.5012175526638103  0.4219153804937150  0.5885993992411613
  0.2515131473667580  0.2325160794561185  0.3890933823282268
  0.6118919056085588  0.2408961177946765  0.6766944266714177
  0.2194054499841585  0.6171614036894724  0.5366264805183363
  0.4410884074768688  0.7108320170001861  0.2155079381210712
  0.1337236634755641  0.6130263040551327  0.8926957819473103
  0.3386130992482776  0.3346711341917583  0.2090709870467009
  0.5437116891166269  0.3391372138866728  0.1786310643354696
  0.6909021564372892  0.8213914185244278  0.2117517849501809
  0.0645517694260533  0.2844900880574173  0.2282949635776390
  0.2407721402089322  0.6264734069390769  0.0911229246586558
  0.8725107477387226  0.4780719822109702  0.5127146588517490
  0.6587844908760871  0.2034104482779142  0.3048862844438816
  0.4343443245980936  0.1387366460779020  0.2889740449731022
  0.1004881649518481  0.4578074761434507  0.4206577382659447
  0.4093621152489106  0.3356624326223496  0.7600561725092092
  0.3420073113432736  0.8276506316282024  0.0575382080654663
  0.8357947398573842  0.0049298646603759  0.1812964205518313
  0.9440076539832276  0.8169100401528624  0.3250516296747108
  0.7668596620356780  0.3175515584584545  0.8864181500087298
  0.4888871716170229  0.5071268642600870  0.3226818792664972
  0.4901065781973841  0.3161373849794629  0.3859319593167001
  0.3449795861399139  0.0144690602494109  0.4402840377412929
  0.5232327485136352  0.9956021268451707  0.9487224130970304
  0.4501643916225433  0.1722151784582806  0.0743644603053539
  0.2941590528609552  0.6152111970166203  0.3260832940396980
  0.2155090310518162  0.7981218241062820  0.2439022686182852
  0.6575022436901889  0.5864243084462473  0.4830274927456415
  0.7200723880631301  0.8917431642502862  0.9885117386148252
  0.7160137020408470  0.4164968668517020  0.2968059011350164
  0.5342956481328542  0.3795526272939114  0.9716605071750521
  0.6844977776967269  0.2150011594046148  0.0703503544521240
  0.0686110739707573  0.9500380428027242  0.7080647615653319
  0.4384740520985559  0.6245823182513277  0.5046758479209927
  0.7028664329109375  0.9623087945395312  0.5890470210615746
  0.9575812463655140  0.0786179797106996  0.3586296950269912
  0.5727820948529612  0.9625475666426553  0.3596460040951683
  0.7007190865327289  0.0805083124454100  0.8168430749565516
  0.2062886234519752  0.8542683934144861  0.8520872616200919
  0.1473807167241858  0.4124659968931184  0.0173448542814327
  0.5576780251028808  0.1406352171081409  0.4885343114801373
  0.9845822653631231  0.7154772301225023  0.5651734006532863
  0.8360619438212211  0.6038937824708626  0.1610232012974038
  0.0266885078412997  0.1165592968195881  0.0985862046754775
  0.8426959257618734  0.2121501346387120  0.7234631043731596
  0.0344164572466710  0.9225705097859915  0.4969737160429801
  0.3195526094106924  0.3001156110669498  0.9710375010388503
  0.7806658227749566  0.6896637567756585  0.9274256021947167
  0.9847581664979757  0.7377575051296148  0.7891340512642557
  0.6410382671132737  0.6132522844021651  0.2316158129937023
  0.5677456627999007  0.7624558312643259  0.4115969732841762
  0.3742333081415126  0.2070995979311760  0.5797619734596182
  0.0873030003172275  0.6747626705266327  0.3693911331017929
  0.5432179825769836  0.7954420085455922  0.0408780427384059
  0.3179029085212690  0.4324432126403579  0.4504555020711152
  0.3424270854058591  0.6985515034862217  0.8896888576509241
  0.0549984924349403  0.5194387124206301  0.6275463101931464
  0.6244679472258667  0.8768615832719036  0.7848483337203120
  0.4246759520529366  0.5138445931307842  0.0969016914637422
  0.3460743978178229  0.5404278703900545  0.6894364368862185
  0.7883975984545515  0.9293170084828475  0.3920414623174864
  0.1252321751143626  0.1761851143918491  0.7193616448576137
  0.1245391382798715  0.8030887813626251  0.0395335259990333
  0.8267557108332326  0.4471311236491715  0.7222315959607144
  0.6131809506262655  0.0273845630466596  0.1580712887993982
  0.8397359861301368  0.0830561351092740  0.9798152623247987
  0.1399428840249541  0.3952829370470425  0.8029194221527476
  0.1823856939996915  0.7756196784418421  0.6595304611835573
  0.8368129171638898  0.6471087881825071  0.3887415175589481
  0.8580194531350926  0.2215337670343800  0.2242903147277389
  0.8661169716647379  0.9732195143107063  0.7379888942028288
  0.1763790226556594  0.4658258566335647  0.2216336691468683
  0.7305635823023877  0.4400908719127798  0.0602954553114756
  0.2311601793520595  0.1523604725853787  0.1778754415778891
  0.0832423281872678  0.9596866538745488  0.2382780403195213
  0.7727008243471332  0.1426016333743476  0.4879971293315393
  0.0483237529672707  0.2584940805729161  0.4627435993828328
  0.8884516713193378  0.8055618299478624  0.1135875383379599
  0.1082859501087725  0.0530151068814675  0.9083758655296563
  0.3847611674407219  0.9378000600471736  0.7784847863361364
  0.6855784546104644  0.3650931155876833  0.5038915954529841
  0.9293309694943659  0.4519595673563259  0.2864754059772778
  0.3848560254052487  0.9284576761516945  0.2425653007046478
  0.6051762128961613  0.4564588624817318  0.7959415621664192
  0.4945490255972445  0.9614953550555825  0.5827043955672622
  0.3160996830771481  0.7995800418796648  0.4587548586221786
  0.7808105870794719  0.7623134518242125  0.5904670573092403
  0.5827499237606801  0.6492486143183953  0.6772895833487951
  0.3164097666424865  0.0160972300174933  0.9896278509291250
  0.5392470900492299  0.1917785234443983  0.8738582257376919
  0.0064990934788440  0.5632776980216008  0.0531526685428005
  0.9667866390049227  0.3038384538385301  0.9869575262354644
 
  0.00000000E+00  0.00000000E+00  0.00000000E+00
  0.00000000E+00  0.00000000E+00  0.00000000E+00
  0.00000000E+00  0.00000000E+00  0.00000000E+00
  0.00000000E+00  0.00000000E+00  0.00000000E+00
  0.00000000E+00  0.00000000E+00  0.00000000E+00
  0.00000000E+00  0.00000000E+00  0.00000000E+00
  0.00000000E+00  0.00000000E+00  0.00000000E+00
  0.00000000E+00  0.00000000E+00  0.00000000E+00
  0.00000000E+00  0.00000000E+00  0.00000000E+00
  0.00000000E+00  0.00000000E+00  0.00000000E+00
  0.00000000E+00  0.00000000E+00  0.00000000E+00
  0.00000000E+00  0.00000000E+00  0.00000000E+00
  0.00000000E+00  0.00000000E+00  0.00000000E+00
  0.00000000E+00  0.00000000E+00  0.00000000E+00
  0.00000000E+00  0.00000000E+00  0.00000000E+00
  0.00000000E+00  0.00000000E+00  0.00000000E+00
  0.00000000E+00  0.00000000E+00  0.00000000E+00
  0.00000000E+00  0.00000000E+00  0.00000000E+00
  0.00000000E+00  0.00000000E+00  0.00000000E+00
  0.00000000E+00  0.00000000E+00  0.00000000E+00
  0.00000000E+00  0.00000000E+00  0.00000000E+00
  0.00000000E+00  0.00000000E+00  0.00000000E+00
  0.00000000E+00  0.00000000E+00  0.00000000E+00
  0.00000000E+00  0.00000000E+00  0.00000000E+00
  0.00000000E+00  0.00000000E+00  0.00000000E+00
  0.00000000E+00  0.00000000E+00  0.00000000E+00
  0.00000000E+00  0.00000000E+00  0.00000000E+00
  0.00000000E+00  0.00000000E+00  0.00000000E+00
  0.00000000E+00  0.00000000E+00  0.00000000E+00
  0.00000000E+00  0.00000000E+00  0.00000000E+00
  0.00000000E+00  0.00000000E+00  0.00000000E+00
  0.00000000E+00  0.00000000E+00  0.00000000E+00
  0.00000000E+00  0.00000000E+00  0.00000000E+00
  0.00000000E+00  0.00000000E+00  0.00000000E+00
  0.00000000E+00  0.00000000E+00  0.00000000E+00
  0.00000000E+00  0.00000000E+00  0.00000000E+00
  0.00000000E+00  0.00000000E+00  0.00000000E+00
  0.00000000E+00  0.00000000E+00  0.00000000E+00
  0.00000000E+00  0.00000000E+00  0.00000000E+00
  0.00000000E+00  0.00000000E+00  0.00000000E+00
  0.00000000E+00  0.00000000E+00  0.00000000E+00
  0.00000000E+00  0.00000000E+00  0.00000000E+00
  0.00000000E+00  0.00000000E+00  0.00000000E+00
  0.00000000E+00  0.00000000E+00  0.00000000E+00
  0.00000000E+00  0.00000000E+00  0.00000000E+00
  0.00000000E+00  0.00000000E+00  0.00000000E+00
  0.00000000E+00  0.00000000E+00  0.00000000E+00
  0.00000000E+00  0.00000000E+00  0.00000000E+00
  0.00000000E+00  0.00000000E+00  0.00000000E+00
  0.00000000E+00  0.00000000E+00  0.00000000E+00
  0.00000000E+00  0.00000000E+00  0.00000000E+00
  0.00000000E+00  0.00000000E+00  0.00000000E+00
  0.00000000E+00  0.00000000E+00  0.00000000E+00
  0.00000000E+00  0.00000000E+00  0.00000000E+00
  0.00000000E+00  0.00000000E+00  0.00000000E+00
  0.00000000E+00  0.00000000E+00  0.00000000E+00
  0.00000000E+00  0.00000000E+00  0.00000000E+00
  0.00000000E+00  0.00000000E+00  0.00000000E+00
  0.00000000E+00  0.00000000E+00  0.00000000E+00
  0.00000000E+00  0.00000000E+00  0.00000000E+00
  0.00000000E+00  0.00000000E+00  0.00000000E+00
  0.00000000E+00  0.00000000E+00  0.00000000E+00
  0.00000000E+00  0.00000000E+00  0.00000000E+00
  0.00000000E+00  0.00000000E+00  0.00000000E+00
  0.00000000E+00  0.00000000E+00  0.00000000E+00
  0.00000000E+00  0.00000000E+00  0.00000000E+00
  0.00000000E+00  0.00000000E+00  0.00000000E+00
  0.00000000E+00  0.00000000E+00  0.00000000E+00
  0.00000000E+00  0.00000000E+00  0.00000000E+00
  0.00000000E+00  0.00000000E+00  0.00000000E+00
  0.00000000E+00  0.00000000E+00  0.00000000E+00
  0.00000000E+00  0.00000000E+00  0.00000000E+00
  0.00000000E+00  0.00000000E+00  0.00000000E+00
  0.00000000E+00  0.00000000E+00  0.00000000E+00
  0.00000000E+00  0.00000000E+00  0.00000000E+00
  0.00000000E+00  0.00000000E+00  0.00000000E+00
  0.00000000E+00  0.00000000E+00  0.00000000E+00
  0.00000000E+00  0.00000000E+00  0.00000000E+00
  0.00000000E+00  0.00000000E+00  0.00000000E+00
  0.00000000E+00  0.00000000E+00  0.00000000E+00
  0.00000000E+00  0.00000000E+00  0.00000000E+00
  0.00000000E+00  0.00000000E+00  0.00000000E+00
  0.00000000E+00  0.00000000E+00  0.00000000E+00
  0.00000000E+00  0.00000000E+00  0.00000000E+00
  0.00000000E+00  0.00000000E+00  0.00000000E+00
  0.00000000E+00  0.00000000E+00  0.00000000E+00
  0.00000000E+00  0.00000000E+00  0.00000000E+00
  0.00000000E+00  0.00000000E+00  0.00000000E+00
  0.00000000E+00  0.00000000E+00  0.00000000E+00
  0.00000000E+00  0.00000000E+00  0.00000000E+00
  0.00000000E+00  0.00000000E+00  0.00000000E+00
  0.00000000E+00  0.00000000E+00  0.00000000E+00
  0.00000000E+00  0.00000000E+00  0.00000000E+00
  0.00000000E+00  0.00000000E+00  0.00000000E+00
  0.00000000E+00  0.00000000E+00  0.00000000E+00
  0.00000000E+00  0.00000000E+00  0.00000000E+00
