  Built with Packmol                    
   1.00000000000000     
    11.1391992701348368   -0.0952810415384997   -0.0085897615897295
    -0.0928632018456706   11.3336659204806818    0.2657691229088679
    -0.0079759152902286    0.2675695008458254   11.3005265927624023
   Fe   Ge
    48    48
Direct
  0.1717245335386508  0.0773659511230065  0.5357680907626161
  0.9557636859855805  0.9003332699274935  0.9609679171151484
  0.9518370641423530  0.1193634266787456  0.5801540370267730
  0.3443960142853015  0.5063292790247473  0.8645938965974764
  0.4817583662212783  0.3867293672842820  0.5578544875707649
  0.2636087380484113  0.2236172713498377  0.3790077344493952
  0.5916007426569294  0.2160285591277855  0.6641360754005632
  0.2234191421676570  0.6532115320474858  0.5280823952185045
  0.4442039416061547  0.7237509832161138  0.2431682502740600
  0.1554137606584192  0.6352918385110087  0.9044693177818957
  0.3306530907342520  0.3267062431245407  0.1745401693929978
  0.5496079738141191  0.3277960048967401  0.1573586702924032
  0.6801185765040074  0.8163401482332944  0.2510530191272053
  0.0872723458640507  0.2812302837493874  0.2334731936244197
  0.2815396082210029  0.6207174920423100  0.0905210969229913
  0.8853746529237441  0.4090208568829112  0.5058033470408745
  0.6576167490867633  0.2012579914511576  0.3003184454755186
  0.4358841989097897  0.1417105351747168  0.2688797277668726
  0.1007530013193332  0.4662018725331691  0.4039088639232133
  0.3975147681515310  0.3323762416655214  0.7515202812529438
  0.3486504541302224  0.8246995583236298  0.0664494376693341
  0.8247144979606418  0.0169253731662664  0.2333390709740044
  0.9141302295592126  0.8223056026729125  0.3577149364766399
  0.7330618788131460  0.3049296689231369  0.8573445095016226
  0.4229649836514184  0.5138545999794744  0.2389426528206684
  0.5334603288499054  0.3856739671265714  0.3527504684606839
  0.3618517382692801  0.0315979402485880  0.4650552738446194
  0.5271009471709007  0.9948150733651246  0.9701075389623313
  0.4397756559357973  0.1712657548865266  0.0573347234789168
  0.2701346089425272  0.6198033270534395  0.3265785050012866
  0.2231043628250262  0.7898086130438031  0.2274884709777112
  0.6905189892785231  0.5109505997622179  0.4522045412983147
  0.7233528993670433  0.9133467199801331  0.0357695423056370
  0.7352369687777340  0.3987541394038061  0.2509771991742795
  0.5414850303098504  0.3583010174273085  0.9330218325521429
  0.6657257790275111  0.1872169361596789  0.0390361247033866
  0.0895317081650262  0.9474290326509021  0.7091580865931135
  0.4672312123473503  0.5876261112692447  0.4496071679492175
  0.7249310360153700  0.0028492175539583  0.6290239243525022
  0.0020157337301754  0.0844842936656676  0.3450233621723910
  0.5651497699018293  0.9943215155200633  0.3893221874727431
  0.7117244203009321  0.0873453617510762  0.8438491683326106
  0.2121095902897281  0.8686443628254850  0.8656262267993711
  0.1682264772299789  0.4368678987774217  0.0104488881111209
  0.5064108937569216  0.1961658973890081  0.4595290233201226
  0.9916733868061058  0.7428437515047790  0.6002867304160446
  0.8216041509006402  0.5789378433333070  0.1257572578696866
  0.0237554576799042  0.1043744404684901  0.1149012567712617
  0.8091069605079539  0.2163183284625987  0.6817863199544263
  0.0047078560207581  0.9350025336181886  0.5069115242911764
  0.3123782789628606  0.3037923192318814  0.9485871690886611
  0.7821087396960635  0.7193102906777398  0.9537403462756444
  0.9846640457539380  0.7457901056010812  0.8179254858888427
  0.6321978172630338  0.5953442320589772  0.2611378663640735
  0.5054614045322268  0.7934683016868433  0.4278881624171547
  0.3338129403600831  0.2084408637193533  0.5995461759201461
  0.0741495434454080  0.6893508079288750  0.3764000433779202
  0.5528491721147759  0.7989456438466433  0.0757511643895086
  0.3159798461526648  0.4269905519336419  0.4241440759925439
  0.3673058003137371  0.7083177045409101  0.8937229471131474
  0.0474147586139182  0.5351806907206722  0.5928601694960776
  0.6415690384209327  0.8861747423671531  0.8194743824241257
  0.4585489303677122  0.5021814147726147  0.0421182630041130
  0.3587075488184723  0.5414854397503532  0.6520098018857610
  0.7375163834056337  0.8793784483243172  0.4513608607572763
  0.1048750056657539  0.1857637882689644  0.7174612576546693
  0.1220843247572745  0.7878511929598560  0.0432911014211825
  0.8468978575148967  0.4395565617156620  0.7208628481714499
  0.6022906530673353  0.0280458059673450  0.1784776985222649
  0.8516901683064404  0.0851010036003430  0.0032071986736568
  0.1389928929444864  0.4520805035690287  0.7976727795922898
  0.1851891447896250  0.7325315594142481  0.7099294714061060
  0.8469614145482396  0.6474845891868526  0.4746015803400354
  0.8704555430195882  0.2322786173095608  0.2185073441633847
  0.8911924868750987  0.9958126449504832  0.7625114038318443
  0.1790648301935676  0.4716971952424487  0.2115210074768612
  0.7319221693348439  0.4145029644304188  0.0344946590143635
  0.2296099721647238  0.1368114119748327  0.1791302824441843
  0.0655949510929617  0.9265863862459511  0.2320547354686440
  0.7969576527570084  0.1028910058689050  0.4359848178805805
  0.0546442461920407  0.2633732849778596  0.4526498054591954
  0.8745728443913876  0.7901241668456649  0.1519608947893190
  0.1048855079958813  0.0522662232031266  0.9137598692966762
  0.4063546966757627  0.9237977105473405  0.7909852358220135
  0.6906301741492982  0.3076481040767618  0.4888391705953978
  0.9281055624538581  0.4833454054723916  0.2872216324280785
  0.3647799807667909  0.9369836005264176  0.2734992699744865
  0.5940878063132899  0.4364850378143714  0.7399624184207596
  0.5171200999457000  0.0207459161724870  0.6085302483030475
  0.2492019432752457  0.8598399725875723  0.5045270395960131
  0.7789809108212822  0.7822075284885557  0.6606128917505316
  0.6142650458383798  0.6256706423960168  0.6077666357576987
  0.3132678375153688  0.0141289242475651  0.9911644179844501
  0.5105013998873034  0.1683046463347466  0.8499538020470112
  0.9987368419385376  0.5578845786887996  0.0287144695437576
  0.0420919307942498  0.2821459624434368  0.0102551606726919
 
  0.00000000E+00  0.00000000E+00  0.00000000E+00
  0.00000000E+00  0.00000000E+00  0.00000000E+00
  0.00000000E+00  0.00000000E+00  0.00000000E+00
  0.00000000E+00  0.00000000E+00  0.00000000E+00
  0.00000000E+00  0.00000000E+00  0.00000000E+00
  0.00000000E+00  0.00000000E+00  0.00000000E+00
  0.00000000E+00  0.00000000E+00  0.00000000E+00
  0.00000000E+00  0.00000000E+00  0.00000000E+00
  0.00000000E+00  0.00000000E+00  0.00000000E+00
  0.00000000E+00  0.00000000E+00  0.00000000E+00
  0.00000000E+00  0.00000000E+00  0.00000000E+00
  0.00000000E+00  0.00000000E+00  0.00000000E+00
  0.00000000E+00  0.00000000E+00  0.00000000E+00
  0.00000000E+00  0.00000000E+00  0.00000000E+00
  0.00000000E+00  0.00000000E+00  0.00000000E+00
  0.00000000E+00  0.00000000E+00  0.00000000E+00
  0.00000000E+00  0.00000000E+00  0.00000000E+00
  0.00000000E+00  0.00000000E+00  0.00000000E+00
  0.00000000E+00  0.00000000E+00  0.00000000E+00
  0.00000000E+00  0.00000000E+00  0.00000000E+00
  0.00000000E+00  0.00000000E+00  0.00000000E+00
  0.00000000E+00  0.00000000E+00  0.00000000E+00
  0.00000000E+00  0.00000000E+00  0.00000000E+00
  0.00000000E+00  0.00000000E+00  0.00000000E+00
  0.00000000E+00  0.00000000E+00  0.00000000E+00
  0.00000000E+00  0.00000000E+00  0.00000000E+00
  0.00000000E+00  0.00000000E+00  0.00000000E+00
  0.00000000E+00  0.00000000E+00  0.00000000E+00
  0.00000000E+00  0.00000000E+00  0.00000000E+00
  0.00000000E+00  0.00000000E+00  0.00000000E+00
  0.00000000E+00  0.00000000E+00  0.00000000E+00
  0.00000000E+00  0.00000000E+00  0.00000000E+00
  0.00000000E+00  0.00000000E+00  0.00000000E+00
  0.00000000E+00  0.00000000E+00  0.00000000E+00
  0.00000000E+00  0.00000000E+00  0.00000000E+00
  0.00000000E+00  0.00000000E+00  0.00000000E+00
  0.00000000E+00  0.00000000E+00  0.00000000E+00
  0.00000000E+00  0.00000000E+00  0.00000000E+00
  0.00000000E+00  0.00000000E+00  0.00000000E+00
  0.00000000E+00  0.00000000E+00  0.00000000E+00
  0.00000000E+00  0.00000000E+00  0.00000000E+00
  0.00000000E+00  0.00000000E+00  0.00000000E+00
  0.00000000E+00  0.00000000E+00  0.00000000E+00
  0.00000000E+00  0.00000000E+00  0.00000000E+00
  0.00000000E+00  0.00000000E+00  0.00000000E+00
  0.00000000E+00  0.00000000E+00  0.00000000E+00
  0.00000000E+00  0.00000000E+00  0.00000000E+00
  0.00000000E+00  0.00000000E+00  0.00000000E+00
  0.00000000E+00  0.00000000E+00  0.00000000E+00
  0.00000000E+00  0.00000000E+00  0.00000000E+00
  0.00000000E+00  0.00000000E+00  0.00000000E+00
  0.00000000E+00  0.00000000E+00  0.00000000E+00
  0.00000000E+00  0.00000000E+00  0.00000000E+00
  0.00000000E+00  0.00000000E+00  0.00000000E+00
  0.00000000E+00  0.00000000E+00  0.00000000E+00
  0.00000000E+00  0.00000000E+00  0.00000000E+00
  0.00000000E+00  0.00000000E+00  0.00000000E+00
  0.00000000E+00  0.00000000E+00  0.00000000E+00
  0.00000000E+00  0.00000000E+00  0.00000000E+00
  0.00000000E+00  0.00000000E+00  0.00000000E+00
  0.00000000E+00  0.00000000E+00  0.00000000E+00
  0.00000000E+00  0.00000000E+00  0.00000000E+00
  0.00000000E+00  0.00000000E+00  0.00000000E+00
  0.00000000E+00  0.00000000E+00  0.00000000E+00
  0.00000000E+00  0.00000000E+00  0.00000000E+00
  0.00000000E+00  0.00000000E+00  0.00000000E+00
  0.00000000E+00  0.00000000E+00  0.00000000E+00
  0.00000000E+00  0.00000000E+00  0.00000000E+00
  0.00000000E+00  0.00000000E+00  0.00000000E+00
  0.00000000E+00  0.00000000E+00  0.00000000E+00
  0.00000000E+00  0.00000000E+00  0.00000000E+00
  0.00000000E+00  0.00000000E+00  0.00000000E+00
  0.00000000E+00  0.00000000E+00  0.00000000E+00
  0.00000000E+00  0.00000000E+00  0.00000000E+00
  0.00000000E+00  0.00000000E+00  0.00000000E+00
  0.00000000E+00  0.00000000E+00  0.00000000E+00
  0.00000000E+00  0.00000000E+00  0.00000000E+00
  0.00000000E+00  0.00000000E+00  0.00000000E+00
  0.00000000E+00  0.00000000E+00  0.00000000E+00
  0.00000000E+00  0.00000000E+00  0.00000000E+00
  0.00000000E+00  0.00000000E+00  0.00000000E+00
  0.00000000E+00  0.00000000E+00  0.00000000E+00
  0.00000000E+00  0.00000000E+00  0.00000000E+00
  0.00000000E+00  0.00000000E+00  0.00000000E+00
  0.00000000E+00  0.00000000E+00  0.00000000E+00
  0.00000000E+00  0.00000000E+00  0.00000000E+00
  0.00000000E+00  0.00000000E+00  0.00000000E+00
  0.00000000E+00  0.00000000E+00  0.00000000E+00
  0.00000000E+00  0.00000000E+00  0.00000000E+00
  0.00000000E+00  0.00000000E+00  0.00000000E+00
  0.00000000E+00  0.00000000E+00  0.00000000E+00
  0.00000000E+00  0.00000000E+00  0.00000000E+00
  0.00000000E+00  0.00000000E+00  0.00000000E+00
  0.00000000E+00  0.00000000E+00  0.00000000E+00
  0.00000000E+00  0.00000000E+00  0.00000000E+00
  0.00000000E+00  0.00000000E+00  0.00000000E+00
