  Built with Packmol                    
   1.00000000000000     
    11.2078890423078441    0.0818139406057710    0.2786434416273833
     0.0817147928347721   11.2403989070566546    0.1462802397465011
     0.2769385726826438    0.1401245600305610   11.2445734746818662
   Fe   Ge
    48    48
Direct
  0.1315604533026686  0.6323317438307612  0.4009916172513144
  0.9017996102074406  0.1432989295596201  0.6193785954462783
  0.9203845072201204  0.9096236383781857  0.6634439506368821
  0.4240237904974151  0.3922153010538167  0.7410050089679459
  0.5203258147149086  0.0355214875421694  0.0934520095900169
  0.1536523444084068  0.0888124086933217  0.7297596593596296
  0.0382931170115626  0.2995063477686628  0.2322828333647777
  0.7297952876823004  0.5338153748594507  0.0579444718910693
  0.7504291075044662  0.7939018766353172  0.5481820923224276
  0.6830112888700697  0.9189711447237556  0.1904061669987271
  0.4931600057444427  0.0162691079711763  0.8700191102573953
  0.7318998195071060  0.0450301581649413  0.7798211366843546
  0.9865299190139325  0.7890053051676631  0.4933492789244269
  0.9810920070790345  0.2728362528375570  0.7783171726664833
  0.7384950137558803  0.7678172804489876  0.0094771704677399
  0.7070565528319150  0.2117634374872637  0.5251566966244425
  0.7329876676575182  0.5227613592666174  0.7167997401647384
  0.5313021038365449  0.5677474690524988  0.3818979211714790
  0.7407753023476218  0.5351046019459176  0.3054825668416754
  0.1866609177765142  0.8966840739100235  0.5808408600716533
  0.5819061869134572  0.1638983142446122  0.3168142989260190
  0.0233289405014148  0.7783648530481102  0.2767853587774525
  0.3372237439978605  0.7021206558315001  0.5047584978141444
  0.8590057723217441  0.3786182712117494  0.3957666802659361
  0.3893431445231101  0.9169928194822390  0.4729382852215664
  0.7220718295707513  0.1257853872884098  0.1416625023091242
  0.6299914463943068  0.1692485070717638  0.9306233337235383
  0.9996561590235871  0.3215064828403129  0.0044791746186874
  0.3217542202194608  0.5230149000920363  0.1360534235220570
  0.5833642125371341  0.9167552555381704  0.6656558497501663
  0.9668361870324347  0.5446473257722246  0.0092734931134615
  0.9089405763042606  0.9228335754462336  0.1211232613889806
  0.8429515632445757  0.4124253704170826  0.8812947567840013
  0.4398170802945245  0.2469817989156482  0.9240360384336057
  0.2971542886210798  0.0025214978158914  0.2338053016501220
  0.6076059809394749  0.3913896041254432  0.8640090270713756
  0.4503373240698707  0.5977386562020328  0.7676891289508632
  0.3827963555806022  0.0084520051363342  0.6805969518956516
  0.5511778745114597  0.1645851572102046  0.7285025596254897
  0.8267117486492452  0.6303174904922031  0.8708067967459385
  0.8477089751601099  0.1739561954466495  0.9421325696031460
  0.8683329306574734  0.6735762333297970  0.1712922888296688
  0.1688099361152524  0.7968944334379273  0.9613150248241524
  0.3462489043060017  0.9153161683488307  0.0480629649750881
  0.4419567626792826  0.3686748764423200  0.2912576211939992
  0.0525968390701266  0.6586428609981567  0.8118866570585794
  0.7525986194424590  0.2592919803481664  0.7664201757000910
  0.9782970608813173  0.2020772380221629  0.4260196967320269
  0.0951535359223286  0.8646489953553953  0.7714338455657455
  0.0256515954019960  0.0023268403036312  0.4900032559744858
  0.7554796227351659  0.0047135507294698  0.5577515910020026
  0.2585105177216818  0.0919498512878647  0.5354070200911636
  0.4998425943010716  0.9527149871450646  0.2941109027876792
  0.6072568626628794  0.3645327948476975  0.6389477176168867
  0.8961351844761083  0.6757446494511825  0.6680545679155045
  0.8832962259553483  0.4369532486696954  0.1798025434661170
  0.1554482637019063  0.4277615952022273  0.0651684720323189
  0.8627715139923495  0.3705303664375279  0.6123475713003614
  0.0512911098019302  0.4573973688475022  0.8179262929683517
  0.9502320592967592  0.0538723289496446  0.8090866531969212
  0.8272240605460013  0.8601863371435527  0.3365825302824348
  0.3909049122637072  0.4519963695036608  0.9474443467182283
  0.9576236216148857  0.7639512496720897  0.9823797659764253
  0.3655338041599663  0.1728964284180279  0.3483666203595703
  0.3141952755629376  0.1246661796139534  0.0496944371301140
  0.6138137537162009  0.6155805351927484  0.8961511003614788
  0.3320882368817948  0.2065098436168995  0.7473949292088449
  0.7268034585489929  0.3233636923793810  0.0435135974202225
  0.6480623700329033  0.7091863496223709  0.2245476105390836
  0.1470830878714366  0.6763934181413020  0.6100299369427233
  0.5495620770262661  0.7717524410827465  0.4760773356105830
  0.1329831980768219  0.1842609552891403  0.9154931795450523
  0.0699807638146481  0.4210526293525021  0.4231672965924460
  0.5284454798121700  0.0847560210178528  0.5223314030361337
  0.5100466218565316  0.2527202706321461  0.1250922112355610
  0.9524172923717202  0.1384321870607366  0.1224395186600518
  0.4124844103786103  0.5089731918549845  0.5648450604181505
  0.6947728725593691  0.5824909083114207  0.5144693761762298
  0.5376181326847984  0.5078325081501163  0.1555782121428280
  0.2568232067334080  0.6455019277655083  0.8420493583348758
  0.1304905692068985  0.9110882674542182  0.1390025472452194
  0.3961759771563607  0.7978128838174072  0.6825780025234423
  0.5396470514732243  0.8406128414746163  0.9925862953175084
  0.9121128492444441  0.6184592778738178  0.3861112862321363
  0.3322608294116236  0.5873750189554201  0.3291745263893375
  0.6284822655728490  0.3662172950659368  0.3892633175651099
  0.2366475924518383  0.3638379472770410  0.2679556418396061
  0.2751893774874716  0.9565305599712346  0.8581934555170463
  0.7411008418395255  0.8262557196214431  0.7844076462408225
  0.3372733859242061  0.7104128428718965  0.0604748941997357
  0.2130363560267554  0.8389672271929385  0.3723768220652914
  0.1305736788388501  0.1211105306085685  0.2861950286540917
  0.7413220819839452  0.9820633913580039  0.9838917033841810
  0.8009925885082083  0.1729579326712596  0.3270857554812920
  0.0985328564728860  0.2622392189641758  0.5974273597337501
  0.1151183584987905  0.6439294332670968  0.1390811006632049
 
  0.00000000E+00  0.00000000E+00  0.00000000E+00
  0.00000000E+00  0.00000000E+00  0.00000000E+00
  0.00000000E+00  0.00000000E+00  0.00000000E+00
  0.00000000E+00  0.00000000E+00  0.00000000E+00
  0.00000000E+00  0.00000000E+00  0.00000000E+00
  0.00000000E+00  0.00000000E+00  0.00000000E+00
  0.00000000E+00  0.00000000E+00  0.00000000E+00
  0.00000000E+00  0.00000000E+00  0.00000000E+00
  0.00000000E+00  0.00000000E+00  0.00000000E+00
  0.00000000E+00  0.00000000E+00  0.00000000E+00
  0.00000000E+00  0.00000000E+00  0.00000000E+00
  0.00000000E+00  0.00000000E+00  0.00000000E+00
  0.00000000E+00  0.00000000E+00  0.00000000E+00
  0.00000000E+00  0.00000000E+00  0.00000000E+00
  0.00000000E+00  0.00000000E+00  0.00000000E+00
  0.00000000E+00  0.00000000E+00  0.00000000E+00
  0.00000000E+00  0.00000000E+00  0.00000000E+00
  0.00000000E+00  0.00000000E+00  0.00000000E+00
  0.00000000E+00  0.00000000E+00  0.00000000E+00
  0.00000000E+00  0.00000000E+00  0.00000000E+00
  0.00000000E+00  0.00000000E+00  0.00000000E+00
  0.00000000E+00  0.00000000E+00  0.00000000E+00
  0.00000000E+00  0.00000000E+00  0.00000000E+00
  0.00000000E+00  0.00000000E+00  0.00000000E+00
  0.00000000E+00  0.00000000E+00  0.00000000E+00
  0.00000000E+00  0.00000000E+00  0.00000000E+00
  0.00000000E+00  0.00000000E+00  0.00000000E+00
  0.00000000E+00  0.00000000E+00  0.00000000E+00
  0.00000000E+00  0.00000000E+00  0.00000000E+00
  0.00000000E+00  0.00000000E+00  0.00000000E+00
  0.00000000E+00  0.00000000E+00  0.00000000E+00
  0.00000000E+00  0.00000000E+00  0.00000000E+00
  0.00000000E+00  0.00000000E+00  0.00000000E+00
  0.00000000E+00  0.00000000E+00  0.00000000E+00
  0.00000000E+00  0.00000000E+00  0.00000000E+00
  0.00000000E+00  0.00000000E+00  0.00000000E+00
  0.00000000E+00  0.00000000E+00  0.00000000E+00
  0.00000000E+00  0.00000000E+00  0.00000000E+00
  0.00000000E+00  0.00000000E+00  0.00000000E+00
  0.00000000E+00  0.00000000E+00  0.00000000E+00
  0.00000000E+00  0.00000000E+00  0.00000000E+00
  0.00000000E+00  0.00000000E+00  0.00000000E+00
  0.00000000E+00  0.00000000E+00  0.00000000E+00
  0.00000000E+00  0.00000000E+00  0.00000000E+00
  0.00000000E+00  0.00000000E+00  0.00000000E+00
  0.00000000E+00  0.00000000E+00  0.00000000E+00
  0.00000000E+00  0.00000000E+00  0.00000000E+00
  0.00000000E+00  0.00000000E+00  0.00000000E+00
  0.00000000E+00  0.00000000E+00  0.00000000E+00
  0.00000000E+00  0.00000000E+00  0.00000000E+00
  0.00000000E+00  0.00000000E+00  0.00000000E+00
  0.00000000E+00  0.00000000E+00  0.00000000E+00
  0.00000000E+00  0.00000000E+00  0.00000000E+00
  0.00000000E+00  0.00000000E+00  0.00000000E+00
  0.00000000E+00  0.00000000E+00  0.00000000E+00
  0.00000000E+00  0.00000000E+00  0.00000000E+00
  0.00000000E+00  0.00000000E+00  0.00000000E+00
  0.00000000E+00  0.00000000E+00  0.00000000E+00
  0.00000000E+00  0.00000000E+00  0.00000000E+00
  0.00000000E+00  0.00000000E+00  0.00000000E+00
  0.00000000E+00  0.00000000E+00  0.00000000E+00
  0.00000000E+00  0.00000000E+00  0.00000000E+00
  0.00000000E+00  0.00000000E+00  0.00000000E+00
  0.00000000E+00  0.00000000E+00  0.00000000E+00
  0.00000000E+00  0.00000000E+00  0.00000000E+00
  0.00000000E+00  0.00000000E+00  0.00000000E+00
  0.00000000E+00  0.00000000E+00  0.00000000E+00
  0.00000000E+00  0.00000000E+00  0.00000000E+00
  0.00000000E+00  0.00000000E+00  0.00000000E+00
  0.00000000E+00  0.00000000E+00  0.00000000E+00
  0.00000000E+00  0.00000000E+00  0.00000000E+00
  0.00000000E+00  0.00000000E+00  0.00000000E+00
  0.00000000E+00  0.00000000E+00  0.00000000E+00
  0.00000000E+00  0.00000000E+00  0.00000000E+00
  0.00000000E+00  0.00000000E+00  0.00000000E+00
  0.00000000E+00  0.00000000E+00  0.00000000E+00
  0.00000000E+00  0.00000000E+00  0.00000000E+00
  0.00000000E+00  0.00000000E+00  0.00000000E+00
  0.00000000E+00  0.00000000E+00  0.00000000E+00
  0.00000000E+00  0.00000000E+00  0.00000000E+00
  0.00000000E+00  0.00000000E+00  0.00000000E+00
  0.00000000E+00  0.00000000E+00  0.00000000E+00
  0.00000000E+00  0.00000000E+00  0.00000000E+00
  0.00000000E+00  0.00000000E+00  0.00000000E+00
  0.00000000E+00  0.00000000E+00  0.00000000E+00
  0.00000000E+00  0.00000000E+00  0.00000000E+00
  0.00000000E+00  0.00000000E+00  0.00000000E+00
  0.00000000E+00  0.00000000E+00  0.00000000E+00
  0.00000000E+00  0.00000000E+00  0.00000000E+00
  0.00000000E+00  0.00000000E+00  0.00000000E+00
  0.00000000E+00  0.00000000E+00  0.00000000E+00
  0.00000000E+00  0.00000000E+00  0.00000000E+00
  0.00000000E+00  0.00000000E+00  0.00000000E+00
  0.00000000E+00  0.00000000E+00  0.00000000E+00
  0.00000000E+00  0.00000000E+00  0.00000000E+00
  0.00000000E+00  0.00000000E+00  0.00000000E+00
