  Built with Packmol                    
   1.00000000000000     
    11.0697025091312575    0.2584235340685755    0.2604270979202427
     0.2481996734691030   11.2003999437055555    0.2160647410444048
     0.2609758829584316    0.2112824855204733   11.3781668883655609
   Fe   Ge
    48    48
Direct
  0.1458354206740040  0.6185648845792642  0.3882371932546036
  0.9046021018327508  0.1591306892146704  0.6081817436686379
  0.9074234450079217  0.9093474005581683  0.6630275162761379
  0.3891698769680900  0.4190684485158727  0.7458261700426334
  0.5124957351644284  0.0298104770045171  0.0807090230183078
  0.1475196378428763  0.0984886882484304  0.7311927693745233
  0.0366565270141095  0.2937028663457539  0.2469955889752029
  0.7291705785794349  0.5244888391338094  0.0742919536568749
  0.7558073093035063  0.8129824082363513  0.5402451723228126
  0.6903765268736848  0.8859278300634941  0.1704151054093899
  0.4904445507919846  0.0093858180929018  0.8603240780284267
  0.7185452065615934  0.0416930519869183  0.7753601879594001
  0.9916234701441766  0.7843773275146688  0.4883754525591115
  0.9684987358514974  0.2777268038346392  0.7840812845064917
  0.7466434539328120  0.7483279235742160  0.0114159643319169
  0.7007212076015108  0.2325316737809189  0.5528334522909404
  0.7231750708230891  0.5470255716957766  0.7131606451349199
  0.5299437187295268  0.5858074617973870  0.3958684729681679
  0.7476162910554152  0.5357296179224420  0.3241702681324767
  0.2062550924929383  0.8817553175390174  0.5647563706158962
  0.5990008800691626  0.1778380934021584  0.3460724244422053
  0.0305824728941246  0.7818902439623301  0.2765313193991901
  0.3492579823662822  0.7030626825645356  0.4891658659898042
  0.8604859909823119  0.3688236608769913  0.4189336160532662
  0.3883788711029510  0.9538621554907678  0.4520224407453242
  0.7178729633899295  0.1051480361583188  0.1712637199082039
  0.6338307457715473  0.1637425858686896  0.9482110677062252
  0.9695209750170335  0.3338902113092885  0.0124185269892294
  0.3113523507201990  0.5153513383663721  0.1406956071102030
  0.5771598277916112  0.9201427816779244  0.6555906607732993
  0.9585299820108872  0.5549178588986194  0.0188379092384423
  0.9099467222536788  0.9216488270491894  0.1250511454475429
  0.8129863847651109  0.4260581444051752  0.8752339135036777
  0.4340428674023684  0.2349748191222005  0.9368900861989147
  0.3152865976224817  0.9942211051295757  0.2305001426139626
  0.5953322927560265  0.3782027698709882  0.8853300123554604
  0.4867714339848206  0.5977169448109620  0.6518407967128041
  0.3699889653013742  0.0244669430740601  0.6668239198833277
  0.5331103735022751  0.1837029213697505  0.7428062855680366
  0.8486412564580874  0.6389324415765714  0.8571826684325146
  0.8578635916573774  0.1520609963496042  0.9609149498943523
  0.8676096661482546  0.6814936004424084  0.1749248404113644
  0.1841639461985167  0.7789135849212130  0.9335009346757701
  0.3359769330995874  0.9016586288986446  0.0338331952523419
  0.4383394846499584  0.3683483675701495  0.3156772328408053
  0.0712769471539261  0.6629951161695544  0.7990257001095884
  0.7497710802964832  0.2479252239975622  0.7724146870230655
  0.0327189044071687  0.1872923422264776  0.4401457205720760
  0.0974819016855406  0.8716715403103166  0.7497608029353131
  0.0146564040457875  0.9873213521205173  0.4837044768133865
  0.7492925639123342  0.0214615485551661  0.5524027229645228
  0.2208724914142266  0.0957384359114712  0.5210731023656265
  0.5352472884807753  0.9747018935384730  0.2868167209330537
  0.5923759013983769  0.3860034082232957  0.6652393480831904
  0.9017032274468093  0.6778826614879492  0.6551756677688232
  0.8889009774747478  0.4385799560406625  0.1979726859526778
  0.1467939654799153  0.4055644849544464  0.0793446158490383
  0.8532360992962325  0.3895051623641663  0.6315494104797210
  0.0313509985733376  0.4636838919438446  0.8328434875374171
  0.9387116567112130  0.0573913618629689  0.7978433672254397
  0.8282030825210143  0.8664704579412401  0.3326443670974797
  0.3828834442710445  0.4393923358142615  0.9585381343925761
  0.9666710108555989  0.7725439514610883  0.9742022109441564
  0.3780934710662649  0.1641836938519887  0.3457775625890918
  0.3006293846602830  0.1140434033239401  0.0482944627024864
  0.6246551164838294  0.5986721877510206  0.8993042220091709
  0.3149321169965020  0.2212327225197726  0.7547823596851231
  0.7397111361228141  0.3106655534824228  0.0544762104410808
  0.6405237439650904  0.6923486071530860  0.2286201742665099
  0.1525319754340728  0.6656126785802101  0.5934759541827148
  0.5489207453562415  0.7962973762889192  0.4703269764088276
  0.0975823345246312  0.1727459812663810  0.9271266825647118
  0.0639944735322047  0.4201663888086742  0.4352216208306174
  0.5217251827836549  0.1125202897055075  0.5429921049544859
  0.5205142086014902  0.2396642889722287  0.1431602177211033
  0.9502374114156780  0.1345260089403482  0.1428913178855353
  0.3832867750562414  0.4561351983931630  0.5184792654558095
  0.6973256879301601  0.6067925630973150  0.5171673914995267
  0.5354936644950143  0.4883942512911545  0.1687755322187741
  0.2867159330389057  0.6119766549952530  0.8036447876496382
  0.1386733613413682  0.8942302218668559  0.1304417701692770
  0.3908412810254660  0.8072531239154088  0.6681558415473106
  0.5384752963910415  0.8292850271102168  0.0082889437195703
  0.9232281828017506  0.6208852154941695  0.3853717002415777
  0.3483567609796054  0.6199336042226946  0.3018069364418992
  0.6285100435596931  0.3781421807715688  0.4081323278692608
  0.2312071651171621  0.3766653081020692  0.2868670078029325
  0.2725097212828231  0.9627542652400294  0.8489219028757020
  0.7296458194515552  0.8202625174064622  0.7795895091130163
  0.3489637118998488  0.6881772276739113  0.0323514900093400
  0.2183506107887467  0.8400885541367842  0.3591149663400302
  0.1511198838906225  0.1197243396659999  0.2732234127141737
  0.7450950242014045  0.9734959368200862  0.9826133376572486
  0.8283839638601336  0.1748610565399744  0.3541678008231699
  0.1053462590617116  0.2892441709083329  0.6202933174151184
  0.1139657694109530  0.6411170573219351  0.1422873913435652
 
  0.00000000E+00  0.00000000E+00  0.00000000E+00
  0.00000000E+00  0.00000000E+00  0.00000000E+00
  0.00000000E+00  0.00000000E+00  0.00000000E+00
  0.00000000E+00  0.00000000E+00  0.00000000E+00
  0.00000000E+00  0.00000000E+00  0.00000000E+00
  0.00000000E+00  0.00000000E+00  0.00000000E+00
  0.00000000E+00  0.00000000E+00  0.00000000E+00
  0.00000000E+00  0.00000000E+00  0.00000000E+00
  0.00000000E+00  0.00000000E+00  0.00000000E+00
  0.00000000E+00  0.00000000E+00  0.00000000E+00
  0.00000000E+00  0.00000000E+00  0.00000000E+00
  0.00000000E+00  0.00000000E+00  0.00000000E+00
  0.00000000E+00  0.00000000E+00  0.00000000E+00
  0.00000000E+00  0.00000000E+00  0.00000000E+00
  0.00000000E+00  0.00000000E+00  0.00000000E+00
  0.00000000E+00  0.00000000E+00  0.00000000E+00
  0.00000000E+00  0.00000000E+00  0.00000000E+00
  0.00000000E+00  0.00000000E+00  0.00000000E+00
  0.00000000E+00  0.00000000E+00  0.00000000E+00
  0.00000000E+00  0.00000000E+00  0.00000000E+00
  0.00000000E+00  0.00000000E+00  0.00000000E+00
  0.00000000E+00  0.00000000E+00  0.00000000E+00
  0.00000000E+00  0.00000000E+00  0.00000000E+00
  0.00000000E+00  0.00000000E+00  0.00000000E+00
  0.00000000E+00  0.00000000E+00  0.00000000E+00
  0.00000000E+00  0.00000000E+00  0.00000000E+00
  0.00000000E+00  0.00000000E+00  0.00000000E+00
  0.00000000E+00  0.00000000E+00  0.00000000E+00
  0.00000000E+00  0.00000000E+00  0.00000000E+00
  0.00000000E+00  0.00000000E+00  0.00000000E+00
  0.00000000E+00  0.00000000E+00  0.00000000E+00
  0.00000000E+00  0.00000000E+00  0.00000000E+00
  0.00000000E+00  0.00000000E+00  0.00000000E+00
  0.00000000E+00  0.00000000E+00  0.00000000E+00
  0.00000000E+00  0.00000000E+00  0.00000000E+00
  0.00000000E+00  0.00000000E+00  0.00000000E+00
  0.00000000E+00  0.00000000E+00  0.00000000E+00
  0.00000000E+00  0.00000000E+00  0.00000000E+00
  0.00000000E+00  0.00000000E+00  0.00000000E+00
  0.00000000E+00  0.00000000E+00  0.00000000E+00
  0.00000000E+00  0.00000000E+00  0.00000000E+00
  0.00000000E+00  0.00000000E+00  0.00000000E+00
  0.00000000E+00  0.00000000E+00  0.00000000E+00
  0.00000000E+00  0.00000000E+00  0.00000000E+00
  0.00000000E+00  0.00000000E+00  0.00000000E+00
  0.00000000E+00  0.00000000E+00  0.00000000E+00
  0.00000000E+00  0.00000000E+00  0.00000000E+00
  0.00000000E+00  0.00000000E+00  0.00000000E+00
  0.00000000E+00  0.00000000E+00  0.00000000E+00
  0.00000000E+00  0.00000000E+00  0.00000000E+00
  0.00000000E+00  0.00000000E+00  0.00000000E+00
  0.00000000E+00  0.00000000E+00  0.00000000E+00
  0.00000000E+00  0.00000000E+00  0.00000000E+00
  0.00000000E+00  0.00000000E+00  0.00000000E+00
  0.00000000E+00  0.00000000E+00  0.00000000E+00
  0.00000000E+00  0.00000000E+00  0.00000000E+00
  0.00000000E+00  0.00000000E+00  0.00000000E+00
  0.00000000E+00  0.00000000E+00  0.00000000E+00
  0.00000000E+00  0.00000000E+00  0.00000000E+00
  0.00000000E+00  0.00000000E+00  0.00000000E+00
  0.00000000E+00  0.00000000E+00  0.00000000E+00
  0.00000000E+00  0.00000000E+00  0.00000000E+00
  0.00000000E+00  0.00000000E+00  0.00000000E+00
  0.00000000E+00  0.00000000E+00  0.00000000E+00
  0.00000000E+00  0.00000000E+00  0.00000000E+00
  0.00000000E+00  0.00000000E+00  0.00000000E+00
  0.00000000E+00  0.00000000E+00  0.00000000E+00
  0.00000000E+00  0.00000000E+00  0.00000000E+00
  0.00000000E+00  0.00000000E+00  0.00000000E+00
  0.00000000E+00  0.00000000E+00  0.00000000E+00
  0.00000000E+00  0.00000000E+00  0.00000000E+00
  0.00000000E+00  0.00000000E+00  0.00000000E+00
  0.00000000E+00  0.00000000E+00  0.00000000E+00
  0.00000000E+00  0.00000000E+00  0.00000000E+00
  0.00000000E+00  0.00000000E+00  0.00000000E+00
  0.00000000E+00  0.00000000E+00  0.00000000E+00
  0.00000000E+00  0.00000000E+00  0.00000000E+00
  0.00000000E+00  0.00000000E+00  0.00000000E+00
  0.00000000E+00  0.00000000E+00  0.00000000E+00
  0.00000000E+00  0.00000000E+00  0.00000000E+00
  0.00000000E+00  0.00000000E+00  0.00000000E+00
  0.00000000E+00  0.00000000E+00  0.00000000E+00
  0.00000000E+00  0.00000000E+00  0.00000000E+00
  0.00000000E+00  0.00000000E+00  0.00000000E+00
  0.00000000E+00  0.00000000E+00  0.00000000E+00
  0.00000000E+00  0.00000000E+00  0.00000000E+00
  0.00000000E+00  0.00000000E+00  0.00000000E+00
  0.00000000E+00  0.00000000E+00  0.00000000E+00
  0.00000000E+00  0.00000000E+00  0.00000000E+00
  0.00000000E+00  0.00000000E+00  0.00000000E+00
  0.00000000E+00  0.00000000E+00  0.00000000E+00
  0.00000000E+00  0.00000000E+00  0.00000000E+00
  0.00000000E+00  0.00000000E+00  0.00000000E+00
  0.00000000E+00  0.00000000E+00  0.00000000E+00
  0.00000000E+00  0.00000000E+00  0.00000000E+00
  0.00000000E+00  0.00000000E+00  0.00000000E+00
