  Built with Packmol                    
   1.00000000000000     
    10.9183370732421832   -0.1053634309052921   -0.4499677733012518
    -0.0893298362155592   11.6083631075681559    0.0950356884445698
    -0.4487135512152180    0.0905088829368164   11.1308897085431191
   Fe   Ge
    48    48
Direct
  0.1658256123105346  0.1077782512613581  0.4904984486078305
  0.9295323919763021  0.8990104709701328  0.9496751320878190
  0.9955329954693042  0.1440918900983945  0.6221703311733364
  0.3482030100686586  0.4944507486707863  0.8842997112583220
  0.5024358049713840  0.4305108074584609  0.5642060207158011
  0.2549517304005846  0.2569533149759451  0.3639415831643689
  0.5982384739605919  0.2631083965210408  0.6584837110327229
  0.2163452885486947  0.6400390608592375  0.5386391062104110
  0.4621827203997313  0.7280575480535347  0.2735204302754255
  0.1634423972197609  0.6334748571971076  0.9331897812167256
  0.3378611215005733  0.3275618389570880  0.1717936239645255
  0.5541898053734329  0.3057427545216527  0.1707485837120899
  0.6900051037926502  0.8277595168150427  0.2605689866948993
  0.0734460233405372  0.2873764608126805  0.2282316233414150
  0.3085293366874424  0.6001281774940139  0.1151939306249332
  0.8609703269091682  0.4766796136171436  0.4768237773785131
  0.6757886503481387  0.1743066478739621  0.3040016479434371
  0.4462662281981409  0.1378118244706670  0.2731942342437321
  0.0945936065316673  0.4701361081879796  0.4002906310056673
  0.3826950221744738  0.3174573037859290  0.7372778587186559
  0.3224668899198946  0.7967320253790646  0.0765815513676316
  0.8426892252087299  0.9886449556875121  0.1970564996960249
  0.9292079005310185  0.8407238443631684  0.3515071581324847
  0.7344441001304105  0.2848773090295325  0.8462700868912307
  0.4657315001777391  0.5065554836980724  0.2873034064799640
  0.4891454804987774  0.3135704720439705  0.3740409102335960
  0.3190720529011628  0.0132712421641372  0.4074091724297162
  0.5189599989116189  0.9984047648857270  0.9413842240409522
  0.4242221845476237  0.1595674985963953  0.0555764682039097
  0.2764011696428668  0.6246216724907612  0.3310659475780255
  0.2080648398731029  0.8007327975596752  0.2553790022372269
  0.6390023573219068  0.5548132481167798  0.4470767168774117
  0.7169772984073646  0.9032668121843699  0.0124733231930279
  0.7104803484701279  0.4080450781002654  0.2655295895585397
  0.5194425792223711  0.3367859549753476  0.9464867646512047
  0.6502378378911544  0.1792475078872329  0.0258551671273963
  0.1189552776226606  0.9964245188339333  0.7276257741285690
  0.4457419525255872  0.6288048723246007  0.5020533821188309
  0.6805611179386020  0.9432994969643929  0.6035603519080226
  0.9600236801353574  0.0911583066776558  0.3732762949553674
  0.5618375056177101  0.9595197268106261  0.3596971074617628
  0.7098707326065608  0.0783375146322385  0.8150243800865553
  0.1961761177114099  0.8390828412775591  0.8781962624598023
  0.1646905382409827  0.4327443834115314  0.0103534172535049
  0.5831236207194621  0.1311987009884064  0.4840841272423901
  0.9909294030636318  0.7314695926374242  0.5641518200553648
  0.8085039528704456  0.5668072127914243  0.0983031181502199
  0.0193107850736709  0.1031753644908946  0.1188685986585938
  0.9412165635312917  0.2624638089144042  0.7792467743677349
  0.0316558612133875  0.9397354759659606  0.5278831083129987
  0.2962381489502377  0.2923790695096002  0.9382971586419728
  0.7617118316769691  0.7092466383623304  0.9396810318395907
  0.9889441569477171  0.7327614018690909  0.8155583442266661
  0.6470845475761990  0.6128841529178146  0.2197138995818690
  0.5911932505293009  0.7815507420645744  0.4662960793004913
  0.3861534676661194  0.2083319168832531  0.5447066466647357
  0.0668360608649081  0.6794316230516557  0.3679900294652754
  0.5402631217600771  0.7949951678029166  0.0647757821931876
  0.3108753993405884  0.4466245016650490  0.4497016105636789
  0.3714718700495325  0.6979167854433541  0.8940431865028842
  0.0435976811905334  0.5280020831406418  0.5952405039199604
  0.6147044518508835  0.8849350086348835  0.7973694326107861
  0.4734039856251684  0.4825907452399534  0.0724351358908351
  0.3481472837198041  0.5392428735588410  0.6785238229406119
  0.7766274745443340  0.9890255509667583  0.4183265418561675
  0.2059790926950669  0.1878558672230923  0.7063976786222312
  0.0960986365002015  0.7873954334195190  0.0621850875910397
  0.7832919722667313  0.4262292639319156  0.6724111035538058
  0.6058533858234227  0.0224123502863236  0.1588839339187942
  0.8400573537727709  0.0883034132780907  0.9906643240449498
  0.1361218139271827  0.4703250622999491  0.8008260658755546
  0.1792304942315610  0.7771697891834606  0.6803384389703098
  0.8170266617121271  0.6770163405797049  0.4207798249213468
  0.8616887673347549  0.2278352836788287  0.2216868656782367
  0.8877111037353984  0.9793911980097150  0.7420664793213945
  0.1852192291131658  0.4645975267913585  0.2174335733018680
  0.7229596604420223  0.3888635025145035  0.0386921502888953
  0.2314318285669899  0.1435951639278272  0.1801480568104949
  0.0965586786278365  0.9720490422330315  0.2798424616258615
  0.7750990602440169  0.1424051469057801  0.6149553053001000
  0.0333489634240678  0.2803664847239133  0.4562643076940844
  0.8708616210597171  0.7730125535778143  0.1467415548140707
  0.0977205156706447  0.0362670347166372  0.9342911206906237
  0.3476731109400362  0.9696185404507389  0.7654133606079085
  0.6934920748278088  0.3342934553380701  0.4673448849745014
  0.9210926427188042  0.4732387591306306  0.2623793962428707
  0.3813021217759527  0.9282301471026244  0.2321929102386378
  0.5737868140323386  0.4447831706044596  0.7841032515314694
  0.4662262801842516  0.9733852976054820  0.5758487367796619
  0.3198698581565651  0.8042457616817913  0.4605642699403276
  0.7995861299478335  0.7763347862240053  0.6343591078024531
  0.6113367618096035  0.6326729734440519  0.6735271005309542
  0.3176698547151702  0.9867164603605119  0.9989121528127569
  0.5106775646701180  0.1665874817443225  0.8269989929017854
  0.9910152234749958  0.5464786182194388  0.0203202456775884
  0.0367605741664434  0.2728248742626320  0.9984014240298009
 
  0.00000000E+00  0.00000000E+00  0.00000000E+00
  0.00000000E+00  0.00000000E+00  0.00000000E+00
  0.00000000E+00  0.00000000E+00  0.00000000E+00
  0.00000000E+00  0.00000000E+00  0.00000000E+00
  0.00000000E+00  0.00000000E+00  0.00000000E+00
  0.00000000E+00  0.00000000E+00  0.00000000E+00
  0.00000000E+00  0.00000000E+00  0.00000000E+00
  0.00000000E+00  0.00000000E+00  0.00000000E+00
  0.00000000E+00  0.00000000E+00  0.00000000E+00
  0.00000000E+00  0.00000000E+00  0.00000000E+00
  0.00000000E+00  0.00000000E+00  0.00000000E+00
  0.00000000E+00  0.00000000E+00  0.00000000E+00
  0.00000000E+00  0.00000000E+00  0.00000000E+00
  0.00000000E+00  0.00000000E+00  0.00000000E+00
  0.00000000E+00  0.00000000E+00  0.00000000E+00
  0.00000000E+00  0.00000000E+00  0.00000000E+00
  0.00000000E+00  0.00000000E+00  0.00000000E+00
  0.00000000E+00  0.00000000E+00  0.00000000E+00
  0.00000000E+00  0.00000000E+00  0.00000000E+00
  0.00000000E+00  0.00000000E+00  0.00000000E+00
  0.00000000E+00  0.00000000E+00  0.00000000E+00
  0.00000000E+00  0.00000000E+00  0.00000000E+00
  0.00000000E+00  0.00000000E+00  0.00000000E+00
  0.00000000E+00  0.00000000E+00  0.00000000E+00
  0.00000000E+00  0.00000000E+00  0.00000000E+00
  0.00000000E+00  0.00000000E+00  0.00000000E+00
  0.00000000E+00  0.00000000E+00  0.00000000E+00
  0.00000000E+00  0.00000000E+00  0.00000000E+00
  0.00000000E+00  0.00000000E+00  0.00000000E+00
  0.00000000E+00  0.00000000E+00  0.00000000E+00
  0.00000000E+00  0.00000000E+00  0.00000000E+00
  0.00000000E+00  0.00000000E+00  0.00000000E+00
  0.00000000E+00  0.00000000E+00  0.00000000E+00
  0.00000000E+00  0.00000000E+00  0.00000000E+00
  0.00000000E+00  0.00000000E+00  0.00000000E+00
  0.00000000E+00  0.00000000E+00  0.00000000E+00
  0.00000000E+00  0.00000000E+00  0.00000000E+00
  0.00000000E+00  0.00000000E+00  0.00000000E+00
  0.00000000E+00  0.00000000E+00  0.00000000E+00
  0.00000000E+00  0.00000000E+00  0.00000000E+00
  0.00000000E+00  0.00000000E+00  0.00000000E+00
  0.00000000E+00  0.00000000E+00  0.00000000E+00
  0.00000000E+00  0.00000000E+00  0.00000000E+00
  0.00000000E+00  0.00000000E+00  0.00000000E+00
  0.00000000E+00  0.00000000E+00  0.00000000E+00
  0.00000000E+00  0.00000000E+00  0.00000000E+00
  0.00000000E+00  0.00000000E+00  0.00000000E+00
  0.00000000E+00  0.00000000E+00  0.00000000E+00
  0.00000000E+00  0.00000000E+00  0.00000000E+00
  0.00000000E+00  0.00000000E+00  0.00000000E+00
  0.00000000E+00  0.00000000E+00  0.00000000E+00
  0.00000000E+00  0.00000000E+00  0.00000000E+00
  0.00000000E+00  0.00000000E+00  0.00000000E+00
  0.00000000E+00  0.00000000E+00  0.00000000E+00
  0.00000000E+00  0.00000000E+00  0.00000000E+00
  0.00000000E+00  0.00000000E+00  0.00000000E+00
  0.00000000E+00  0.00000000E+00  0.00000000E+00
  0.00000000E+00  0.00000000E+00  0.00000000E+00
  0.00000000E+00  0.00000000E+00  0.00000000E+00
  0.00000000E+00  0.00000000E+00  0.00000000E+00
  0.00000000E+00  0.00000000E+00  0.00000000E+00
  0.00000000E+00  0.00000000E+00  0.00000000E+00
  0.00000000E+00  0.00000000E+00  0.00000000E+00
  0.00000000E+00  0.00000000E+00  0.00000000E+00
  0.00000000E+00  0.00000000E+00  0.00000000E+00
  0.00000000E+00  0.00000000E+00  0.00000000E+00
  0.00000000E+00  0.00000000E+00  0.00000000E+00
  0.00000000E+00  0.00000000E+00  0.00000000E+00
  0.00000000E+00  0.00000000E+00  0.00000000E+00
  0.00000000E+00  0.00000000E+00  0.00000000E+00
  0.00000000E+00  0.00000000E+00  0.00000000E+00
  0.00000000E+00  0.00000000E+00  0.00000000E+00
  0.00000000E+00  0.00000000E+00  0.00000000E+00
  0.00000000E+00  0.00000000E+00  0.00000000E+00
  0.00000000E+00  0.00000000E+00  0.00000000E+00
  0.00000000E+00  0.00000000E+00  0.00000000E+00
  0.00000000E+00  0.00000000E+00  0.00000000E+00
  0.00000000E+00  0.00000000E+00  0.00000000E+00
  0.00000000E+00  0.00000000E+00  0.00000000E+00
  0.00000000E+00  0.00000000E+00  0.00000000E+00
  0.00000000E+00  0.00000000E+00  0.00000000E+00
  0.00000000E+00  0.00000000E+00  0.00000000E+00
  0.00000000E+00  0.00000000E+00  0.00000000E+00
  0.00000000E+00  0.00000000E+00  0.00000000E+00
  0.00000000E+00  0.00000000E+00  0.00000000E+00
  0.00000000E+00  0.00000000E+00  0.00000000E+00
  0.00000000E+00  0.00000000E+00  0.00000000E+00
  0.00000000E+00  0.00000000E+00  0.00000000E+00
  0.00000000E+00  0.00000000E+00  0.00000000E+00
  0.00000000E+00  0.00000000E+00  0.00000000E+00
  0.00000000E+00  0.00000000E+00  0.00000000E+00
  0.00000000E+00  0.00000000E+00  0.00000000E+00
  0.00000000E+00  0.00000000E+00  0.00000000E+00
  0.00000000E+00  0.00000000E+00  0.00000000E+00
  0.00000000E+00  0.00000000E+00  0.00000000E+00
  0.00000000E+00  0.00000000E+00  0.00000000E+00
