  Built with Packmol                    
    1.000000000000000     
    10.8849188792820915   -0.2940418062194279    0.0419105815647754
    -0.3075614845658725   10.9811887140413837    0.1868448392599837
     0.0262243025153608    0.1702738310548801   11.7290046401297232
   Fe   Ge
    48    48
Direct
  0.6449240979593469  0.4133359742202245  0.5153914282556258
  0.3434076232313288  0.7103981833310868  0.1368504063924760
  0.7383284591336690  0.7550116679791259  0.2256610353557065
  0.5749657786321478  0.7837577284601167  0.4115538400388346
  0.6225793302851201  0.5003331235815125  0.1769726023631080
  0.6192481736129238  0.6236070412104411  0.6460474997432328
  0.0165206537108347  0.6052213144297269  0.5790330621583095
  0.0658541931722141  0.0057206541428130  0.6968589212788956
  0.7027552085935298  0.1411962121070331  0.2816000837887813
  0.9352686669365085  0.4533405880331571  0.7706787047348413
  0.7990406674541006  0.3599065288251921  0.1376572284387976
  0.7277720979047757  0.6052783002385524  0.0139412488479849
  0.6017248438041065  0.2385987561038192  0.6577895500284399
  0.8603236154875162  0.9581414245990842  0.5596052388993726
  0.6913942620050335  0.5779187097893228  0.3707471853231965
  0.2257652497720102  0.7660019363846402  0.6595549808806140
  0.0023060937456236  0.7583502542908462  0.1992537812181752
  0.1691769576606319  0.8513362236247559  0.0329252116018210
  0.0745143784737365  0.9956974469333133  0.2044430754901896
  0.3033017873989934  0.5106728771032820  0.3947723811666322
  0.1434178084627931  0.6917174129141728  0.4291112056948947
  0.5419619776121820  0.5602201041215977  0.8459307800600229
  0.8412847421237544  0.7343516052333854  0.6695049579919967
  0.4435063267947825  0.8967849590396710  0.7385327537278314
  0.0207770751139265  0.8841689380456828  0.3768888194678084
  0.2372228443567863  0.8898137617183082  0.4547077722842872
  0.1666164604074822  0.3953944627061645  0.2675222554932049
  0.6347351153643643  0.7713381832141764  0.8283090324041638
  0.6625717364520654  0.9877407003429752  0.4376666683474966
  0.7731653242130250  0.1957560930982964  0.5020452525733390
  0.4227189942247946  0.9204242913746086  0.3020386827481190
  0.3559358788845017  0.0366376428457258  0.9207868238492409
  0.2088420841581993  0.4476050977333657  0.0509807436815279
  0.0108691695342955  0.2787154524330759  0.4402380224483906
  0.0071450818114300  0.8479459419724833  0.8363438037421531
  0.7645135468964099  0.0252244620953093  0.9314158924609330
  0.2737331622748442  0.9946325195131323  0.6303135445517398
  0.6332831780691208  0.8407540480465272  0.6190683337893361
  0.1041985266071848  0.0651758868579506  0.4647704193621820
  0.6080914712436467  0.3840114753600972  0.9862793994459764
  0.3528385904417490  0.7257971415615785  0.3613204665313248
  0.8961802321190930  0.0816076214923385  0.3817276230817299
  0.9205050349857302  0.6620448491129309  0.3708358566055949
  0.3722056760692070  0.4964260651561929  0.1888223463765399
  0.9578776656261283  0.9322534143069063  0.0337143660180317
  0.3970859932230724  0.7857937806664665  0.9235550630959324
  0.2089062440883893  0.8341825260387665  0.2535257847270032
  0.2462644251045063  0.2528709286102924  0.9479613383891490
  0.4358582356422076  0.1196884683363280  0.7255610155691841
  0.1634884653790891  0.6105039517553905  0.2252146466259504
  0.7823440864739908  0.1437498944522702  0.0904334197853629
  0.4607212739648077  0.2117537319688196  0.9817786606368202
  0.8058446113696220  0.9149505988533164  0.7644798302652518
  0.5564547269164137  0.9631731351485016  0.9070086987774957
  0.6739714930656220  0.2088135504884860  0.8521363058072922
  0.5067534593677863  0.6252950534244874  0.0290200095701323
  0.7832823557799529  0.7961383932131270  0.4488019989383929
  0.0864006614321440  0.3818834021574489  0.8892923962096688
  0.4213976272463640  0.6814074346477526  0.7301395603615575
  0.7378784282963622  0.8276773407187719  0.0242665514363836
  0.7641638164568576  0.5878258278021491  0.8125723412866890
  0.8111312501525916  0.5580940114551112  0.5488758799246227
  0.0713365249837139  0.3901222840307952  0.6281829314481513
  0.2715216311837807  0.0633311540304859  0.2701571036886605
  0.8254512753693390  0.4010864801641247  0.9404711477485819
  0.8428812021219159  0.5683108040208893  0.2003939922130300
  0.6237297425366748  0.9401913541365161  0.2314898273782404
  0.2284713442533928  0.3093328289034076  0.4513503131743448
  0.5298039552049829  0.6838661714442082  0.2424361504630852
  0.0347438612101811  0.6462781025628175  0.7768350174491232
  0.5031681717220877  0.4197114589830591  0.3470504178682035
  0.8213233323615086  0.3260867969649439  0.3431436389225269
  0.9659632370325255  0.0764857509093204  0.8665688036764863
  0.0360765281017663  0.8282736224369600  0.5747934085204918
  0.2157009321244203  0.6470228962288047  0.9686183998128541
  0.3842199502010857  0.4291408096852365  0.9228913640662313
  0.9500755274805499  0.7081882580258778  0.0037950294086144
  0.2404460734089113  0.5654110849381269  0.5828690934984309
  0.6641962490940685  0.0491805562573902  0.6352843194188509
  0.8640089366993848  0.9388120513955656  0.2285459503743965
  0.4361986397036475  0.8776876766421680  0.5312991932263955
  0.3028580192061412  0.2771489285705258  0.1581980648387571
  0.2056331915916019  0.1640154010007535  0.7705757651260470
  0.5636422507915100  0.2050297346969217  0.4440533696887670
  0.4851561961331043  0.5901482509762062  0.4940598395659777
  0.0336285376954066  0.4878407515868801  0.4069377468334352
  0.2245674592315297  0.8969229544459196  0.8247216257815992
  0.0619519269868860  0.1957652489473034  0.2668032540955139
  0.3454577283335283  0.1166809320690447  0.4693193369211741
  0.5428485024195737  0.4181301307464764  0.7102303018487675
  0.1497606410465693  0.0737694947944831  0.0258009221284610
  0.3807590393704103  0.9259952207240545  0.0986749083363492
  0.9571873183881507  0.1531004860222609  0.5991085007500487
  0.5773145378055489  0.2790853315098758  0.1747270647637578
  0.0090438931833177  0.3925059295152025  0.1284263448529757
  0.8001352837386264  0.3336816417668800  0.6606276694396911
 
  0.00000000E+00  0.00000000E+00  0.00000000E+00
  0.00000000E+00  0.00000000E+00  0.00000000E+00
  0.00000000E+00  0.00000000E+00  0.00000000E+00
  0.00000000E+00  0.00000000E+00  0.00000000E+00
  0.00000000E+00  0.00000000E+00  0.00000000E+00
  0.00000000E+00  0.00000000E+00  0.00000000E+00
  0.00000000E+00  0.00000000E+00  0.00000000E+00
  0.00000000E+00  0.00000000E+00  0.00000000E+00
  0.00000000E+00  0.00000000E+00  0.00000000E+00
  0.00000000E+00  0.00000000E+00  0.00000000E+00
  0.00000000E+00  0.00000000E+00  0.00000000E+00
  0.00000000E+00  0.00000000E+00  0.00000000E+00
  0.00000000E+00  0.00000000E+00  0.00000000E+00
  0.00000000E+00  0.00000000E+00  0.00000000E+00
  0.00000000E+00  0.00000000E+00  0.00000000E+00
  0.00000000E+00  0.00000000E+00  0.00000000E+00
  0.00000000E+00  0.00000000E+00  0.00000000E+00
  0.00000000E+00  0.00000000E+00  0.00000000E+00
  0.00000000E+00  0.00000000E+00  0.00000000E+00
  0.00000000E+00  0.00000000E+00  0.00000000E+00
  0.00000000E+00  0.00000000E+00  0.00000000E+00
  0.00000000E+00  0.00000000E+00  0.00000000E+00
  0.00000000E+00  0.00000000E+00  0.00000000E+00
  0.00000000E+00  0.00000000E+00  0.00000000E+00
  0.00000000E+00  0.00000000E+00  0.00000000E+00
  0.00000000E+00  0.00000000E+00  0.00000000E+00
  0.00000000E+00  0.00000000E+00  0.00000000E+00
  0.00000000E+00  0.00000000E+00  0.00000000E+00
  0.00000000E+00  0.00000000E+00  0.00000000E+00
  0.00000000E+00  0.00000000E+00  0.00000000E+00
  0.00000000E+00  0.00000000E+00  0.00000000E+00
  0.00000000E+00  0.00000000E+00  0.00000000E+00
  0.00000000E+00  0.00000000E+00  0.00000000E+00
  0.00000000E+00  0.00000000E+00  0.00000000E+00
  0.00000000E+00  0.00000000E+00  0.00000000E+00
  0.00000000E+00  0.00000000E+00  0.00000000E+00
  0.00000000E+00  0.00000000E+00  0.00000000E+00
  0.00000000E+00  0.00000000E+00  0.00000000E+00
  0.00000000E+00  0.00000000E+00  0.00000000E+00
  0.00000000E+00  0.00000000E+00  0.00000000E+00
  0.00000000E+00  0.00000000E+00  0.00000000E+00
  0.00000000E+00  0.00000000E+00  0.00000000E+00
  0.00000000E+00  0.00000000E+00  0.00000000E+00
  0.00000000E+00  0.00000000E+00  0.00000000E+00
  0.00000000E+00  0.00000000E+00  0.00000000E+00
  0.00000000E+00  0.00000000E+00  0.00000000E+00
  0.00000000E+00  0.00000000E+00  0.00000000E+00
  0.00000000E+00  0.00000000E+00  0.00000000E+00
  0.00000000E+00  0.00000000E+00  0.00000000E+00
  0.00000000E+00  0.00000000E+00  0.00000000E+00
  0.00000000E+00  0.00000000E+00  0.00000000E+00
  0.00000000E+00  0.00000000E+00  0.00000000E+00
  0.00000000E+00  0.00000000E+00  0.00000000E+00
  0.00000000E+00  0.00000000E+00  0.00000000E+00
  0.00000000E+00  0.00000000E+00  0.00000000E+00
  0.00000000E+00  0.00000000E+00  0.00000000E+00
  0.00000000E+00  0.00000000E+00  0.00000000E+00
  0.00000000E+00  0.00000000E+00  0.00000000E+00
  0.00000000E+00  0.00000000E+00  0.00000000E+00
  0.00000000E+00  0.00000000E+00  0.00000000E+00
  0.00000000E+00  0.00000000E+00  0.00000000E+00
  0.00000000E+00  0.00000000E+00  0.00000000E+00
  0.00000000E+00  0.00000000E+00  0.00000000E+00
  0.00000000E+00  0.00000000E+00  0.00000000E+00
  0.00000000E+00  0.00000000E+00  0.00000000E+00
  0.00000000E+00  0.00000000E+00  0.00000000E+00
  0.00000000E+00  0.00000000E+00  0.00000000E+00
  0.00000000E+00  0.00000000E+00  0.00000000E+00
  0.00000000E+00  0.00000000E+00  0.00000000E+00
  0.00000000E+00  0.00000000E+00  0.00000000E+00
  0.00000000E+00  0.00000000E+00  0.00000000E+00
  0.00000000E+00  0.00000000E+00  0.00000000E+00
  0.00000000E+00  0.00000000E+00  0.00000000E+00
  0.00000000E+00  0.00000000E+00  0.00000000E+00
  0.00000000E+00  0.00000000E+00  0.00000000E+00
  0.00000000E+00  0.00000000E+00  0.00000000E+00
  0.00000000E+00  0.00000000E+00  0.00000000E+00
  0.00000000E+00  0.00000000E+00  0.00000000E+00
  0.00000000E+00  0.00000000E+00  0.00000000E+00
  0.00000000E+00  0.00000000E+00  0.00000000E+00
  0.00000000E+00  0.00000000E+00  0.00000000E+00
  0.00000000E+00  0.00000000E+00  0.00000000E+00
  0.00000000E+00  0.00000000E+00  0.00000000E+00
  0.00000000E+00  0.00000000E+00  0.00000000E+00
  0.00000000E+00  0.00000000E+00  0.00000000E+00
  0.00000000E+00  0.00000000E+00  0.00000000E+00
  0.00000000E+00  0.00000000E+00  0.00000000E+00
  0.00000000E+00  0.00000000E+00  0.00000000E+00
  0.00000000E+00  0.00000000E+00  0.00000000E+00
  0.00000000E+00  0.00000000E+00  0.00000000E+00
  0.00000000E+00  0.00000000E+00  0.00000000E+00
  0.00000000E+00  0.00000000E+00  0.00000000E+00
  0.00000000E+00  0.00000000E+00  0.00000000E+00
  0.00000000E+00  0.00000000E+00  0.00000000E+00
  0.00000000E+00  0.00000000E+00  0.00000000E+00
  0.00000000E+00  0.00000000E+00  0.00000000E+00
