  Built with Packmol                    
    1.000000000000000     
    10.8967441437761412   -0.3412049386741573    0.0551565927607902
    -0.3570423865122028   11.1045296436318512    0.0907489991230749
     0.0392226064931683    0.0719806403579945   11.7272763617123985
   Fe   Ge
    48    48
Direct
  0.6370632389119641  0.4140267390558506  0.5314680468888655
  0.3425173504657564  0.7078666626668914  0.1287844062882320
  0.7399531498811482  0.7752432860564644  0.2385776513636061
  0.5736747916454823  0.7914745309422646  0.3997575442012521
  0.6153547858334245  0.4933436634462350  0.1597398526374436
  0.6203000373800019  0.6048067663855951  0.6624469323774491
  0.0087037380646630  0.6299559831485210  0.5900506425233609
  0.0789645013511146  0.0324216899771771  0.6936966583273083
  0.7101418977585349  0.1446981454394471  0.2808329816215760
  0.9454192646651353  0.4540976731589234  0.7776349963112549
  0.7985132080021801  0.3549046851845259  0.1357889295038729
  0.7448678927678968  0.6429638552529469  0.0193098095541648
  0.6002783661147576  0.2307233262292153  0.6534855940854717
  0.8800449505844151  0.9471299785191166  0.5630556030577925
  0.6897869091145332  0.5872413884997434  0.3623035093532547
  0.2376583690194002  0.7459903467110736  0.6768145234615505
  0.9523471862049652  0.7876064185696049  0.1613359519064416
  0.1567860737436962  0.8626901708685438  0.0336227748354967
  0.0818651206826387  0.9908107786320087  0.2200886957144279
  0.3224123420126540  0.4840522179291661  0.4048623092176725
  0.1329374799761287  0.6994341622878159  0.4231654400656444
  0.5564677172966759  0.5488522730475727  0.8678268753301798
  0.8242130019152506  0.7204994592165495  0.6653714086172035
  0.4375475834410644  0.8866432813840824  0.7301596718756448
  0.9895124166683334  0.8741825640323257  0.3765420862222986
  0.2358082375243089  0.9052736243573037  0.4142674057822465
  0.1662314971113681  0.3841844293972382  0.2839364454032967
  0.6239351278082421  0.7645769219909503  0.8278194623678732
  0.7100861131529682  0.9848477874867562  0.4300050366959778
  0.7758320171080771  0.2016510050964008  0.5044673645479102
  0.4042372471574344  0.8822192072740992  0.2827844170956341
  0.3427788295191916  0.0398392656950994  0.9165569823814470
  0.2052566855722612  0.4552366225675234  0.0706103946957510
  0.0088921382735381  0.2843531557730328  0.4490967046964728
  0.9981069088927048  0.8265398952728700  0.7508817812018559
  0.7490038707537122  0.0222140548781038  0.9212189614931495
  0.2759413174618347  0.9843849250316578  0.6273798545515237
  0.6219130997267736  0.8249070477182191  0.6081970184600775
  0.1088951153376718  0.0680302389207031  0.4735597285185369
  0.6171258214348526  0.3722899658622126  0.9701823837450743
  0.3478778810508247  0.6956451311961787  0.3714664915000911
  0.9088587106469240  0.0899108548648586  0.3951170270828654
  0.9181113894985115  0.6610330043146561  0.3593144423560221
  0.3810050626358194  0.4891527586193082  0.2069707530090916
  0.9468685102121874  0.9753539195886182  0.0487402419607077
  0.3708357592806301  0.7913230873825479  0.9163524663883204
  0.1765620885517951  0.8076805970995546  0.2369424501262329
  0.2494683952755992  0.2653538199022526  0.9666281365175492
  0.4338503244730090  0.1087342924729019  0.7231999102169226
  0.1875167127513292  0.5919875032075901  0.2423084516577354
  0.7857315704721772  0.1405914000462697  0.0802117353571553
  0.4575998378629039  0.2108865339527751  0.9741718291187030
  0.7850375158321973  0.9059187042603828  0.7571124632540840
  0.5424530228434219  0.9618817670771093  0.8994762584813205
  0.6736963326110839  0.1983761314550445  0.8455312114753862
  0.5291592830146226  0.6837484141640036  0.0158457693152116
  0.7818593598510292  0.7825084971789361  0.4574978258384337
  0.0971840967656913  0.3929523943309976  0.8998931124240567
  0.4283502805316087  0.6680583083529477  0.7418013452301394
  0.7391755385585714  0.8552618952127838  0.0436121852538336
  0.7790909975797156  0.5886306199758317  0.8262429608090315
  0.8069572678188738  0.5545770482218411  0.5335053145473156
  0.0590433051269090  0.4049968987142742  0.6178533614123746
  0.2892790215765380  0.0615609016726954  0.2630671458694070
  0.8362975388434171  0.3859604787473530  0.9398339916901510
  0.8293784924007472  0.5692177062386068  0.1955793328028644
  0.6057135354220320  0.9551355984192117  0.2486891671758781
  0.2264490369716725  0.2933096097335368  0.4655480070327404
  0.5266648453353505  0.6712279434188742  0.2401080133660446
  0.0765084991609353  0.6306193469743800  0.7857601925043972
  0.5305420515515961  0.4212285644597831  0.3474988186116357
  0.8331470684769208  0.3159286205117585  0.3359982289292207
  0.9579487699278557  0.0352144906372825  0.8566046003425698
  0.0813278262515227  0.8538698559437252  0.5643566429860564
  0.1894456222248198  0.6519888064033423  0.9851895507673561
  0.4059932847192086  0.4504974267514382  0.9881552420191356
  0.9568195549907258  0.7666312498538910  0.9507781831821498
  0.2380106051880761  0.5718060956845192  0.5698376958890280
  0.6582055405295578  0.0386837219156810  0.6171983713195943
  0.8547560799344417  0.9795466045839609  0.2364829808157213
  0.4124541394099691  0.8496490096618518  0.5253255421273637
  0.3098069571611038  0.2790609976188975  0.1707877634834035
  0.2036832081629594  0.1686883932278204  0.7947512826956836
  0.5720669546073827  0.2018252916090345  0.4355990980037801
  0.5047179015460564  0.5993573126666428  0.4950002884125395
  0.0224614183308243  0.4908132071601187  0.4029676192643154
  0.2028231320712379  0.8973635403944051  0.8217720744408181
  0.0726800127274251  0.1881304006965091  0.2806048044522987
  0.3545865806404069  0.1109963012219063  0.4767885611394719
  0.5459345020649443  0.4028771827010643  0.7333700229981848
  0.1456685774834203  0.0869766128953077  0.0347157744979539
  0.3678341536021876  0.9250008084876591  0.0880118291510675
  0.9541195182469702  0.1569027569473216  0.6054518846461797
  0.5832238081394223  0.2700294635507596  0.1674287158679762
  0.0090030103990581  0.3865564233134192  0.1389059283091871
  0.7993587458163083  0.3390831848973972  0.6636276723727156
 
  0.00000000E+00  0.00000000E+00  0.00000000E+00
  0.00000000E+00  0.00000000E+00  0.00000000E+00
  0.00000000E+00  0.00000000E+00  0.00000000E+00
  0.00000000E+00  0.00000000E+00  0.00000000E+00
  0.00000000E+00  0.00000000E+00  0.00000000E+00
  0.00000000E+00  0.00000000E+00  0.00000000E+00
  0.00000000E+00  0.00000000E+00  0.00000000E+00
  0.00000000E+00  0.00000000E+00  0.00000000E+00
  0.00000000E+00  0.00000000E+00  0.00000000E+00
  0.00000000E+00  0.00000000E+00  0.00000000E+00
  0.00000000E+00  0.00000000E+00  0.00000000E+00
  0.00000000E+00  0.00000000E+00  0.00000000E+00
  0.00000000E+00  0.00000000E+00  0.00000000E+00
  0.00000000E+00  0.00000000E+00  0.00000000E+00
  0.00000000E+00  0.00000000E+00  0.00000000E+00
  0.00000000E+00  0.00000000E+00  0.00000000E+00
  0.00000000E+00  0.00000000E+00  0.00000000E+00
  0.00000000E+00  0.00000000E+00  0.00000000E+00
  0.00000000E+00  0.00000000E+00  0.00000000E+00
  0.00000000E+00  0.00000000E+00  0.00000000E+00
  0.00000000E+00  0.00000000E+00  0.00000000E+00
  0.00000000E+00  0.00000000E+00  0.00000000E+00
  0.00000000E+00  0.00000000E+00  0.00000000E+00
  0.00000000E+00  0.00000000E+00  0.00000000E+00
  0.00000000E+00  0.00000000E+00  0.00000000E+00
  0.00000000E+00  0.00000000E+00  0.00000000E+00
  0.00000000E+00  0.00000000E+00  0.00000000E+00
  0.00000000E+00  0.00000000E+00  0.00000000E+00
  0.00000000E+00  0.00000000E+00  0.00000000E+00
  0.00000000E+00  0.00000000E+00  0.00000000E+00
  0.00000000E+00  0.00000000E+00  0.00000000E+00
  0.00000000E+00  0.00000000E+00  0.00000000E+00
  0.00000000E+00  0.00000000E+00  0.00000000E+00
  0.00000000E+00  0.00000000E+00  0.00000000E+00
  0.00000000E+00  0.00000000E+00  0.00000000E+00
  0.00000000E+00  0.00000000E+00  0.00000000E+00
  0.00000000E+00  0.00000000E+00  0.00000000E+00
  0.00000000E+00  0.00000000E+00  0.00000000E+00
  0.00000000E+00  0.00000000E+00  0.00000000E+00
  0.00000000E+00  0.00000000E+00  0.00000000E+00
  0.00000000E+00  0.00000000E+00  0.00000000E+00
  0.00000000E+00  0.00000000E+00  0.00000000E+00
  0.00000000E+00  0.00000000E+00  0.00000000E+00
  0.00000000E+00  0.00000000E+00  0.00000000E+00
  0.00000000E+00  0.00000000E+00  0.00000000E+00
  0.00000000E+00  0.00000000E+00  0.00000000E+00
  0.00000000E+00  0.00000000E+00  0.00000000E+00
  0.00000000E+00  0.00000000E+00  0.00000000E+00
  0.00000000E+00  0.00000000E+00  0.00000000E+00
  0.00000000E+00  0.00000000E+00  0.00000000E+00
  0.00000000E+00  0.00000000E+00  0.00000000E+00
  0.00000000E+00  0.00000000E+00  0.00000000E+00
  0.00000000E+00  0.00000000E+00  0.00000000E+00
  0.00000000E+00  0.00000000E+00  0.00000000E+00
  0.00000000E+00  0.00000000E+00  0.00000000E+00
  0.00000000E+00  0.00000000E+00  0.00000000E+00
  0.00000000E+00  0.00000000E+00  0.00000000E+00
  0.00000000E+00  0.00000000E+00  0.00000000E+00
  0.00000000E+00  0.00000000E+00  0.00000000E+00
  0.00000000E+00  0.00000000E+00  0.00000000E+00
  0.00000000E+00  0.00000000E+00  0.00000000E+00
  0.00000000E+00  0.00000000E+00  0.00000000E+00
  0.00000000E+00  0.00000000E+00  0.00000000E+00
  0.00000000E+00  0.00000000E+00  0.00000000E+00
  0.00000000E+00  0.00000000E+00  0.00000000E+00
  0.00000000E+00  0.00000000E+00  0.00000000E+00
  0.00000000E+00  0.00000000E+00  0.00000000E+00
  0.00000000E+00  0.00000000E+00  0.00000000E+00
  0.00000000E+00  0.00000000E+00  0.00000000E+00
  0.00000000E+00  0.00000000E+00  0.00000000E+00
  0.00000000E+00  0.00000000E+00  0.00000000E+00
  0.00000000E+00  0.00000000E+00  0.00000000E+00
  0.00000000E+00  0.00000000E+00  0.00000000E+00
  0.00000000E+00  0.00000000E+00  0.00000000E+00
  0.00000000E+00  0.00000000E+00  0.00000000E+00
  0.00000000E+00  0.00000000E+00  0.00000000E+00
  0.00000000E+00  0.00000000E+00  0.00000000E+00
  0.00000000E+00  0.00000000E+00  0.00000000E+00
  0.00000000E+00  0.00000000E+00  0.00000000E+00
  0.00000000E+00  0.00000000E+00  0.00000000E+00
  0.00000000E+00  0.00000000E+00  0.00000000E+00
  0.00000000E+00  0.00000000E+00  0.00000000E+00
  0.00000000E+00  0.00000000E+00  0.00000000E+00
  0.00000000E+00  0.00000000E+00  0.00000000E+00
  0.00000000E+00  0.00000000E+00  0.00000000E+00
  0.00000000E+00  0.00000000E+00  0.00000000E+00
  0.00000000E+00  0.00000000E+00  0.00000000E+00
  0.00000000E+00  0.00000000E+00  0.00000000E+00
  0.00000000E+00  0.00000000E+00  0.00000000E+00
  0.00000000E+00  0.00000000E+00  0.00000000E+00
  0.00000000E+00  0.00000000E+00  0.00000000E+00
  0.00000000E+00  0.00000000E+00  0.00000000E+00
  0.00000000E+00  0.00000000E+00  0.00000000E+00
  0.00000000E+00  0.00000000E+00  0.00000000E+00
  0.00000000E+00  0.00000000E+00  0.00000000E+00
  0.00000000E+00  0.00000000E+00  0.00000000E+00
