  Built with Packmol                    
    1.000000000000000     
    10.9902452644576094   -0.3280665631751618    0.0044368804645133
    -0.3461892233605510   11.0496322354650491    0.2957334151327571
    -0.0039192861603217    0.2875797875475295   11.6304148162755112
   Fe   Ge
    48    48
Direct
  0.6480241117845864  0.4067271005211950  0.5147156691626478
  0.3451076683166008  0.7044109618480263  0.1154667563483471
  0.7355279930503755  0.7526302796611049  0.2286884110639420
  0.5708521544224610  0.7776620665078866  0.4153065388343506
  0.6192017737586681  0.4981679438544049  0.1742153156415256
  0.6350337938421902  0.6267359872788631  0.6408009499124461
  0.0291695701329289  0.6108030812323335  0.5769145105149249
  0.0757825599346873  0.0253189037491524  0.6983424478040092
  0.7142250830095662  0.1260687813318313  0.2753684339500566
  0.9384564699014533  0.4523720372372679  0.7657782479348896
  0.8005797702141564  0.3568356890081290  0.1344596048043059
  0.7380774725892891  0.6126967602833702  0.0144018378998680
  0.5994208160225583  0.2361279746001728  0.6576241962333924
  0.8626514916682453  0.9562830591030789  0.5620968214372439
  0.6888420312562644  0.5787516610789680  0.3725596135168416
  0.2289702206353468  0.7441182370819917  0.7088602339401291
  0.9880122964188658  0.7701044680438045  0.2000065783222809
  0.1595621875198177  0.8608111058627941  0.0293345206420526
  0.0801741213382812  0.9908661176675579  0.2214160186001450
  0.3126169782623407  0.4900039455013925  0.4052126380239542
  0.1235473607716315  0.6973751547068829  0.4026586805172485
  0.5505798480547881  0.5589970533170430  0.8427028477206520
  0.8623240879047316  0.7278534086900663  0.6583368856888612
  0.4402848552235028  0.9071769171725421  0.7325408179037112
  0.9910082180531177  0.8725049301785859  0.3920293511802129
  0.2245597588373300  0.9012811499681703  0.4246093078241344
  0.1601852156533070  0.3890060772002002  0.2744528097911711
  0.6177970437543081  0.7795022419559530  0.8461847285135633
  0.6682945541231433  0.9908271369811885  0.4488911120017605
  0.7714039349406647  0.1887104870895584  0.5098733382742893
  0.4121723882111255  0.9015438626534049  0.2999013290322097
  0.3530844534804132  0.0489869845585531  0.9278868307410519
  0.2087084356531150  0.4661060255863845  0.0515918964955020
  0.0038929531575747  0.2793443862694787  0.4413645945451421
  0.0193814643558596  0.8447215977731304  0.8206032458330625
  0.7518612582242739  0.0258015550514941  0.9128625010642963
  0.2680026227047065  0.9784795348668496  0.6194471899906020
  0.6243775924430750  0.8367016287637909  0.6243155529492626
  0.1020206231342584  0.0638220557330627  0.4772499845804106
  0.6100862054652794  0.3919068643307639  0.9811447983937853
  0.3500266869410638  0.7013587270512076  0.3721585943758399
  0.9005919927342561  0.0816828013620494  0.3876064566753001
  0.9053601363244965  0.6566766844581053  0.3696994442003643
  0.3846707447721158  0.4931285830728385  0.1957982549716561
  0.9553282090633815  0.9443570334017508  0.0356219978285424
  0.3968822718415552  0.7938837873073581  0.9189358741991853
  0.2085263667235182  0.8221388806901828  0.2367130513474436
  0.2443035329309140  0.2647099363011449  0.9562679656984301
  0.4219979860006120  0.1254877674278418  0.7158515624661348
  0.1920152802417476  0.5985887462575405  0.2308936601792766
  0.7922928159460056  0.1372608795959849  0.0760951279506372
  0.4572514781805808  0.2225963123229917  0.9862118844653978
  0.8074329618059224  0.8879857541297511  0.7704821495066199
  0.5455627770574480  0.9768728832852105  0.9090849769698792
  0.6637435518809198  0.2146754561795206  0.8550150088191444
  0.5192403309333073  0.6349741770614514  0.0218907733746931
  0.7766010833754962  0.7881885153104520  0.4617759634762848
  0.0860884432113878  0.3890867016828068  0.8928412523650593
  0.4376360230799818  0.6883043218897313  0.7249492184458362
  0.7423999678505879  0.8372383907150791  0.0300327083353551
  0.7703006273315438  0.5974842002015208  0.8114776368424117
  0.8198231821352735  0.5471926579835653  0.5474008098646479
  0.0652183494306726  0.3958573095866740  0.6149915804570512
  0.2842830942871757  0.0661371092847531  0.2579168366006783
  0.8275597439522429  0.4027603498431134  0.9359801678914366
  0.8353672327242379  0.5615183746752450  0.2030721214742712
  0.6173804743096412  0.9319035782693987  0.2401518408989887
  0.2189957452115294  0.2974374084826223  0.4607510624718074
  0.5236226300878002  0.6811505587735951  0.2417257878180337
  0.0374575168467715  0.6389618158806272  0.7806500533641412
  0.5138477519388545  0.4091562220423413  0.3464310809253632
  0.8210809843343014  0.3125240899217161  0.3406590831079015
  0.9586344141805299  0.0599045106696607  0.8600074537532905
  0.0628293855527673  0.8388194353901994  0.5857707881474070
  0.2130120337980941  0.6577210471219601  0.9451057259619944
  0.3841618079992770  0.4415720025185905  0.9256564287044071
  0.9537503980065551  0.7252484716005654  0.9951381384403746
  0.2456824168125422  0.5954240705804068  0.5654211978139898
  0.6706238098270205  0.0441592594942293  0.6638219932063194
  0.8601508545247896  0.9534732729614817  0.2274203841712890
  0.4257882219027636  0.8735615210602248  0.5213626715978634
  0.2961257697012911  0.2872274262417349  0.1602204093064969
  0.2061181536295962  0.1748702497243926  0.7810477125091353
  0.5647729810958637  0.1953935793669146  0.4479456901748691
  0.4927580834866987  0.5775748792769662  0.4959287964046979
  0.0210376731768633  0.4883912339146548  0.3949453904831373
  0.2252507030787001  0.9209901535140688  0.8260634472662289
  0.0664134910621428  0.1911212699019842  0.2731277570968302
  0.3429722935017523  0.1134059119894744  0.4674494089709071
  0.5469624122255112  0.4165922455309712  0.7096811931653590
  0.1416447433176842  0.0847760128238164  0.0334297543766837
  0.3762579417694099  0.9220533155444528  0.0953723999255303
  0.9550997945612707  0.1555136883763026  0.6038081292377697
  0.5875935681327604  0.2722790733587246  0.1709556640055965
  0.0102240613622584  0.3950298724373695  0.1307213642552725
  0.7999622130806259  0.3279819524078960  0.6635245735060522
 
  0.00000000E+00  0.00000000E+00  0.00000000E+00
  0.00000000E+00  0.00000000E+00  0.00000000E+00
  0.00000000E+00  0.00000000E+00  0.00000000E+00
  0.00000000E+00  0.00000000E+00  0.00000000E+00
  0.00000000E+00  0.00000000E+00  0.00000000E+00
  0.00000000E+00  0.00000000E+00  0.00000000E+00
  0.00000000E+00  0.00000000E+00  0.00000000E+00
  0.00000000E+00  0.00000000E+00  0.00000000E+00
  0.00000000E+00  0.00000000E+00  0.00000000E+00
  0.00000000E+00  0.00000000E+00  0.00000000E+00
  0.00000000E+00  0.00000000E+00  0.00000000E+00
  0.00000000E+00  0.00000000E+00  0.00000000E+00
  0.00000000E+00  0.00000000E+00  0.00000000E+00
  0.00000000E+00  0.00000000E+00  0.00000000E+00
  0.00000000E+00  0.00000000E+00  0.00000000E+00
  0.00000000E+00  0.00000000E+00  0.00000000E+00
  0.00000000E+00  0.00000000E+00  0.00000000E+00
  0.00000000E+00  0.00000000E+00  0.00000000E+00
  0.00000000E+00  0.00000000E+00  0.00000000E+00
  0.00000000E+00  0.00000000E+00  0.00000000E+00
  0.00000000E+00  0.00000000E+00  0.00000000E+00
  0.00000000E+00  0.00000000E+00  0.00000000E+00
  0.00000000E+00  0.00000000E+00  0.00000000E+00
  0.00000000E+00  0.00000000E+00  0.00000000E+00
  0.00000000E+00  0.00000000E+00  0.00000000E+00
  0.00000000E+00  0.00000000E+00  0.00000000E+00
  0.00000000E+00  0.00000000E+00  0.00000000E+00
  0.00000000E+00  0.00000000E+00  0.00000000E+00
  0.00000000E+00  0.00000000E+00  0.00000000E+00
  0.00000000E+00  0.00000000E+00  0.00000000E+00
  0.00000000E+00  0.00000000E+00  0.00000000E+00
  0.00000000E+00  0.00000000E+00  0.00000000E+00
  0.00000000E+00  0.00000000E+00  0.00000000E+00
  0.00000000E+00  0.00000000E+00  0.00000000E+00
  0.00000000E+00  0.00000000E+00  0.00000000E+00
  0.00000000E+00  0.00000000E+00  0.00000000E+00
  0.00000000E+00  0.00000000E+00  0.00000000E+00
  0.00000000E+00  0.00000000E+00  0.00000000E+00
  0.00000000E+00  0.00000000E+00  0.00000000E+00
  0.00000000E+00  0.00000000E+00  0.00000000E+00
  0.00000000E+00  0.00000000E+00  0.00000000E+00
  0.00000000E+00  0.00000000E+00  0.00000000E+00
  0.00000000E+00  0.00000000E+00  0.00000000E+00
  0.00000000E+00  0.00000000E+00  0.00000000E+00
  0.00000000E+00  0.00000000E+00  0.00000000E+00
  0.00000000E+00  0.00000000E+00  0.00000000E+00
  0.00000000E+00  0.00000000E+00  0.00000000E+00
  0.00000000E+00  0.00000000E+00  0.00000000E+00
  0.00000000E+00  0.00000000E+00  0.00000000E+00
  0.00000000E+00  0.00000000E+00  0.00000000E+00
  0.00000000E+00  0.00000000E+00  0.00000000E+00
  0.00000000E+00  0.00000000E+00  0.00000000E+00
  0.00000000E+00  0.00000000E+00  0.00000000E+00
  0.00000000E+00  0.00000000E+00  0.00000000E+00
  0.00000000E+00  0.00000000E+00  0.00000000E+00
  0.00000000E+00  0.00000000E+00  0.00000000E+00
  0.00000000E+00  0.00000000E+00  0.00000000E+00
  0.00000000E+00  0.00000000E+00  0.00000000E+00
  0.00000000E+00  0.00000000E+00  0.00000000E+00
  0.00000000E+00  0.00000000E+00  0.00000000E+00
  0.00000000E+00  0.00000000E+00  0.00000000E+00
  0.00000000E+00  0.00000000E+00  0.00000000E+00
  0.00000000E+00  0.00000000E+00  0.00000000E+00
  0.00000000E+00  0.00000000E+00  0.00000000E+00
  0.00000000E+00  0.00000000E+00  0.00000000E+00
  0.00000000E+00  0.00000000E+00  0.00000000E+00
  0.00000000E+00  0.00000000E+00  0.00000000E+00
  0.00000000E+00  0.00000000E+00  0.00000000E+00
  0.00000000E+00  0.00000000E+00  0.00000000E+00
  0.00000000E+00  0.00000000E+00  0.00000000E+00
  0.00000000E+00  0.00000000E+00  0.00000000E+00
  0.00000000E+00  0.00000000E+00  0.00000000E+00
  0.00000000E+00  0.00000000E+00  0.00000000E+00
  0.00000000E+00  0.00000000E+00  0.00000000E+00
  0.00000000E+00  0.00000000E+00  0.00000000E+00
  0.00000000E+00  0.00000000E+00  0.00000000E+00
  0.00000000E+00  0.00000000E+00  0.00000000E+00
  0.00000000E+00  0.00000000E+00  0.00000000E+00
  0.00000000E+00  0.00000000E+00  0.00000000E+00
  0.00000000E+00  0.00000000E+00  0.00000000E+00
  0.00000000E+00  0.00000000E+00  0.00000000E+00
  0.00000000E+00  0.00000000E+00  0.00000000E+00
  0.00000000E+00  0.00000000E+00  0.00000000E+00
  0.00000000E+00  0.00000000E+00  0.00000000E+00
  0.00000000E+00  0.00000000E+00  0.00000000E+00
  0.00000000E+00  0.00000000E+00  0.00000000E+00
  0.00000000E+00  0.00000000E+00  0.00000000E+00
  0.00000000E+00  0.00000000E+00  0.00000000E+00
  0.00000000E+00  0.00000000E+00  0.00000000E+00
  0.00000000E+00  0.00000000E+00  0.00000000E+00
  0.00000000E+00  0.00000000E+00  0.00000000E+00
  0.00000000E+00  0.00000000E+00  0.00000000E+00
  0.00000000E+00  0.00000000E+00  0.00000000E+00
  0.00000000E+00  0.00000000E+00  0.00000000E+00
  0.00000000E+00  0.00000000E+00  0.00000000E+00
  0.00000000E+00  0.00000000E+00  0.00000000E+00
