  Built with Packmol                    
   1.00000000000000     
    11.1540807587942616    0.1681047429992448    0.1233021982912942
     0.1710852522776563   11.4600425985979548    0.0561362479875697
     0.1224944453699652    0.0542462857424827   11.1384747411941980
   Fe   Ge
    48    48
Direct
  0.1474598476964530  0.6336131150353879  0.4043873641960758
  0.9338345434850837  0.1469792434550499  0.5981546283137504
  0.9258575107702143  0.9384346272975037  0.6540625199629915
  0.4455895357543582  0.3708531949173235  0.7433110957368712
  0.5039699509789912  0.0565468667373281  0.1095138847195400
  0.1423313339349406  0.1057637039895170  0.7167743617722735
  0.0465167780074154  0.3100559506504439  0.2382030477081898
  0.7347597785816760  0.5468164708850480  0.0688682902779902
  0.7595181292667021  0.8197200577465011  0.5586425766922716
  0.6858795141324805  0.9403614870566486  0.2102201530739620
  0.4640339793324486  0.0191820897089912  0.8848894864396328
  0.7195289679160979  0.0238763601321565  0.7987406546708584
  0.9912182669963556  0.7911733789293223  0.4895815787817384
  0.9651707545423349  0.2807562193856086  0.7657305965462484
  0.7307605729057940  0.7712668039462400  0.0144480486349536
  0.7568144507249812  0.2296983323961115  0.4856636290137857
  0.6655466682501157  0.4984023323662683  0.7231704071611560
  0.5468227408371860  0.5827194717573647  0.3854621153786368
  0.7461632778999743  0.5422617264007101  0.3155907606070514
  0.1806679275250929  0.8954475402181146  0.5783648433436284
  0.5752428590704142  0.1625260089339164  0.3195627707962601
  0.0276970029791173  0.7696439074732240  0.2789206838462874
  0.3513670009554559  0.6958940091303205  0.5158435393983680
  0.8744019629115840  0.3928609411123176  0.4034343378432084
  0.3917181759181787  0.9024642492443249  0.4863367896975461
  0.7047025813551073  0.1501506374432182  0.1287332954007780
  0.6204466933600372  0.1412472061179386  0.9380409621993309
  0.9916124476578716  0.3365079639125881  0.9912509330965804
  0.3267912986082209  0.5221450243697277  0.1282236727629780
  0.5843291226285316  0.9206266149242524  0.6518276800393465
  0.9652938250895389  0.5457777900142844  0.0108413960234230
  0.9093149546687087  0.8853996170319718  0.1388705694800123
  0.8160791543875376  0.4134747228499691  0.8615103571630343
  0.4366499067732335  0.2382299044951139  0.9295411855452471
  0.2955170983763793  0.0034487650361328  0.2318739072378193
  0.6241569002005605  0.3244844677125371  0.8430453450556001
  0.4534083789368211  0.5934817265153569  0.7817862205634256
  0.3716100757061298  0.9992961878852711  0.6842511478120983
  0.5360288198105607  0.1459198781789866  0.7303766359287209
  0.8304734572126975  0.6199897301782755  0.8550906080488758
  0.8286753790100079  0.1958496374683563  0.9305572348721540
  0.8767515268047674  0.6694502634027941  0.1748176920451030
  0.1655530530964739  0.7948676320329895  0.9623940034015845
  0.3337679893334879  0.9102479020516157  0.0428032586734801
  0.4476728068470166  0.3760467506292500  0.2924424115472348
  0.0560412444261758  0.6559318342003664  0.8168288536618320
  0.7609876703737726  0.2127798308997129  0.7231122759884059
  0.9611320115381545  0.1850993058322246  0.3938624939667719
  0.0800809969263057  0.8560250841608408  0.7654977775914134
  0.0234199660984160  0.9948469819614871  0.4677277516074341
  0.7479239991076554  0.0353319618467864  0.5770865537938334
  0.2546731860453590  0.0848315014777867  0.5285657255429967
  0.4947845303999685  0.9547410404012240  0.3002604999912322
  0.5954390899488473  0.3080192389412133  0.6076102185681265
  0.9069555343109812  0.7139278641155471  0.6743572262090396
  0.8923014335735431  0.4455284547323757  0.1844557932459310
  0.1588169509395172  0.4265065386878959  0.0548012798474389
  0.8441396594256361  0.3878643596998543  0.6188558092680410
  0.0291261488120256  0.4617572931872260  0.8110031457452038
  0.9409503885886679  0.0671770811790680  0.8093333606913120
  0.8261803775033485  0.8534382587026386  0.3513258692797194
  0.3997462386318915  0.4492958494697348  0.9392462768000698
  0.9483300818658336  0.7547390386057202  0.9790973814753343
  0.3644548468231221  0.1793203099791683  0.3451915332190865
  0.3047886570487677  0.1202276557383186  0.0455559800614509
  0.6167931346720721  0.6168855965397100  0.9064793886411380
  0.3253927019477985  0.2008170408884951  0.7519752293702240
  0.7212668155316777  0.3435855750757497  0.0475690584013506
  0.6600009900451766  0.7212885737514654  0.2221975140892098
  0.1476391349972204  0.6731433463268459  0.6116159129362799
  0.5651887049306623  0.7792431861477453  0.4753545137102577
  0.1149709854495384  0.1863740372846294  0.9131699792383614
  0.0851514064429892  0.4281271223544110  0.4219314191563299
  0.5149964154203062  0.0855406946133925  0.5237050780688222
  0.5115996453706302  0.2643034545276919  0.1277356677245223
  0.9130879771659366  0.1926735458366693  0.1354842598263204
  0.4775343109315884  0.5222159202688132  0.5857337824378277
  0.7129360333363692  0.5982166081013531  0.5296597971704387
  0.5423933009447026  0.5187772364937970  0.1623760215095444
  0.2594615788835242  0.6385914058461495  0.8425480132043859
  0.1259908808755910  0.9103189047226152  0.1436993012991579
  0.4245810280253863  0.7927709498618043  0.7028668947471886
  0.5441504926979022  0.8680876298194775  0.0265319286676160
  0.9318045827983354  0.6113925719951325  0.3953024950737500
  0.3392901744580001  0.5670912744431007  0.3397994450815958
  0.6432235012139529  0.3669112811810038  0.3687360033588192
  0.2450978016670078  0.3643829976979021  0.2585775884859416
  0.2568650622584343  0.9517872987310980  0.8489958125761774
  0.7183458021871871  0.8142093168017652  0.7913059835412923
  0.3471641310957452  0.7084665250417288  0.0601217280771635
  0.2195218370680152  0.8348881376608190  0.3706718840801813
  0.1319175478196044  0.1253983888117389  0.2717600640625975
  0.7705540726024509  0.9857134952236635  0.0069419964957191
  0.7841050298051968  0.0947449012721151  0.3184384110859000
  0.1004242930262862  0.2793541669630741  0.5928146694951550
  0.1268222898183424  0.6385144440876331  0.1425310931907475
 
  0.00000000E+00  0.00000000E+00  0.00000000E+00
  0.00000000E+00  0.00000000E+00  0.00000000E+00
  0.00000000E+00  0.00000000E+00  0.00000000E+00
  0.00000000E+00  0.00000000E+00  0.00000000E+00
  0.00000000E+00  0.00000000E+00  0.00000000E+00
  0.00000000E+00  0.00000000E+00  0.00000000E+00
  0.00000000E+00  0.00000000E+00  0.00000000E+00
  0.00000000E+00  0.00000000E+00  0.00000000E+00
  0.00000000E+00  0.00000000E+00  0.00000000E+00
  0.00000000E+00  0.00000000E+00  0.00000000E+00
  0.00000000E+00  0.00000000E+00  0.00000000E+00
  0.00000000E+00  0.00000000E+00  0.00000000E+00
  0.00000000E+00  0.00000000E+00  0.00000000E+00
  0.00000000E+00  0.00000000E+00  0.00000000E+00
  0.00000000E+00  0.00000000E+00  0.00000000E+00
  0.00000000E+00  0.00000000E+00  0.00000000E+00
  0.00000000E+00  0.00000000E+00  0.00000000E+00
  0.00000000E+00  0.00000000E+00  0.00000000E+00
  0.00000000E+00  0.00000000E+00  0.00000000E+00
  0.00000000E+00  0.00000000E+00  0.00000000E+00
  0.00000000E+00  0.00000000E+00  0.00000000E+00
  0.00000000E+00  0.00000000E+00  0.00000000E+00
  0.00000000E+00  0.00000000E+00  0.00000000E+00
  0.00000000E+00  0.00000000E+00  0.00000000E+00
  0.00000000E+00  0.00000000E+00  0.00000000E+00
  0.00000000E+00  0.00000000E+00  0.00000000E+00
  0.00000000E+00  0.00000000E+00  0.00000000E+00
  0.00000000E+00  0.00000000E+00  0.00000000E+00
  0.00000000E+00  0.00000000E+00  0.00000000E+00
  0.00000000E+00  0.00000000E+00  0.00000000E+00
  0.00000000E+00  0.00000000E+00  0.00000000E+00
  0.00000000E+00  0.00000000E+00  0.00000000E+00
  0.00000000E+00  0.00000000E+00  0.00000000E+00
  0.00000000E+00  0.00000000E+00  0.00000000E+00
  0.00000000E+00  0.00000000E+00  0.00000000E+00
  0.00000000E+00  0.00000000E+00  0.00000000E+00
  0.00000000E+00  0.00000000E+00  0.00000000E+00
  0.00000000E+00  0.00000000E+00  0.00000000E+00
  0.00000000E+00  0.00000000E+00  0.00000000E+00
  0.00000000E+00  0.00000000E+00  0.00000000E+00
  0.00000000E+00  0.00000000E+00  0.00000000E+00
  0.00000000E+00  0.00000000E+00  0.00000000E+00
  0.00000000E+00  0.00000000E+00  0.00000000E+00
  0.00000000E+00  0.00000000E+00  0.00000000E+00
  0.00000000E+00  0.00000000E+00  0.00000000E+00
  0.00000000E+00  0.00000000E+00  0.00000000E+00
  0.00000000E+00  0.00000000E+00  0.00000000E+00
  0.00000000E+00  0.00000000E+00  0.00000000E+00
  0.00000000E+00  0.00000000E+00  0.00000000E+00
  0.00000000E+00  0.00000000E+00  0.00000000E+00
  0.00000000E+00  0.00000000E+00  0.00000000E+00
  0.00000000E+00  0.00000000E+00  0.00000000E+00
  0.00000000E+00  0.00000000E+00  0.00000000E+00
  0.00000000E+00  0.00000000E+00  0.00000000E+00
  0.00000000E+00  0.00000000E+00  0.00000000E+00
  0.00000000E+00  0.00000000E+00  0.00000000E+00
  0.00000000E+00  0.00000000E+00  0.00000000E+00
  0.00000000E+00  0.00000000E+00  0.00000000E+00
  0.00000000E+00  0.00000000E+00  0.00000000E+00
  0.00000000E+00  0.00000000E+00  0.00000000E+00
  0.00000000E+00  0.00000000E+00  0.00000000E+00
  0.00000000E+00  0.00000000E+00  0.00000000E+00
  0.00000000E+00  0.00000000E+00  0.00000000E+00
  0.00000000E+00  0.00000000E+00  0.00000000E+00
  0.00000000E+00  0.00000000E+00  0.00000000E+00
  0.00000000E+00  0.00000000E+00  0.00000000E+00
  0.00000000E+00  0.00000000E+00  0.00000000E+00
  0.00000000E+00  0.00000000E+00  0.00000000E+00
  0.00000000E+00  0.00000000E+00  0.00000000E+00
  0.00000000E+00  0.00000000E+00  0.00000000E+00
  0.00000000E+00  0.00000000E+00  0.00000000E+00
  0.00000000E+00  0.00000000E+00  0.00000000E+00
  0.00000000E+00  0.00000000E+00  0.00000000E+00
  0.00000000E+00  0.00000000E+00  0.00000000E+00
  0.00000000E+00  0.00000000E+00  0.00000000E+00
  0.00000000E+00  0.00000000E+00  0.00000000E+00
  0.00000000E+00  0.00000000E+00  0.00000000E+00
  0.00000000E+00  0.00000000E+00  0.00000000E+00
  0.00000000E+00  0.00000000E+00  0.00000000E+00
  0.00000000E+00  0.00000000E+00  0.00000000E+00
  0.00000000E+00  0.00000000E+00  0.00000000E+00
  0.00000000E+00  0.00000000E+00  0.00000000E+00
  0.00000000E+00  0.00000000E+00  0.00000000E+00
  0.00000000E+00  0.00000000E+00  0.00000000E+00
  0.00000000E+00  0.00000000E+00  0.00000000E+00
  0.00000000E+00  0.00000000E+00  0.00000000E+00
  0.00000000E+00  0.00000000E+00  0.00000000E+00
  0.00000000E+00  0.00000000E+00  0.00000000E+00
  0.00000000E+00  0.00000000E+00  0.00000000E+00
  0.00000000E+00  0.00000000E+00  0.00000000E+00
  0.00000000E+00  0.00000000E+00  0.00000000E+00
  0.00000000E+00  0.00000000E+00  0.00000000E+00
  0.00000000E+00  0.00000000E+00  0.00000000E+00
  0.00000000E+00  0.00000000E+00  0.00000000E+00
  0.00000000E+00  0.00000000E+00  0.00000000E+00
  0.00000000E+00  0.00000000E+00  0.00000000E+00
