FeGe                                    
    1.000000000000000     
    10.9401680620849149   -0.3422501348354164    0.0162054656665501
    -0.3568148496151618   11.0112386799213731    0.2021202637785408
    -0.0031040796942700    0.1868345261111648   11.7424580618692644
   Fe   Ge
    48    48
Direct
  0.6472174164685285  0.4091929372684504  0.5115816260557082
  0.3579811617957986  0.7208128284196889  0.1359146701524878
  0.7464413814534083  0.7650580827000297  0.2353366037643241
  0.5709104247013954  0.7967309219596004  0.4087951709251598
  0.6206991671502209  0.4996001258125560  0.1720402862945818
  0.6309311855057373  0.6247797864808433  0.6516496720662630
  0.0220501568822300  0.6106573056071838  0.5712342012814560
  0.0735474204306854  0.0266757012873953  0.6926464540230270
  0.7150631546573223  0.1403723974919799  0.2793116409512919
  0.9394169556063829  0.4590650933719687  0.7677040024802793
  0.7989024792953359  0.3619675143166958  0.1338410527799141
  0.7381651522556609  0.6167213132041454  0.0155710313855835
  0.6021036064816485  0.2347244517346070  0.6530662232192199
  0.8702997060711297  0.9561671542592407  0.5699925483260770
  0.6975118293746760  0.5732159782131205  0.3700525701051234
  0.2301028644686909  0.7515616727754235  0.6641515241201930
  0.9831764609571820  0.7722288273850495  0.1903892439768100
  0.1620768247222770  0.8543867236350664  0.0273519834545581
  0.0836998297017288  0.9904335970558762  0.2153820801513362
  0.3251668284505271  0.4868266801538041  0.3939291176529238
  0.1241834993193436  0.7070712381007311  0.4122989138753965
  0.5454573980648547  0.5488121907987704  0.8462850041265284
  0.8560509341192457  0.7302514597676932  0.6675396530223523
  0.4337488154581735  0.8871989302889105  0.7402846499240496
  0.9902283482731491  0.8716167021223669  0.3766968389720233
  0.2323828464583571  0.9004125667252936  0.4322487273055771
  0.1644620871388085  0.3911654157211046  0.2727396568127958
  0.6085442897933362  0.7672687031094156  0.8292668729459436
  0.6841113799702896  0.9900970317634403  0.4385214796095553
  0.7776461081353290  0.1992464893976447  0.5030017004310139
  0.4141017378629783  0.8880196257458621  0.2844262208276618
  0.3501117154459195  0.0415714051571925  0.9175837950913532
  0.2028572171067680  0.4434894972508587  0.0518695366379518
  0.0071365405136632  0.2836939359967516  0.4408814471273459
  0.0044548771751067  0.8444028004223512  0.8019433152954960
  0.7522153278127988  0.0280225754146173  0.9256751316099567
  0.2711551989032159  0.9900490528603143  0.6279679092441270
  0.6278529552096828  0.8314115436783283  0.6256091373354806
  0.1036348175126705  0.0606450163211179  0.4755762553429292
  0.6107808569531628  0.3831378761974378  0.9821575505351987
  0.3482675994342230  0.7035617297646226  0.3725295252998464
  0.9038060744270737  0.0838696132093304  0.3919093848680149
  0.9037482486034278  0.6566972198069294  0.3709187342058868
  0.3812902577534629  0.5026721209649310  0.1907053656845648
  0.9489889181893219  0.9508542827929602  0.0384209941844986
  0.3880301333380700  0.7936821251715145  0.9417869794237248
  0.1951938996340701  0.8170239953583049  0.2433753289257083
  0.2444180418281405  0.2598392597155552  0.9580623331175602
  0.4363428442541704  0.1105646008276651  0.7188464365464284
  0.1844755187534446  0.6008247522955870  0.2296019865062675
  0.7887541665106852  0.1480261057372445  0.0809113749492312
  0.4580723941663720  0.2134283198833486  0.9803045354178366
  0.7893364433215950  0.8988844786184416  0.7712428765303088
  0.5468332835600265  0.9656011569837304  0.9065059447971180
  0.6694387438239886  0.2087490438848079  0.8494450324002827
  0.5197374621950388  0.6374256517432215  0.0245702776370393
  0.7792568600592631  0.7897724755274140  0.4645242632464957
  0.0852425113865110  0.3875749852696373  0.8886936070041642
  0.3990997568709815  0.6676121764618586  0.7614222930678523
  0.7349125177901996  0.8401327795959475  0.0353848637797824
  0.7705263398868070  0.5969396626389525  0.8172422312078211
  0.8157642795606748  0.5512048554823537  0.5520377884755163
  0.0705501815047640  0.3988320185140850  0.6184225365750677
  0.2886657658285543  0.0604330109513498  0.2708208436678490
  0.8283979033718580  0.4064745261058960  0.9375516523565111
  0.8388700430956462  0.5690329184212857  0.1972428316064310
  0.6165160206517086  0.9490046084246515  0.2414957907689299
  0.2225062562503837  0.2998541773301682  0.4571980791233372
  0.5337755745092778  0.6769533586854877  0.2488324760088787
  0.0581221009297863  0.6417465535825571  0.7705049545905283
  0.5178383010069325  0.4110073752740817  0.3401320008916926
  0.8200921916154797  0.3314694480009734  0.3428976681576188
  0.9569666068407514  0.0569822309319932  0.8586503012723625
  0.0558462669653750  0.8407350484004610  0.5757091803452994
  0.2127314823090813  0.6490569297152078  0.9844406906028595
  0.3859138198857792  0.4338965652826232  0.9339227465752629
  0.9508163364563131  0.7388221538827153  0.9822699262021004
  0.2428316607884824  0.5759876271576871  0.5577784290589918
  0.6674112861895694  0.0453721145870460  0.6327101679572777
  0.8603384938449352  0.9692087612141265  0.2261802004402114
  0.4182219598315342  0.8545978417306728  0.5376281344874272
  0.3018657793670343  0.2779569865832414  0.1668964173146534
  0.2096765924079236  0.1636013932800964  0.7836411174457396
  0.5702272804369883  0.1950185666529407  0.4427156934115999
  0.5026756939096515  0.5899415674376840  0.4923145198843173
  0.0242221798701152  0.4910166223267822  0.3966364223947281
  0.2182451578637057  0.8962756246574273  0.8229242975387194
  0.0697422205045513  0.1903716724502331  0.2774487845765989
  0.3477990838056328  0.1152597455406905  0.4754913721740621
  0.5427469848411519  0.4134033902253762  0.7070597695192049
  0.1406960078474455  0.0788123330696138  0.0278856545279851
  0.3670487926455266  0.9370029418854102  0.0939272122343837
  0.9588572203472410  0.1632285687850086  0.6017035981318273
  0.5883168267083789  0.2754260739899195  0.1714212040422467
  0.0081294877617069  0.3898830657434544  0.1327337260579498
  0.7997998468017045  0.3321392974717270  0.6651315735423609
 
  0.00000000E+00  0.00000000E+00  0.00000000E+00
  0.00000000E+00  0.00000000E+00  0.00000000E+00
  0.00000000E+00  0.00000000E+00  0.00000000E+00
  0.00000000E+00  0.00000000E+00  0.00000000E+00
  0.00000000E+00  0.00000000E+00  0.00000000E+00
  0.00000000E+00  0.00000000E+00  0.00000000E+00
  0.00000000E+00  0.00000000E+00  0.00000000E+00
  0.00000000E+00  0.00000000E+00  0.00000000E+00
  0.00000000E+00  0.00000000E+00  0.00000000E+00
  0.00000000E+00  0.00000000E+00  0.00000000E+00
  0.00000000E+00  0.00000000E+00  0.00000000E+00
  0.00000000E+00  0.00000000E+00  0.00000000E+00
  0.00000000E+00  0.00000000E+00  0.00000000E+00
  0.00000000E+00  0.00000000E+00  0.00000000E+00
  0.00000000E+00  0.00000000E+00  0.00000000E+00
  0.00000000E+00  0.00000000E+00  0.00000000E+00
  0.00000000E+00  0.00000000E+00  0.00000000E+00
  0.00000000E+00  0.00000000E+00  0.00000000E+00
  0.00000000E+00  0.00000000E+00  0.00000000E+00
  0.00000000E+00  0.00000000E+00  0.00000000E+00
  0.00000000E+00  0.00000000E+00  0.00000000E+00
  0.00000000E+00  0.00000000E+00  0.00000000E+00
  0.00000000E+00  0.00000000E+00  0.00000000E+00
  0.00000000E+00  0.00000000E+00  0.00000000E+00
  0.00000000E+00  0.00000000E+00  0.00000000E+00
  0.00000000E+00  0.00000000E+00  0.00000000E+00
  0.00000000E+00  0.00000000E+00  0.00000000E+00
  0.00000000E+00  0.00000000E+00  0.00000000E+00
  0.00000000E+00  0.00000000E+00  0.00000000E+00
  0.00000000E+00  0.00000000E+00  0.00000000E+00
  0.00000000E+00  0.00000000E+00  0.00000000E+00
  0.00000000E+00  0.00000000E+00  0.00000000E+00
  0.00000000E+00  0.00000000E+00  0.00000000E+00
  0.00000000E+00  0.00000000E+00  0.00000000E+00
  0.00000000E+00  0.00000000E+00  0.00000000E+00
  0.00000000E+00  0.00000000E+00  0.00000000E+00
  0.00000000E+00  0.00000000E+00  0.00000000E+00
  0.00000000E+00  0.00000000E+00  0.00000000E+00
  0.00000000E+00  0.00000000E+00  0.00000000E+00
  0.00000000E+00  0.00000000E+00  0.00000000E+00
  0.00000000E+00  0.00000000E+00  0.00000000E+00
  0.00000000E+00  0.00000000E+00  0.00000000E+00
  0.00000000E+00  0.00000000E+00  0.00000000E+00
  0.00000000E+00  0.00000000E+00  0.00000000E+00
  0.00000000E+00  0.00000000E+00  0.00000000E+00
  0.00000000E+00  0.00000000E+00  0.00000000E+00
  0.00000000E+00  0.00000000E+00  0.00000000E+00
  0.00000000E+00  0.00000000E+00  0.00000000E+00
  0.00000000E+00  0.00000000E+00  0.00000000E+00
  0.00000000E+00  0.00000000E+00  0.00000000E+00
  0.00000000E+00  0.00000000E+00  0.00000000E+00
  0.00000000E+00  0.00000000E+00  0.00000000E+00
  0.00000000E+00  0.00000000E+00  0.00000000E+00
  0.00000000E+00  0.00000000E+00  0.00000000E+00
  0.00000000E+00  0.00000000E+00  0.00000000E+00
  0.00000000E+00  0.00000000E+00  0.00000000E+00
  0.00000000E+00  0.00000000E+00  0.00000000E+00
  0.00000000E+00  0.00000000E+00  0.00000000E+00
  0.00000000E+00  0.00000000E+00  0.00000000E+00
  0.00000000E+00  0.00000000E+00  0.00000000E+00
  0.00000000E+00  0.00000000E+00  0.00000000E+00
  0.00000000E+00  0.00000000E+00  0.00000000E+00
  0.00000000E+00  0.00000000E+00  0.00000000E+00
  0.00000000E+00  0.00000000E+00  0.00000000E+00
  0.00000000E+00  0.00000000E+00  0.00000000E+00
  0.00000000E+00  0.00000000E+00  0.00000000E+00
  0.00000000E+00  0.00000000E+00  0.00000000E+00
  0.00000000E+00  0.00000000E+00  0.00000000E+00
  0.00000000E+00  0.00000000E+00  0.00000000E+00
  0.00000000E+00  0.00000000E+00  0.00000000E+00
  0.00000000E+00  0.00000000E+00  0.00000000E+00
  0.00000000E+00  0.00000000E+00  0.00000000E+00
  0.00000000E+00  0.00000000E+00  0.00000000E+00
  0.00000000E+00  0.00000000E+00  0.00000000E+00
  0.00000000E+00  0.00000000E+00  0.00000000E+00
  0.00000000E+00  0.00000000E+00  0.00000000E+00
  0.00000000E+00  0.00000000E+00  0.00000000E+00
  0.00000000E+00  0.00000000E+00  0.00000000E+00
  0.00000000E+00  0.00000000E+00  0.00000000E+00
  0.00000000E+00  0.00000000E+00  0.00000000E+00
  0.00000000E+00  0.00000000E+00  0.00000000E+00
  0.00000000E+00  0.00000000E+00  0.00000000E+00
  0.00000000E+00  0.00000000E+00  0.00000000E+00
  0.00000000E+00  0.00000000E+00  0.00000000E+00
  0.00000000E+00  0.00000000E+00  0.00000000E+00
  0.00000000E+00  0.00000000E+00  0.00000000E+00
  0.00000000E+00  0.00000000E+00  0.00000000E+00
  0.00000000E+00  0.00000000E+00  0.00000000E+00
  0.00000000E+00  0.00000000E+00  0.00000000E+00
  0.00000000E+00  0.00000000E+00  0.00000000E+00
  0.00000000E+00  0.00000000E+00  0.00000000E+00
  0.00000000E+00  0.00000000E+00  0.00000000E+00
  0.00000000E+00  0.00000000E+00  0.00000000E+00
  0.00000000E+00  0.00000000E+00  0.00000000E+00
  0.00000000E+00  0.00000000E+00  0.00000000E+00
  0.00000000E+00  0.00000000E+00  0.00000000E+00
