  Built with Packmol                    
    1.000000000000000     
    11.1902444100927170    0.1604759547874268    0.2373730271729665
     0.1657358319452005   11.2550344957607429    0.1040973934524088
     0.2409190809301872    0.1004285527979828   11.1909636373653925
   Fe   Ge
    48    48
Direct
  0.1313070382996729  0.6296792278015069  0.3958264341547475
  0.9067831546867844  0.1432692414772487  0.6189071428092063
  0.9178735679234487  0.9166052140830109  0.6646124207537069
  0.4089217510700894  0.3821587451766299  0.7414739553703901
  0.5137750658801659  0.0430152443445759  0.1034791484605153
  0.1505449818351370  0.0845056653189530  0.7311202559638958
  0.0420392158232483  0.2973556676382401  0.2302061388304218
  0.7282808651509413  0.5392990833128638  0.0650545522881472
  0.7618376633043151  0.7985214162937153  0.5503866036693308
  0.6852585485114785  0.9153834338139916  0.1833347416147118
  0.4793975742793912  0.0316553347533164  0.8733354698411085
  0.7269805057602297  0.0524219314641695  0.7737705203217957
  0.9862458321020794  0.7872879650669268  0.4954055065254604
  0.9780392636815866  0.2776622637856486  0.7782716101245345
  0.7316274168513845  0.7706203186669475  0.0077075086328134
  0.7228441620229565  0.2226813439612309  0.5306800822159863
  0.7375471704681943  0.5257356369699930  0.7192063772342315
  0.5328426971823134  0.5852227038992702  0.3873009940403112
  0.7363508364210030  0.5379578657552021  0.3099876627074841
  0.1862088412841474  0.8885007368769022  0.5750040595184515
  0.5801160082849122  0.1552906484467923  0.3253075244159902
  0.0179407169723478  0.7815462025114562  0.2742170385511788
  0.3472270672069743  0.6890896018908320  0.5029286448923860
  0.8566666771231614  0.3804857475673943  0.3988175639522508
  0.3822856107032224  0.9073488866260749  0.4738200205233563
  0.7205535252740936  0.1321099599651127  0.1368309046086383
  0.6273999295756194  0.1750993664580111  0.9385432539868990
  0.9953878290854019  0.3235107005833489  0.0095162624430057
  0.3271722899465224  0.5119013010513258  0.1309410003717268
  0.5852895880548339  0.9222273301288570  0.6626691195073184
  0.9694719036539449  0.5456780731755855  0.0151865586657067
  0.9058616113638989  0.9207314363037508  0.1283894299339245
  0.8368171705889074  0.4163567884799370  0.8872062942771477
  0.4333618840954728  0.2507804569585697  0.9395905015144550
  0.2993897726836015  0.9952943808035415  0.2375506514034273
  0.6056320855639230  0.3889458003992742  0.8640724758219014
  0.4743432194759392  0.5807462500336128  0.7343076081844323
  0.3860250129400245  0.0056983082998455  0.6739950510600129
  0.5448861184875107  0.1803207374930783  0.7310602606128142
  0.8373177321554838  0.6332687850271382  0.8731855822584897
  0.8444845253311132  0.1841110064464163  0.9406244402010551
  0.8653333297250251  0.6734546284210283  0.1679129468096613
  0.1771688949438387  0.7847982329478159  0.9547108756597494
  0.3378186617168463  0.9074989228458369  0.0449692543491010
  0.4349417918689830  0.3766996087298566  0.3124380748078001
  0.0652774732789890  0.6616760071742079  0.8152706109405079
  0.7562372163538780  0.2643712426629862  0.7589417989837323
  0.9812635838210497  0.2041921833688867  0.4230942081901398
  0.0923601382731391  0.8659694007954107  0.7662019377493443
  0.0211737210207428  0.9987464991085211  0.4834289712161545
  0.7551856635438535  0.0108319730582772  0.5495528125772211
  0.2507306088071111  0.0877508388768330  0.5324854233120531
  0.5053381344429383  0.9509539309936074  0.2987148208293949
  0.6021729988503710  0.3774611907895038  0.6430894177616389
  0.9017570966151950  0.6738964226066807  0.6702478596608352
  0.8839713414996204  0.4383215914441891  0.1832809953397634
  0.1600383152542679  0.4245274407280606  0.0554146230455339
  0.8698369957137049  0.3808479593516279  0.6149540827579720
  0.0446270150791881  0.4604041643388792  0.8195782864593770
  0.9472180988653074  0.0566576767695715  0.8131746028993062
  0.8208938315368021  0.8660926992882370  0.3403970010082786
  0.4048062846388533  0.4637653550016394  0.9391204243212325
  0.9584582249346618  0.7669246136812071  0.9837410631765183
  0.3679296565603107  0.1691362350943419  0.3489685167598389
  0.3092198538392702  0.1185456899968277  0.0516196539692417
  0.6200423172419699  0.6156305234686273  0.8917987182807784
  0.3243534561257188  0.1973695330840090  0.7598567747538257
  0.7201904941227382  0.3305782540766399  0.0496247991990194
  0.6456222061743095  0.7115551828376233  0.2253548023912471
  0.1467359625248856  0.6713238488749257  0.6045843445482283
  0.5589950593070052  0.7802780056576623  0.4792240759368512
  0.1222535657924137  0.1799845030090330  0.9195233706719212
  0.0683631884522476  0.4216851033185229  0.4175639571782531
  0.5296269472650859  0.0962263801587993  0.5297729003029776
  0.5137099903493979  0.2554583547850889  0.1423601221897169
  0.9482324578830931  0.1356836099782640  0.1203105668469419
  0.3945339594757205  0.4546809481675851  0.5316306615893734
  0.6950187106806714  0.5883106431971133  0.5221133424892352
  0.5405571451452520  0.5036235008362914  0.1690194979517973
  0.2757131245154382  0.6343204333762853  0.8248543360932813
  0.1292279076409463  0.9076810397619888  0.1341802576077957
  0.4101281950385134  0.7919055090835957  0.6815609469797256
  0.5358165450765709  0.8514748721182090 -0.0008639037133037
  0.9111868657452715  0.6207856897550980  0.3857975487839366
  0.3283375791321111  0.5787425311949420  0.3262528128960099
  0.6261590977231860  0.3681656962584265  0.3951813008530140
  0.2387034110923540  0.3566746804729231  0.2609743071417204
  0.2790808604008915  0.9465798201656532  0.8491562170862248
  0.7426148383243480  0.8298062179909707  0.7815381606472943
  0.3416773906632665  0.7030236823556382  0.0657616206086901
  0.2108046530697888  0.8318063714762249  0.3660578026266523
  0.1323480224279732  0.1166586752758309  0.2803809493229987
  0.7399247206616307  0.9872273254854184  0.9821283101697239
  0.7989975714815571  0.1833171976203241  0.3215826286492202
  0.0992000721185132  0.2628169933835188  0.5993829717523139
  0.1159999991705345  0.6381851789375166  0.1447595861855130
 
  0.00000000E+00  0.00000000E+00  0.00000000E+00
  0.00000000E+00  0.00000000E+00  0.00000000E+00
  0.00000000E+00  0.00000000E+00  0.00000000E+00
  0.00000000E+00  0.00000000E+00  0.00000000E+00
  0.00000000E+00  0.00000000E+00  0.00000000E+00
  0.00000000E+00  0.00000000E+00  0.00000000E+00
  0.00000000E+00  0.00000000E+00  0.00000000E+00
  0.00000000E+00  0.00000000E+00  0.00000000E+00
  0.00000000E+00  0.00000000E+00  0.00000000E+00
  0.00000000E+00  0.00000000E+00  0.00000000E+00
  0.00000000E+00  0.00000000E+00  0.00000000E+00
  0.00000000E+00  0.00000000E+00  0.00000000E+00
  0.00000000E+00  0.00000000E+00  0.00000000E+00
  0.00000000E+00  0.00000000E+00  0.00000000E+00
  0.00000000E+00  0.00000000E+00  0.00000000E+00
  0.00000000E+00  0.00000000E+00  0.00000000E+00
  0.00000000E+00  0.00000000E+00  0.00000000E+00
  0.00000000E+00  0.00000000E+00  0.00000000E+00
  0.00000000E+00  0.00000000E+00  0.00000000E+00
  0.00000000E+00  0.00000000E+00  0.00000000E+00
  0.00000000E+00  0.00000000E+00  0.00000000E+00
  0.00000000E+00  0.00000000E+00  0.00000000E+00
  0.00000000E+00  0.00000000E+00  0.00000000E+00
  0.00000000E+00  0.00000000E+00  0.00000000E+00
  0.00000000E+00  0.00000000E+00  0.00000000E+00
  0.00000000E+00  0.00000000E+00  0.00000000E+00
  0.00000000E+00  0.00000000E+00  0.00000000E+00
  0.00000000E+00  0.00000000E+00  0.00000000E+00
  0.00000000E+00  0.00000000E+00  0.00000000E+00
  0.00000000E+00  0.00000000E+00  0.00000000E+00
  0.00000000E+00  0.00000000E+00  0.00000000E+00
  0.00000000E+00  0.00000000E+00  0.00000000E+00
  0.00000000E+00  0.00000000E+00  0.00000000E+00
  0.00000000E+00  0.00000000E+00  0.00000000E+00
  0.00000000E+00  0.00000000E+00  0.00000000E+00
  0.00000000E+00  0.00000000E+00  0.00000000E+00
  0.00000000E+00  0.00000000E+00  0.00000000E+00
  0.00000000E+00  0.00000000E+00  0.00000000E+00
  0.00000000E+00  0.00000000E+00  0.00000000E+00
  0.00000000E+00  0.00000000E+00  0.00000000E+00
  0.00000000E+00  0.00000000E+00  0.00000000E+00
  0.00000000E+00  0.00000000E+00  0.00000000E+00
  0.00000000E+00  0.00000000E+00  0.00000000E+00
  0.00000000E+00  0.00000000E+00  0.00000000E+00
  0.00000000E+00  0.00000000E+00  0.00000000E+00
  0.00000000E+00  0.00000000E+00  0.00000000E+00
  0.00000000E+00  0.00000000E+00  0.00000000E+00
  0.00000000E+00  0.00000000E+00  0.00000000E+00
  0.00000000E+00  0.00000000E+00  0.00000000E+00
  0.00000000E+00  0.00000000E+00  0.00000000E+00
  0.00000000E+00  0.00000000E+00  0.00000000E+00
  0.00000000E+00  0.00000000E+00  0.00000000E+00
  0.00000000E+00  0.00000000E+00  0.00000000E+00
  0.00000000E+00  0.00000000E+00  0.00000000E+00
  0.00000000E+00  0.00000000E+00  0.00000000E+00
  0.00000000E+00  0.00000000E+00  0.00000000E+00
  0.00000000E+00  0.00000000E+00  0.00000000E+00
  0.00000000E+00  0.00000000E+00  0.00000000E+00
  0.00000000E+00  0.00000000E+00  0.00000000E+00
  0.00000000E+00  0.00000000E+00  0.00000000E+00
  0.00000000E+00  0.00000000E+00  0.00000000E+00
  0.00000000E+00  0.00000000E+00  0.00000000E+00
  0.00000000E+00  0.00000000E+00  0.00000000E+00
  0.00000000E+00  0.00000000E+00  0.00000000E+00
  0.00000000E+00  0.00000000E+00  0.00000000E+00
  0.00000000E+00  0.00000000E+00  0.00000000E+00
  0.00000000E+00  0.00000000E+00  0.00000000E+00
  0.00000000E+00  0.00000000E+00  0.00000000E+00
  0.00000000E+00  0.00000000E+00  0.00000000E+00
  0.00000000E+00  0.00000000E+00  0.00000000E+00
  0.00000000E+00  0.00000000E+00  0.00000000E+00
  0.00000000E+00  0.00000000E+00  0.00000000E+00
  0.00000000E+00  0.00000000E+00  0.00000000E+00
  0.00000000E+00  0.00000000E+00  0.00000000E+00
  0.00000000E+00  0.00000000E+00  0.00000000E+00
  0.00000000E+00  0.00000000E+00  0.00000000E+00
  0.00000000E+00  0.00000000E+00  0.00000000E+00
  0.00000000E+00  0.00000000E+00  0.00000000E+00
  0.00000000E+00  0.00000000E+00  0.00000000E+00
  0.00000000E+00  0.00000000E+00  0.00000000E+00
  0.00000000E+00  0.00000000E+00  0.00000000E+00
  0.00000000E+00  0.00000000E+00  0.00000000E+00
  0.00000000E+00  0.00000000E+00  0.00000000E+00
  0.00000000E+00  0.00000000E+00  0.00000000E+00
  0.00000000E+00  0.00000000E+00  0.00000000E+00
  0.00000000E+00  0.00000000E+00  0.00000000E+00
  0.00000000E+00  0.00000000E+00  0.00000000E+00
  0.00000000E+00  0.00000000E+00  0.00000000E+00
  0.00000000E+00  0.00000000E+00  0.00000000E+00
  0.00000000E+00  0.00000000E+00  0.00000000E+00
  0.00000000E+00  0.00000000E+00  0.00000000E+00
  0.00000000E+00  0.00000000E+00  0.00000000E+00
  0.00000000E+00  0.00000000E+00  0.00000000E+00
  0.00000000E+00  0.00000000E+00  0.00000000E+00
  0.00000000E+00  0.00000000E+00  0.00000000E+00
  0.00000000E+00  0.00000000E+00  0.00000000E+00
