  Built with Packmol                    
    1.000000000000000     
    11.1555833839036751   -0.1327650188875049    0.0816379986305469
    -0.1311322216355225   11.3470962052769515   -0.0257986962150150
     0.0803171140975937   -0.0163226085054659   11.2617379001411209
   Fe   Ge
    48    48
Direct
  0.1774472617387488  0.0719168512451418  0.5317875897483546
  0.9568118344391934  0.8990588894198055  0.9641616991113011
  0.9546244904285714  0.1211804844634301  0.5826351481416836
  0.3394519764465684  0.5121148969605613  0.8650057233950363
  0.4749554783640946  0.3815214177134791  0.5635723709955514
  0.2646041194832307  0.2171559956559079  0.3957657349619055
  0.5863465124318097  0.2171636517469722  0.6699675858376821
  0.2208572330763516  0.6458132685579230  0.5292924208227987
  0.4454161370158261  0.7202786229747318  0.2223625582634980
  0.1433030509955202  0.6377875036941774  0.9016388017656709
  0.3252762545566483  0.3177790262149145  0.2064848843371223
  0.5347202638697155  0.3611594039175117  0.1462329505765112
  0.6692931195827256  0.8116121995492094  0.2363737706102498
  0.0887631084366376  0.2856949202369350  0.2584130895165302
  0.2716365475384350  0.6293048613388876  0.0869527046104750
  0.8900960751628020  0.4071370776753014  0.5234453805907364
  0.6667660837229761  0.1898484364258053  0.2999497011121548
  0.4487192872483661  0.1488909460981773  0.2662129478020887
  0.1027139311211869  0.4649429217163146  0.4062268815831658
  0.3950790201088878  0.3374533582935726  0.7587681548058072
  0.3471952906553639  0.8345373568318024  0.0623677081557545
  0.8312180197640657  0.0009891003513260  0.2335209660873403
  0.9138421544821398  0.8075683823879700  0.3523630012173129
  0.7292596785975789  0.3131063819242570  0.8588330809143514
  0.4109393775004335  0.5088206528779651  0.2290714269152829
  0.5236687322250191  0.3706069760111319  0.3523617078757155
  0.3739035614386808  0.0195008469931253  0.4497353399469901
  0.5224357389374674  0.9959702671233188  0.9714556025623722
  0.4374028170905646  0.1758484885846840  0.0571618691168396
  0.2756240390683686  0.6265356370948254  0.3332246702819504
  0.2100815944995418  0.7914404965128341  0.2380102132480459
  0.7205332677246901  0.4972298111855622  0.4168893995248482
  0.7226610374036611  0.9003275956873509  0.0209778484287213
  0.7298599720726457  0.3761964169530643  0.2378255436396017
  0.5433310520340839  0.3796602178581310  0.9371356758640772
  0.6652659231413693  0.2167412083910136  0.0633728109943448
  0.0696144373679246  0.9595074999448485  0.7191952819231275
  0.4603919737121913  0.5860943882914853  0.4563800929564223
  0.7208330154070239  0.0034606135933188  0.6180538936144018
  0.0280719536942229  0.0969463002294830  0.3554483322406412
  0.5799157756500861  0.9840014070224470  0.3734904779990131
  0.7152186575833852  0.0952672199621531  0.8563851449372137
  0.2094946603235712  0.8668939495254548  0.8614261028521071
  0.1550988354499410  0.4507195391497660  0.9975487860141712
  0.5178492299959458  0.1814175465994197  0.4675894601452129
  0.9870430126366259  0.7386568387148245  0.5980697620297093
  0.8162942265071322  0.5864875049394556  0.1644601984195191
  0.0226293406818812  0.1045234806198181  0.1177229895977092
  0.8008403333660326  0.2086738099543624  0.6866591862904983
  0.0047646279108520  0.9311677394000384  0.5111999041128286
  0.3305365178949273  0.3370211555182578  0.9850145342328815
  0.7754556410019973  0.6987847396727744  0.9428482908730018
  0.9840638552078360  0.7552043425238821  0.8092266397236330
  0.6129025115815523  0.5880305913984074  0.2659933994554464
  0.4910750226985741  0.7904483903641477  0.4193472935057443
  0.3433532142379434  0.1973096715881226  0.6063962846844646
  0.0690372215883457  0.6740084960926467  0.3732555816438747
  0.5499053868703783  0.7823071881109556  0.0459184649597262
  0.3144505174673569  0.4271664753916653  0.4208917505915934
  0.3542815664219958  0.7144889219470869  0.8820571856890069
  0.0543708714193372  0.5307256774366635  0.6091042965589892
  0.6446936099548566  0.8980264569144154  0.8125660001881414
  0.4829042276944264  0.5587990494792408  0.0285899863080346
  0.3572024041138704  0.5539400309810958  0.6571593246682639
  0.7385114645676936  0.8678784211245514  0.4503170753437189
  0.1116064274152322  0.1786810892765658  0.7198409176097798
  0.1284583637541772  0.7960754333311542  0.0458061612735250
  0.8498897453676193  0.4348524854590252  0.7350279052634860
  0.6189271755278583  0.0262457586860592  0.1642790950997579
  0.8438455735364840  0.0848295006414403  0.0131173121638000
  0.1563035986856249  0.4143168445002345  0.7864947010138792
  0.1876277129035202  0.7825747079431125  0.6769506574379704
  0.8504101548896941  0.6400936517111973  0.4774617656758977
  0.8778403718242274  0.2202295156809768  0.2253201636620545
  0.8769690568610073  0.0003722846104992  0.7625498003413256
  0.1824693959864163  0.4747065379643089  0.2072282016738072
  0.7349659856685165  0.4343752626064514  0.0325439244935239
  0.2262956101063835  0.1290104118334838  0.1947051038296621
  0.0524809205753769  0.9275502336269952  0.2276228170272390
  0.8033085390520753  0.0937221069058296  0.4339321713582507
  0.0631706119588316  0.2706628882010875  0.4797607376277568
  0.8673302596467423  0.7935258974691450  0.1407626466023828
  0.1015458399525428  0.0514398145204922  0.9163770043559509
  0.4059759726349199  0.9266192056190548  0.7906096127116768
  0.6873576414956233  0.3112653143400337  0.4966670001071591
  0.9201852906569812  0.4652773824654943  0.3015767126863338
  0.3827824070209331  0.9328017417025407  0.2452556927219831
  0.5954889955949270  0.4379440282012510  0.7438051733615367
  0.5151913057914328  0.0132110676674273  0.6081535059339132
  0.2382616209182729  0.8554401547581207  0.4482536789262426
  0.7679147025858768  0.7752537050286676  0.6599699672279229
  0.6242459994692950  0.6002579012357643  0.5865832027214637
  0.3086242222197626  0.0196091864217962  0.9894818706076194
  0.5225710789363802  0.1787652383834626  0.8628754545777468
  0.9865955689009169  0.5598306515240381  0.0412556264632897
  0.0606308002188740  0.2805451015724643  0.0315617630437472
 
  0.00000000E+00  0.00000000E+00  0.00000000E+00
  0.00000000E+00  0.00000000E+00  0.00000000E+00
  0.00000000E+00  0.00000000E+00  0.00000000E+00
  0.00000000E+00  0.00000000E+00  0.00000000E+00
  0.00000000E+00  0.00000000E+00  0.00000000E+00
  0.00000000E+00  0.00000000E+00  0.00000000E+00
  0.00000000E+00  0.00000000E+00  0.00000000E+00
  0.00000000E+00  0.00000000E+00  0.00000000E+00
  0.00000000E+00  0.00000000E+00  0.00000000E+00
  0.00000000E+00  0.00000000E+00  0.00000000E+00
  0.00000000E+00  0.00000000E+00  0.00000000E+00
  0.00000000E+00  0.00000000E+00  0.00000000E+00
  0.00000000E+00  0.00000000E+00  0.00000000E+00
  0.00000000E+00  0.00000000E+00  0.00000000E+00
  0.00000000E+00  0.00000000E+00  0.00000000E+00
  0.00000000E+00  0.00000000E+00  0.00000000E+00
  0.00000000E+00  0.00000000E+00  0.00000000E+00
  0.00000000E+00  0.00000000E+00  0.00000000E+00
  0.00000000E+00  0.00000000E+00  0.00000000E+00
  0.00000000E+00  0.00000000E+00  0.00000000E+00
  0.00000000E+00  0.00000000E+00  0.00000000E+00
  0.00000000E+00  0.00000000E+00  0.00000000E+00
  0.00000000E+00  0.00000000E+00  0.00000000E+00
  0.00000000E+00  0.00000000E+00  0.00000000E+00
  0.00000000E+00  0.00000000E+00  0.00000000E+00
  0.00000000E+00  0.00000000E+00  0.00000000E+00
  0.00000000E+00  0.00000000E+00  0.00000000E+00
  0.00000000E+00  0.00000000E+00  0.00000000E+00
  0.00000000E+00  0.00000000E+00  0.00000000E+00
  0.00000000E+00  0.00000000E+00  0.00000000E+00
  0.00000000E+00  0.00000000E+00  0.00000000E+00
  0.00000000E+00  0.00000000E+00  0.00000000E+00
  0.00000000E+00  0.00000000E+00  0.00000000E+00
  0.00000000E+00  0.00000000E+00  0.00000000E+00
  0.00000000E+00  0.00000000E+00  0.00000000E+00
  0.00000000E+00  0.00000000E+00  0.00000000E+00
  0.00000000E+00  0.00000000E+00  0.00000000E+00
  0.00000000E+00  0.00000000E+00  0.00000000E+00
  0.00000000E+00  0.00000000E+00  0.00000000E+00
  0.00000000E+00  0.00000000E+00  0.00000000E+00
  0.00000000E+00  0.00000000E+00  0.00000000E+00
  0.00000000E+00  0.00000000E+00  0.00000000E+00
  0.00000000E+00  0.00000000E+00  0.00000000E+00
  0.00000000E+00  0.00000000E+00  0.00000000E+00
  0.00000000E+00  0.00000000E+00  0.00000000E+00
  0.00000000E+00  0.00000000E+00  0.00000000E+00
  0.00000000E+00  0.00000000E+00  0.00000000E+00
  0.00000000E+00  0.00000000E+00  0.00000000E+00
  0.00000000E+00  0.00000000E+00  0.00000000E+00
  0.00000000E+00  0.00000000E+00  0.00000000E+00
  0.00000000E+00  0.00000000E+00  0.00000000E+00
  0.00000000E+00  0.00000000E+00  0.00000000E+00
  0.00000000E+00  0.00000000E+00  0.00000000E+00
  0.00000000E+00  0.00000000E+00  0.00000000E+00
  0.00000000E+00  0.00000000E+00  0.00000000E+00
  0.00000000E+00  0.00000000E+00  0.00000000E+00
  0.00000000E+00  0.00000000E+00  0.00000000E+00
  0.00000000E+00  0.00000000E+00  0.00000000E+00
  0.00000000E+00  0.00000000E+00  0.00000000E+00
  0.00000000E+00  0.00000000E+00  0.00000000E+00
  0.00000000E+00  0.00000000E+00  0.00000000E+00
  0.00000000E+00  0.00000000E+00  0.00000000E+00
  0.00000000E+00  0.00000000E+00  0.00000000E+00
  0.00000000E+00  0.00000000E+00  0.00000000E+00
  0.00000000E+00  0.00000000E+00  0.00000000E+00
  0.00000000E+00  0.00000000E+00  0.00000000E+00
  0.00000000E+00  0.00000000E+00  0.00000000E+00
  0.00000000E+00  0.00000000E+00  0.00000000E+00
  0.00000000E+00  0.00000000E+00  0.00000000E+00
  0.00000000E+00  0.00000000E+00  0.00000000E+00
  0.00000000E+00  0.00000000E+00  0.00000000E+00
  0.00000000E+00  0.00000000E+00  0.00000000E+00
  0.00000000E+00  0.00000000E+00  0.00000000E+00
  0.00000000E+00  0.00000000E+00  0.00000000E+00
  0.00000000E+00  0.00000000E+00  0.00000000E+00
  0.00000000E+00  0.00000000E+00  0.00000000E+00
  0.00000000E+00  0.00000000E+00  0.00000000E+00
  0.00000000E+00  0.00000000E+00  0.00000000E+00
  0.00000000E+00  0.00000000E+00  0.00000000E+00
  0.00000000E+00  0.00000000E+00  0.00000000E+00
  0.00000000E+00  0.00000000E+00  0.00000000E+00
  0.00000000E+00  0.00000000E+00  0.00000000E+00
  0.00000000E+00  0.00000000E+00  0.00000000E+00
  0.00000000E+00  0.00000000E+00  0.00000000E+00
  0.00000000E+00  0.00000000E+00  0.00000000E+00
  0.00000000E+00  0.00000000E+00  0.00000000E+00
  0.00000000E+00  0.00000000E+00  0.00000000E+00
  0.00000000E+00  0.00000000E+00  0.00000000E+00
  0.00000000E+00  0.00000000E+00  0.00000000E+00
  0.00000000E+00  0.00000000E+00  0.00000000E+00
  0.00000000E+00  0.00000000E+00  0.00000000E+00
  0.00000000E+00  0.00000000E+00  0.00000000E+00
  0.00000000E+00  0.00000000E+00  0.00000000E+00
  0.00000000E+00  0.00000000E+00  0.00000000E+00
  0.00000000E+00  0.00000000E+00  0.00000000E+00
  0.00000000E+00  0.00000000E+00  0.00000000E+00
