  Built with Packmol                    
   1.00000000000000     
    11.1932431367672987    0.1653477031112233    0.1773798860312261
     0.1654429106637007   11.3449575301794408   -0.0356986831312933
     0.1794209019942458   -0.0375011304534823   11.1393118510498237
   Fe   Ge
    48    48
Direct
  0.1483683346298746  0.6348473253812464  0.3824790243264785
  0.9098148994700016  0.1443293494512785  0.6158518495964046
  0.9184759438355717  0.9289853146194698  0.6576321043746673
  0.4633353191089287  0.3761882630711995  0.7465100898385394
  0.5129126128122081  0.0409935733360800  0.1027035175860720
  0.1510759965901413  0.1044850308306813  0.7159656701509831
  0.0376932307575749  0.2987500392921104  0.2303345489071977
  0.7269874156172227  0.5392463758230098  0.0702029617140495
  0.7628415178934755  0.8064727372477589  0.5508106279115237
  0.6850803291988515  0.9015059288733094  0.1869863061609322
  0.4849719755380967  0.0027076562775518  0.8737993496259895
  0.7360388160294328  0.0454773655094364  0.7788529759698584
  0.9913867158733988  0.7947067214697122  0.4859640435769016
  0.9666305513525979  0.2785035846534632  0.7725625903938974
  0.7356648313300868  0.7705162220178524  0.0026078185855299
  0.7500843711659569  0.2204871665513066  0.4703688987196317
  0.6717640877595522  0.4820747139435924  0.7274853727888950
  0.5468671730403717  0.5731512850716309  0.3907521132591262
  0.7526961238841539  0.5422350987262632  0.3235486410830833
  0.1875651980468650  0.9019259860734201  0.5776383166935717
  0.5822889469066218  0.1649083875012797  0.3158928193557998
  0.0268081890070371  0.7860327157623554  0.2769299067740230
  0.3525237031368282  0.7007417785565405  0.5207935071720773
  0.8732841603617675  0.3845392139161923  0.3990461889824884
  0.3987390217871734  0.9046052452070534  0.4840335677830712
  0.7099274179572636  0.1263421404090088  0.1258090639595072
  0.6196181760820985  0.1667976436368362  0.9332888845992112
  0.9822363582036725  0.3163800599552108  0.0079822125894463
  0.3070358008107735  0.5277174717075538  0.1406470597598632
  0.5904190056508098  0.9282335371878212  0.6551073539856478
  0.9552048144451625  0.5562597372564879  0.0178453024104890
  0.8986745581866911  0.9204699141988689  0.1297449526848145
  0.8197806710645366  0.4174861105811713  0.8857081681198437
  0.4286185876193159  0.2454738605110274  0.9244905405983815
  0.3000940543474667  0.0024046263111914  0.2416539003695471
  0.5932623449618670  0.3991368875414515  0.9183657331749701
  0.4485693425020872  0.5873808826626722  0.7905872595318544
  0.3773171956412675  0.0049705160480868  0.6817374336736857
  0.5390018876816187  0.1469545831059881  0.7372505529183163
  0.8323184104433383  0.6261052741354309  0.8550990305816046
  0.8393800799845214  0.1766190903557634  0.9345962659088399
  0.8591582335757796  0.6868677256112700  0.1750650807764510
  0.1681046255985680  0.7992643048247235  0.9573954209309328
  0.3331882278951652  0.9140267758395273  0.0440161778285775
  0.4436081868418565  0.3760383449269917  0.2881605511626688
  0.0526551726425721  0.6607768081207764  0.8151611079642025
  0.7333813742472945  0.2638601527764652  0.7746010935689716
  0.9590072548540522  0.1892245837187126  0.4041450760620978
  0.0878287052813146  0.8584657771771014  0.7603285736077788
  0.0287642414803499  0.0016479340067867  0.4816187559413570
  0.7528519123756987  0.0213908947844114  0.5549792789723392
  0.2629298053020745  0.0892763546076980  0.5257006344938999
  0.5046683387791020  0.9513591754409575  0.2996730956913480
  0.6016761533174163  0.3057566990047573  0.6045715500068857
  0.9102841294721290  0.7041211560456638  0.6668958776058511
  0.8899383157253541  0.4470320217002240  0.1840034299656201
  0.1419332266816059  0.4326558725841029  0.0588367069551439
  0.8449014956480868  0.3726580592152217  0.6177403066115079
  0.0220027784756092  0.4650889075924790  0.8210983696648350
  0.9584334594885371  0.0608804292268982  0.8105407264212551
  0.8221206350251291  0.8502972764198725  0.3455647560834774
  0.3766723359951917  0.4515568472332155  0.9482545096496423
  0.9542028291285546  0.7680612204467524  0.9848641001998801
  0.3697864045661399  0.1848965467426345  0.3503664554958569
  0.3103136340165001  0.1219347163316196  0.0521751656651649
  0.6201513954569764  0.6170249139779593  0.8982964396828602
  0.3275117663797355  0.2171446137047194  0.7380407917992629
  0.7372597076530468  0.3220490176009329  0.0626333693990167
  0.6425625834026011  0.6981326863531355  0.2240333394815773
  0.1493160349656844  0.6820254002269928  0.5973083056246615
  0.5665957886662044  0.7721643152050626  0.4797228065114600
  0.1372677001905611  0.2049207004818347  0.9046230081884793
  0.0818094952331576  0.4280899892264387  0.4276982337573031
  0.5222054679172041  0.0866509169147269  0.5201284368040362
  0.5101214096081640  0.2579950915242405  0.1218666255995623
  0.9466185868237839  0.1310006498524269  0.1201165951138527
  0.4722768373341621  0.5211991176034879  0.5884737932821144
  0.7131394867631707  0.5872277106615483  0.5377819408787412
  0.5263657404947385  0.5073132858147654  0.1457765993365977
  0.2542143763019384  0.6394891511468821  0.8314863795664462
  0.1243741088430227  0.9161244517551167  0.1415534599015066
  0.4349765622147853  0.7910286675687844  0.7067995397926244
  0.5349721979341466  0.8438481601449160  0.0155025655732585
  0.9330709714756862  0.6184953188534573  0.3861911901705489
  0.3473021580591341  0.5750812592708580  0.3416372625936686
  0.6386685500724943  0.3717109634226288  0.3659697076188615
  0.2362978288962899  0.3656173803528612  0.2644382387975407
  0.2632090914370642  0.9607114713969511  0.8503721744097268
  0.7346116302366645  0.8294903345421043  0.7807124599736097
  0.3399218579184197  0.7064579007290381  0.0527621108992903
  0.2236771850293259  0.8350188041435580  0.3742643761225690
  0.1364797591318639  0.1259780620434970  0.2831908950896376
  0.7434967326573174  0.9802154170648857  0.9813563261060195
  0.7955936370640642  0.0826923805711090  0.3079798103801776
  0.0861084049894054  0.2690227657934597  0.5890888274964660
  0.1163049768316281  0.6469567262514309  0.1413344853946978
 
  0.00000000E+00  0.00000000E+00  0.00000000E+00
  0.00000000E+00  0.00000000E+00  0.00000000E+00
  0.00000000E+00  0.00000000E+00  0.00000000E+00
  0.00000000E+00  0.00000000E+00  0.00000000E+00
  0.00000000E+00  0.00000000E+00  0.00000000E+00
  0.00000000E+00  0.00000000E+00  0.00000000E+00
  0.00000000E+00  0.00000000E+00  0.00000000E+00
  0.00000000E+00  0.00000000E+00  0.00000000E+00
  0.00000000E+00  0.00000000E+00  0.00000000E+00
  0.00000000E+00  0.00000000E+00  0.00000000E+00
  0.00000000E+00  0.00000000E+00  0.00000000E+00
  0.00000000E+00  0.00000000E+00  0.00000000E+00
  0.00000000E+00  0.00000000E+00  0.00000000E+00
  0.00000000E+00  0.00000000E+00  0.00000000E+00
  0.00000000E+00  0.00000000E+00  0.00000000E+00
  0.00000000E+00  0.00000000E+00  0.00000000E+00
  0.00000000E+00  0.00000000E+00  0.00000000E+00
  0.00000000E+00  0.00000000E+00  0.00000000E+00
  0.00000000E+00  0.00000000E+00  0.00000000E+00
  0.00000000E+00  0.00000000E+00  0.00000000E+00
  0.00000000E+00  0.00000000E+00  0.00000000E+00
  0.00000000E+00  0.00000000E+00  0.00000000E+00
  0.00000000E+00  0.00000000E+00  0.00000000E+00
  0.00000000E+00  0.00000000E+00  0.00000000E+00
  0.00000000E+00  0.00000000E+00  0.00000000E+00
  0.00000000E+00  0.00000000E+00  0.00000000E+00
  0.00000000E+00  0.00000000E+00  0.00000000E+00
  0.00000000E+00  0.00000000E+00  0.00000000E+00
  0.00000000E+00  0.00000000E+00  0.00000000E+00
  0.00000000E+00  0.00000000E+00  0.00000000E+00
  0.00000000E+00  0.00000000E+00  0.00000000E+00
  0.00000000E+00  0.00000000E+00  0.00000000E+00
  0.00000000E+00  0.00000000E+00  0.00000000E+00
  0.00000000E+00  0.00000000E+00  0.00000000E+00
  0.00000000E+00  0.00000000E+00  0.00000000E+00
  0.00000000E+00  0.00000000E+00  0.00000000E+00
  0.00000000E+00  0.00000000E+00  0.00000000E+00
  0.00000000E+00  0.00000000E+00  0.00000000E+00
  0.00000000E+00  0.00000000E+00  0.00000000E+00
  0.00000000E+00  0.00000000E+00  0.00000000E+00
  0.00000000E+00  0.00000000E+00  0.00000000E+00
  0.00000000E+00  0.00000000E+00  0.00000000E+00
  0.00000000E+00  0.00000000E+00  0.00000000E+00
  0.00000000E+00  0.00000000E+00  0.00000000E+00
  0.00000000E+00  0.00000000E+00  0.00000000E+00
  0.00000000E+00  0.00000000E+00  0.00000000E+00
  0.00000000E+00  0.00000000E+00  0.00000000E+00
  0.00000000E+00  0.00000000E+00  0.00000000E+00
  0.00000000E+00  0.00000000E+00  0.00000000E+00
  0.00000000E+00  0.00000000E+00  0.00000000E+00
  0.00000000E+00  0.00000000E+00  0.00000000E+00
  0.00000000E+00  0.00000000E+00  0.00000000E+00
  0.00000000E+00  0.00000000E+00  0.00000000E+00
  0.00000000E+00  0.00000000E+00  0.00000000E+00
  0.00000000E+00  0.00000000E+00  0.00000000E+00
  0.00000000E+00  0.00000000E+00  0.00000000E+00
  0.00000000E+00  0.00000000E+00  0.00000000E+00
  0.00000000E+00  0.00000000E+00  0.00000000E+00
  0.00000000E+00  0.00000000E+00  0.00000000E+00
  0.00000000E+00  0.00000000E+00  0.00000000E+00
  0.00000000E+00  0.00000000E+00  0.00000000E+00
  0.00000000E+00  0.00000000E+00  0.00000000E+00
  0.00000000E+00  0.00000000E+00  0.00000000E+00
  0.00000000E+00  0.00000000E+00  0.00000000E+00
  0.00000000E+00  0.00000000E+00  0.00000000E+00
  0.00000000E+00  0.00000000E+00  0.00000000E+00
  0.00000000E+00  0.00000000E+00  0.00000000E+00
  0.00000000E+00  0.00000000E+00  0.00000000E+00
  0.00000000E+00  0.00000000E+00  0.00000000E+00
  0.00000000E+00  0.00000000E+00  0.00000000E+00
  0.00000000E+00  0.00000000E+00  0.00000000E+00
  0.00000000E+00  0.00000000E+00  0.00000000E+00
  0.00000000E+00  0.00000000E+00  0.00000000E+00
  0.00000000E+00  0.00000000E+00  0.00000000E+00
  0.00000000E+00  0.00000000E+00  0.00000000E+00
  0.00000000E+00  0.00000000E+00  0.00000000E+00
  0.00000000E+00  0.00000000E+00  0.00000000E+00
  0.00000000E+00  0.00000000E+00  0.00000000E+00
  0.00000000E+00  0.00000000E+00  0.00000000E+00
  0.00000000E+00  0.00000000E+00  0.00000000E+00
  0.00000000E+00  0.00000000E+00  0.00000000E+00
  0.00000000E+00  0.00000000E+00  0.00000000E+00
  0.00000000E+00  0.00000000E+00  0.00000000E+00
  0.00000000E+00  0.00000000E+00  0.00000000E+00
  0.00000000E+00  0.00000000E+00  0.00000000E+00
  0.00000000E+00  0.00000000E+00  0.00000000E+00
  0.00000000E+00  0.00000000E+00  0.00000000E+00
  0.00000000E+00  0.00000000E+00  0.00000000E+00
  0.00000000E+00  0.00000000E+00  0.00000000E+00
  0.00000000E+00  0.00000000E+00  0.00000000E+00
  0.00000000E+00  0.00000000E+00  0.00000000E+00
  0.00000000E+00  0.00000000E+00  0.00000000E+00
  0.00000000E+00  0.00000000E+00  0.00000000E+00
  0.00000000E+00  0.00000000E+00  0.00000000E+00
  0.00000000E+00  0.00000000E+00  0.00000000E+00
  0.00000000E+00  0.00000000E+00  0.00000000E+00
