  Built with Packmol                    
   1.00000000000000     
    11.1825193833607859    0.1512876871058035    0.1352812688679098
     0.1566030039668114   11.2751310011919550   -0.0271753748045376
     0.1370204005967605   -0.0268734415503323   11.2553872363305754
   Fe   Ge
    48    48
Direct
  0.1497115805489386  0.6446525623103625  0.4082972854338323
  0.9418691561835999  0.1598741874068921  0.5818269870474353
  0.9423021070786390  0.9411447482520572  0.6327147874378696
  0.4245361572660400  0.3723296528456004  0.7320358460130620
  0.5094728085554223  0.0420641551105874  0.0983832942082472
  0.1340750880178589  0.0875284328975212  0.7179502233011235
  0.0457668879754038  0.3105999747556041  0.2386197428290444
  0.7329575409892470  0.5435647496153493  0.0716571059063682
  0.7632226466525367  0.8232788433225409  0.5679288943517378
  0.6902405100635391  0.9193234491202702  0.2012425617177414
  0.4752129522933330  0.0176516733997261  0.8801786175346393
  0.7093668282323975  0.0216326267514972  0.7969896107971408
  0.9823023541366851  0.7763417649682154  0.5046946640379346
  0.9761691487233861  0.2737231311420629  0.7717645897030323
  0.7307632038872072  0.7642599541795718  0.0172980140111534
  0.7454333015797800  0.2277446676980404  0.4871311414833812
  0.7088098317134026  0.5190115864042610  0.7140041620090471
  0.5470290232720671  0.5822985043612547  0.3820617801940926
  0.7604225309781896  0.5404539662651686  0.3156200652884920
  0.1854091530880666  0.8852766338391973  0.5685396678356724
  0.5720834320067638  0.1773280229765533  0.3182718262662760
  0.0259519383233240  0.7976316390457825  0.2897742424790692
  0.3505956995789390  0.7015241185617072  0.5183280777183228
  0.8814330302558631  0.3767301865579569  0.4018783211171808
  0.3973904276142690  0.9117684361442073  0.4799660931691250
  0.6997381449304854  0.1410517922084722  0.1338133182549655
  0.6261954562427192  0.1661425840222250  0.9280350245299331
  0.9806522249676348  0.3338835781092300  0.0000408926921978
  0.3159362002973722  0.5291998541925480  0.1358772531666972
  0.5811377292291766  0.9239023226997674  0.6522827610420947
  0.9628281881991256  0.5543194465314798  0.0167541212268389
  0.9093307563317481  0.9278480018870354  0.1403198720310499
  0.8144644202316158  0.4083673359452433  0.8615720376838070
  0.4303679769013158  0.2431085784305296  0.9231849164987551
  0.3087656914670873  0.0049614052090661  0.2257246977419172
  0.5908066062021788  0.3724496704092672  0.8481884439802556
  0.4524438952226433  0.5825708737946584  0.7800453413204025
  0.3723745611528315  0.0013016235613321  0.6786802066710749
  0.5294202806498518  0.1568977415767350  0.7253890112341779
  0.8315523552730184  0.6290812546744604  0.8661313866020279
  0.8518561795661270  0.1680919963937910  0.9572000135227370
  0.8754789965425331  0.6842775314378287  0.1784314439330359
  0.1658822640761173  0.7964673667528714  0.9569693788815243
  0.3338180934336634  0.9164304897052631  0.0378325916700248
  0.4460726909018220  0.3769233436087518  0.2875501611474789
  0.0568141836866118  0.6597738203674339  0.8169665365907619
  0.7558254259885970  0.2260960345248151  0.7439047113400221
  0.9582933614049622  0.1649038234160045  0.3787267479596252
  0.0814427882547690  0.8584538029699971  0.7565015465116431
  0.0328599728923464  0.9792219925222341  0.4435257946351427
  0.7539258545288448  0.0417422095660882  0.5855536181394996
  0.2488943671975363  0.0832287063582555  0.5292731196693268
  0.5044401126475933  0.9565913476257180  0.3001458800593682
  0.6106054096295210  0.3355760809080834  0.6230655027058702
  0.8950851689445543  0.6774737610758095  0.6713984179031200
  0.8922786769314897  0.4430437424164637  0.1848374475065953
  0.1492405792269622  0.4263987855590656  0.0660292300096472
  0.8613317166568208  0.3790840160574547  0.6184824459943385
  0.0278158815760747  0.4617678684474242  0.8244612453467184
  0.9227692363785067  0.0668509351852222  0.7919690134836941
  0.8197192340091348  0.8453972831813061  0.3556647852040911
  0.3855353159387036  0.4475121946729743  0.9475156339630715
  0.9516661619233062  0.7703686752503671  0.9844356756864698
  0.3625077233620857  0.1832526862314765  0.3535911543918502
  0.3004220551797090  0.1270880579388844  0.0406353600522777
  0.6183250881567446  0.5980355796963011  0.9033617171537855
  0.3115789437191623  0.1954865432941020  0.7582628175969433
  0.7291358225224798  0.3321614924740999  0.0401007847789501
  0.6527287339195240  0.7072768420646156  0.2289724909209525
  0.1558335932975652  0.6701831687433568  0.6167218068905882
  0.5625820645084616  0.7772933228770640  0.4808271631830223
  0.0924984065682111  0.1643130410886755  0.9230940352001369
  0.0907920439565331  0.4276452765994492  0.4318603367282776
  0.5195733986293121  0.0947210781972601  0.5192614802968123
  0.5039929116525386  0.2603702937125263  0.1218960205100572
  0.9274142929691038  0.1629950714947981  0.1512647199231196
  0.4729969303220614  0.5248669159029120  0.5757316900526135
  0.7159099308081593  0.5931976184030532  0.5162325211441257
  0.5369759684871767  0.5155991889353686  0.1601617405869575
  0.2604935345027286  0.6363184558760153  0.8447472337332016
  0.1320639557475474  0.9111097603332539  0.1404321761581571
  0.4234060247033398  0.7891573148781745  0.7016008602107320
  0.5336013322552446  0.8468246153784946  0.0061343482756939
  0.9408761675712967  0.6101971309052203  0.3848865521050655
  0.3421179968280725  0.5739879953005342  0.3422052702693748
  0.6410172844057982  0.3759428988125393  0.3719195140931788
  0.2425113847384850  0.3665321122817247  0.2643238277194868
  0.2635116159230932  0.9491193782972900  0.8454514967809246
  0.7210937013054206  0.8082722481352675  0.7875257223801668
  0.3388374817039193  0.7132155936903075  0.0643588781773516
  0.2358651132964056  0.8385558676838514  0.3597245323583564
  0.1450101995781878  0.1305096855302850  0.2682000044826225
  0.7468673789965479  0.9803891190469898  0.9985340686061406
  0.7716524120132533  0.0863575174703826  0.3237197803876413
  0.1220068160847418  0.2856062159964452  0.6145906403011168
  0.1158578707495153  0.6500839968890801  0.1525948489880662
 
  0.00000000E+00  0.00000000E+00  0.00000000E+00
  0.00000000E+00  0.00000000E+00  0.00000000E+00
  0.00000000E+00  0.00000000E+00  0.00000000E+00
  0.00000000E+00  0.00000000E+00  0.00000000E+00
  0.00000000E+00  0.00000000E+00  0.00000000E+00
  0.00000000E+00  0.00000000E+00  0.00000000E+00
  0.00000000E+00  0.00000000E+00  0.00000000E+00
  0.00000000E+00  0.00000000E+00  0.00000000E+00
  0.00000000E+00  0.00000000E+00  0.00000000E+00
  0.00000000E+00  0.00000000E+00  0.00000000E+00
  0.00000000E+00  0.00000000E+00  0.00000000E+00
  0.00000000E+00  0.00000000E+00  0.00000000E+00
  0.00000000E+00  0.00000000E+00  0.00000000E+00
  0.00000000E+00  0.00000000E+00  0.00000000E+00
  0.00000000E+00  0.00000000E+00  0.00000000E+00
  0.00000000E+00  0.00000000E+00  0.00000000E+00
  0.00000000E+00  0.00000000E+00  0.00000000E+00
  0.00000000E+00  0.00000000E+00  0.00000000E+00
  0.00000000E+00  0.00000000E+00  0.00000000E+00
  0.00000000E+00  0.00000000E+00  0.00000000E+00
  0.00000000E+00  0.00000000E+00  0.00000000E+00
  0.00000000E+00  0.00000000E+00  0.00000000E+00
  0.00000000E+00  0.00000000E+00  0.00000000E+00
  0.00000000E+00  0.00000000E+00  0.00000000E+00
  0.00000000E+00  0.00000000E+00  0.00000000E+00
  0.00000000E+00  0.00000000E+00  0.00000000E+00
  0.00000000E+00  0.00000000E+00  0.00000000E+00
  0.00000000E+00  0.00000000E+00  0.00000000E+00
  0.00000000E+00  0.00000000E+00  0.00000000E+00
  0.00000000E+00  0.00000000E+00  0.00000000E+00
  0.00000000E+00  0.00000000E+00  0.00000000E+00
  0.00000000E+00  0.00000000E+00  0.00000000E+00
  0.00000000E+00  0.00000000E+00  0.00000000E+00
  0.00000000E+00  0.00000000E+00  0.00000000E+00
  0.00000000E+00  0.00000000E+00  0.00000000E+00
  0.00000000E+00  0.00000000E+00  0.00000000E+00
  0.00000000E+00  0.00000000E+00  0.00000000E+00
  0.00000000E+00  0.00000000E+00  0.00000000E+00
  0.00000000E+00  0.00000000E+00  0.00000000E+00
  0.00000000E+00  0.00000000E+00  0.00000000E+00
  0.00000000E+00  0.00000000E+00  0.00000000E+00
  0.00000000E+00  0.00000000E+00  0.00000000E+00
  0.00000000E+00  0.00000000E+00  0.00000000E+00
  0.00000000E+00  0.00000000E+00  0.00000000E+00
  0.00000000E+00  0.00000000E+00  0.00000000E+00
  0.00000000E+00  0.00000000E+00  0.00000000E+00
  0.00000000E+00  0.00000000E+00  0.00000000E+00
  0.00000000E+00  0.00000000E+00  0.00000000E+00
  0.00000000E+00  0.00000000E+00  0.00000000E+00
  0.00000000E+00  0.00000000E+00  0.00000000E+00
  0.00000000E+00  0.00000000E+00  0.00000000E+00
  0.00000000E+00  0.00000000E+00  0.00000000E+00
  0.00000000E+00  0.00000000E+00  0.00000000E+00
  0.00000000E+00  0.00000000E+00  0.00000000E+00
  0.00000000E+00  0.00000000E+00  0.00000000E+00
  0.00000000E+00  0.00000000E+00  0.00000000E+00
  0.00000000E+00  0.00000000E+00  0.00000000E+00
  0.00000000E+00  0.00000000E+00  0.00000000E+00
  0.00000000E+00  0.00000000E+00  0.00000000E+00
  0.00000000E+00  0.00000000E+00  0.00000000E+00
  0.00000000E+00  0.00000000E+00  0.00000000E+00
  0.00000000E+00  0.00000000E+00  0.00000000E+00
  0.00000000E+00  0.00000000E+00  0.00000000E+00
  0.00000000E+00  0.00000000E+00  0.00000000E+00
  0.00000000E+00  0.00000000E+00  0.00000000E+00
  0.00000000E+00  0.00000000E+00  0.00000000E+00
  0.00000000E+00  0.00000000E+00  0.00000000E+00
  0.00000000E+00  0.00000000E+00  0.00000000E+00
  0.00000000E+00  0.00000000E+00  0.00000000E+00
  0.00000000E+00  0.00000000E+00  0.00000000E+00
  0.00000000E+00  0.00000000E+00  0.00000000E+00
  0.00000000E+00  0.00000000E+00  0.00000000E+00
  0.00000000E+00  0.00000000E+00  0.00000000E+00
  0.00000000E+00  0.00000000E+00  0.00000000E+00
  0.00000000E+00  0.00000000E+00  0.00000000E+00
  0.00000000E+00  0.00000000E+00  0.00000000E+00
  0.00000000E+00  0.00000000E+00  0.00000000E+00
  0.00000000E+00  0.00000000E+00  0.00000000E+00
  0.00000000E+00  0.00000000E+00  0.00000000E+00
  0.00000000E+00  0.00000000E+00  0.00000000E+00
  0.00000000E+00  0.00000000E+00  0.00000000E+00
  0.00000000E+00  0.00000000E+00  0.00000000E+00
  0.00000000E+00  0.00000000E+00  0.00000000E+00
  0.00000000E+00  0.00000000E+00  0.00000000E+00
  0.00000000E+00  0.00000000E+00  0.00000000E+00
  0.00000000E+00  0.00000000E+00  0.00000000E+00
  0.00000000E+00  0.00000000E+00  0.00000000E+00
  0.00000000E+00  0.00000000E+00  0.00000000E+00
  0.00000000E+00  0.00000000E+00  0.00000000E+00
  0.00000000E+00  0.00000000E+00  0.00000000E+00
  0.00000000E+00  0.00000000E+00  0.00000000E+00
  0.00000000E+00  0.00000000E+00  0.00000000E+00
  0.00000000E+00  0.00000000E+00  0.00000000E+00
  0.00000000E+00  0.00000000E+00  0.00000000E+00
  0.00000000E+00  0.00000000E+00  0.00000000E+00
  0.00000000E+00  0.00000000E+00  0.00000000E+00
