  Built with Packmol                    
    1.000000000000000     
    10.9312086195560383   -0.3264264304259329    0.0293961747626212
    -0.3434010580119874   11.0766925486092127    0.1682396851431312
     0.0187877031556498    0.1557525888109756   11.7442403589675237
   Fe   Ge
    48    48
Direct
  0.6420952350618876  0.4131222783636801  0.5207510226564196
  0.3491281924368792  0.7085616567436048  0.1236960315614937
  0.7400335601472037  0.7580407426775650  0.2313633049166910
  0.5704117328337972  0.7887717886086278  0.4105145512561066
  0.6214387741286345  0.5019786496347152  0.1698376635447616
  0.6298369862054543  0.6222958684132678  0.6526137806137271
  0.0234935403050898  0.6186027153950135  0.5909546699108574
  0.0765538833337089  0.0294646010233492  0.6926648673193441
  0.7141336942723768  0.1343229169610112  0.2768695324950627
  0.9406536343796361  0.4548004493385420  0.7767306435062480
  0.8008828836375983  0.3560659276284355  0.1379833945528830
  0.7387922943846448  0.6201679852414159  0.0174479695328955
  0.5996212022806446  0.2358955949878734  0.6598715681626146
  0.8667585341313782  0.9564429610080438  0.5616093364721664
  0.6920043024756453  0.5794293970888305  0.3666902661904459
  0.2300124383226887  0.7569721986780280  0.6657820192349604
  0.9729195315159984  0.7714155536964498  0.1810867512291097
  0.1651598318388778  0.8643222088052340  0.0343769939589080
  0.0824962626507002  0.9928820573750272  0.2203662213022923
  0.3208390658611151  0.4848032376990474  0.4028158932737824
  0.1262768300766908  0.6938051714440476  0.4144684555625560
  0.5427700115666312  0.5576266454496519  0.8484110985747364
  0.8419858357356631  0.7242160410101732  0.6605767788264458
  0.4327328433981918  0.8934705894379888  0.7366013191249792
  0.9851145614910450  0.8697831344889977  0.3676750857162929
  0.2299292940643767  0.9002869430922402  0.4255032658256042
  0.1678602972356984  0.3884574094020650  0.2815468404552846
  0.6181861613926074  0.7734045231699156  0.8377551449932383
  0.6815550156136467  0.9941537173284516  0.4412179213428402
  0.7716889574979717  0.1982179919249205  0.5109375077967542
  0.4056298251863382  0.8868532706551377  0.2868138010586350
  0.3478414876325786  0.0403903822384777  0.9196192910446044
  0.2106466099113504  0.4575507108250250  0.0653735542717158
  0.0113367256332424  0.2845688071445238  0.4467809834445191
  0.0062393118463078  0.8337874552558091  0.7544421669941670
  0.7498373102942892  0.0217318014839094  0.9201230910080582
  0.2718842741133258  0.9901537581631814  0.6251896039893481
  0.6234663264496234  0.8329338752521736  0.6214030839676212
  0.1090265716833585  0.0665977297991205  0.4749508196644783
  0.6096280917878829  0.3911774457579185  0.9802756030571942
  0.3491459736535347  0.7006004755938662  0.3787810729557535
  0.9028342380918488  0.0867496927125231  0.3901703793692306
  0.9065124139587368  0.6561849231757435  0.3713613023523834
  0.3902620104798302  0.4938545200499789  0.1960478674754427
  0.9507283171539243  0.9631910769935530  0.0468335817880430
  0.3851103486136722  0.7869762680885941  0.9234870598546792
  0.1958397957384364  0.8167591322524146  0.2393175874653579
  0.2459161889557038  0.2606045775915788  0.9605599472497488
  0.4310017471327328  0.1152789802060425  0.7222673887808284
  0.1953048608973873  0.5962544771309268  0.2363557377142058
  0.7985181313670040  0.1395450402999430  0.0777695520356403
  0.4573520538891529  0.2159805123389447  0.9797865206611434
  0.7916555914702883  0.8977486754698916  0.7638496604135838
  0.5432968376420604  0.9662581896545959  0.9066809921975363
  0.6669976998636002  0.2056241069847005  0.8537711678314466
  0.5229074336745327  0.6489638106736138  0.0222260671291963
  0.7759764419396262  0.7892000009459821  0.4598211703238206
  0.0899691781744849  0.3875118837968614  0.9024553897270380
  0.4237437083382147  0.6766689933355536  0.7295736000593465
  0.7471238033246692  0.8402814719435412  0.0354654067212365
  0.7713249727893867  0.5910129575632368  0.8187170677188718
  0.8149492099390727  0.5498212980726933  0.5428030767634198
  0.0594658553800897  0.3990333636660424  0.6204897124732511
  0.2877047964692423  0.0628559341973016  0.2664291410627371
  0.8288746860224521  0.3938262214944928  0.9411506289549720
  0.8397495849277021  0.5651557003481500  0.1995455515622595
  0.6124107694440681  0.9399114197149956  0.2440811385882142
  0.2256304743039195  0.2959065207794609  0.4632497756620850
  0.5254517801577450  0.6813878966222617  0.2450938414696111
  0.0681020834215431  0.6318896196177022  0.7911687999578234
  0.5221681098852926  0.4129657637539808  0.3451770073094522
  0.8293564632539585  0.3138123805563779  0.3414143004555612
  0.9586828897400892  0.0383961967890301  0.8590902668428413
  0.0585591586265934  0.8466404967112950  0.5584682337271687
  0.1962106337011633  0.6516725199352891  0.9771143222101060
  0.3840309810466351  0.4407359092217931  0.9396479002497031
  0.9685365017090390  0.7682690340532616  0.9582984897732914
  0.2420057836203142  0.5738986884509032  0.5674419989185182
  0.6654353975574239  0.0450736911593452  0.6416639826270796
  0.8546796772532375  0.9665956493431693  0.2285258935155241
  0.4179942598799187  0.8626766263417451  0.5286085911036480
  0.2998462170764427  0.2800172984570679  0.1633983869947713
  0.2077476388799653  0.1667306495055030  0.7882292244336355
  0.5681520797472359  0.2034231994821454  0.4449536710856918
  0.4986783106687227  0.5885589375383873  0.4963007539861266
  0.0238109343131541  0.4895826786777491  0.4008951017801294
  0.2113689677630362  0.8989663790094085  0.8246733918840832
  0.0695610766893040  0.1920788528130899  0.2784528319476678
  0.3512255086711136  0.1141971446332875  0.4740439120313269
  0.5447725212838179  0.4142063559028628  0.7161604187565374
  0.1413102755117919  0.0846223094339109  0.0328423525312544
  0.3747499021316614  0.9267068188991203  0.0912051965425746
  0.9550265866705843  0.1590788781237862  0.6020437745175187
  0.5860732137846938  0.2734740306986012  0.1668312558963692
  0.0120940904303737  0.3913485218733541  0.1374939429246851
  0.7977385475721945  0.3362167391846214  0.6673003207037382
 
  0.00000000E+00  0.00000000E+00  0.00000000E+00
  0.00000000E+00  0.00000000E+00  0.00000000E+00
  0.00000000E+00  0.00000000E+00  0.00000000E+00
  0.00000000E+00  0.00000000E+00  0.00000000E+00
  0.00000000E+00  0.00000000E+00  0.00000000E+00
  0.00000000E+00  0.00000000E+00  0.00000000E+00
  0.00000000E+00  0.00000000E+00  0.00000000E+00
  0.00000000E+00  0.00000000E+00  0.00000000E+00
  0.00000000E+00  0.00000000E+00  0.00000000E+00
  0.00000000E+00  0.00000000E+00  0.00000000E+00
  0.00000000E+00  0.00000000E+00  0.00000000E+00
  0.00000000E+00  0.00000000E+00  0.00000000E+00
  0.00000000E+00  0.00000000E+00  0.00000000E+00
  0.00000000E+00  0.00000000E+00  0.00000000E+00
  0.00000000E+00  0.00000000E+00  0.00000000E+00
  0.00000000E+00  0.00000000E+00  0.00000000E+00
  0.00000000E+00  0.00000000E+00  0.00000000E+00
  0.00000000E+00  0.00000000E+00  0.00000000E+00
  0.00000000E+00  0.00000000E+00  0.00000000E+00
  0.00000000E+00  0.00000000E+00  0.00000000E+00
  0.00000000E+00  0.00000000E+00  0.00000000E+00
  0.00000000E+00  0.00000000E+00  0.00000000E+00
  0.00000000E+00  0.00000000E+00  0.00000000E+00
  0.00000000E+00  0.00000000E+00  0.00000000E+00
  0.00000000E+00  0.00000000E+00  0.00000000E+00
  0.00000000E+00  0.00000000E+00  0.00000000E+00
  0.00000000E+00  0.00000000E+00  0.00000000E+00
  0.00000000E+00  0.00000000E+00  0.00000000E+00
  0.00000000E+00  0.00000000E+00  0.00000000E+00
  0.00000000E+00  0.00000000E+00  0.00000000E+00
  0.00000000E+00  0.00000000E+00  0.00000000E+00
  0.00000000E+00  0.00000000E+00  0.00000000E+00
  0.00000000E+00  0.00000000E+00  0.00000000E+00
  0.00000000E+00  0.00000000E+00  0.00000000E+00
  0.00000000E+00  0.00000000E+00  0.00000000E+00
  0.00000000E+00  0.00000000E+00  0.00000000E+00
  0.00000000E+00  0.00000000E+00  0.00000000E+00
  0.00000000E+00  0.00000000E+00  0.00000000E+00
  0.00000000E+00  0.00000000E+00  0.00000000E+00
  0.00000000E+00  0.00000000E+00  0.00000000E+00
  0.00000000E+00  0.00000000E+00  0.00000000E+00
  0.00000000E+00  0.00000000E+00  0.00000000E+00
  0.00000000E+00  0.00000000E+00  0.00000000E+00
  0.00000000E+00  0.00000000E+00  0.00000000E+00
  0.00000000E+00  0.00000000E+00  0.00000000E+00
  0.00000000E+00  0.00000000E+00  0.00000000E+00
  0.00000000E+00  0.00000000E+00  0.00000000E+00
  0.00000000E+00  0.00000000E+00  0.00000000E+00
  0.00000000E+00  0.00000000E+00  0.00000000E+00
  0.00000000E+00  0.00000000E+00  0.00000000E+00
  0.00000000E+00  0.00000000E+00  0.00000000E+00
  0.00000000E+00  0.00000000E+00  0.00000000E+00
  0.00000000E+00  0.00000000E+00  0.00000000E+00
  0.00000000E+00  0.00000000E+00  0.00000000E+00
  0.00000000E+00  0.00000000E+00  0.00000000E+00
  0.00000000E+00  0.00000000E+00  0.00000000E+00
  0.00000000E+00  0.00000000E+00  0.00000000E+00
  0.00000000E+00  0.00000000E+00  0.00000000E+00
  0.00000000E+00  0.00000000E+00  0.00000000E+00
  0.00000000E+00  0.00000000E+00  0.00000000E+00
  0.00000000E+00  0.00000000E+00  0.00000000E+00
  0.00000000E+00  0.00000000E+00  0.00000000E+00
  0.00000000E+00  0.00000000E+00  0.00000000E+00
  0.00000000E+00  0.00000000E+00  0.00000000E+00
  0.00000000E+00  0.00000000E+00  0.00000000E+00
  0.00000000E+00  0.00000000E+00  0.00000000E+00
  0.00000000E+00  0.00000000E+00  0.00000000E+00
  0.00000000E+00  0.00000000E+00  0.00000000E+00
  0.00000000E+00  0.00000000E+00  0.00000000E+00
  0.00000000E+00  0.00000000E+00  0.00000000E+00
  0.00000000E+00  0.00000000E+00  0.00000000E+00
  0.00000000E+00  0.00000000E+00  0.00000000E+00
  0.00000000E+00  0.00000000E+00  0.00000000E+00
  0.00000000E+00  0.00000000E+00  0.00000000E+00
  0.00000000E+00  0.00000000E+00  0.00000000E+00
  0.00000000E+00  0.00000000E+00  0.00000000E+00
  0.00000000E+00  0.00000000E+00  0.00000000E+00
  0.00000000E+00  0.00000000E+00  0.00000000E+00
  0.00000000E+00  0.00000000E+00  0.00000000E+00
  0.00000000E+00  0.00000000E+00  0.00000000E+00
  0.00000000E+00  0.00000000E+00  0.00000000E+00
  0.00000000E+00  0.00000000E+00  0.00000000E+00
  0.00000000E+00  0.00000000E+00  0.00000000E+00
  0.00000000E+00  0.00000000E+00  0.00000000E+00
  0.00000000E+00  0.00000000E+00  0.00000000E+00
  0.00000000E+00  0.00000000E+00  0.00000000E+00
  0.00000000E+00  0.00000000E+00  0.00000000E+00
  0.00000000E+00  0.00000000E+00  0.00000000E+00
  0.00000000E+00  0.00000000E+00  0.00000000E+00
  0.00000000E+00  0.00000000E+00  0.00000000E+00
  0.00000000E+00  0.00000000E+00  0.00000000E+00
  0.00000000E+00  0.00000000E+00  0.00000000E+00
  0.00000000E+00  0.00000000E+00  0.00000000E+00
  0.00000000E+00  0.00000000E+00  0.00000000E+00
  0.00000000E+00  0.00000000E+00  0.00000000E+00
  0.00000000E+00  0.00000000E+00  0.00000000E+00
