  Built with Packmol                    
    1.000000000000000     
    11.2009858351194662    0.1526484994428455    0.2029781699985583
     0.1531349605442142   11.1800095682940839    0.1281484667294055
     0.2053473248988765    0.1230039319589267   11.2867209129856629
   Fe   Ge
    48    48
Direct
  0.1413914680636559  0.6316945124382646  0.4045223604758245
  0.9146929545465278  0.1397052781058674  0.6145946504090986
  0.9108994109850359  0.9112365590952467  0.6640609517101186
  0.4272225657459918  0.3891599546298575  0.7390984540620238
  0.5131220942689250  0.0437017039737574  0.0977064412080816
  0.1453589902177110  0.0926100117075293  0.7207271622944044
  0.0451001198746111  0.3018243009116519  0.2334425815246767
  0.7295926224220008  0.5418538068001408  0.0682134295098203
  0.7502327687817836  0.8002995063079801  0.5585238623561221
  0.6888687934865192  0.9266895972263449  0.2086073540953685
  0.4904924252249763  0.0220761247728295  0.8711598446452158
  0.7141030764037384  0.0164453730961098  0.8027333887901299
  0.9887847704071371  0.7852686851478400  0.4894926213971271
  0.9765638695959840  0.2737655109598023  0.7744396958309723
  0.7390848001385292  0.7683252960281690  0.0074305238418239
  0.7247444068143662  0.2253816070453135  0.5190833110460804
  0.7268162267460317  0.5514886774805332  0.7069612888650750
  0.5372139526143479  0.5774988431284920  0.3777315334716212
  0.7428813840303908  0.5391129020502302  0.3075289994190654
  0.1899399527691891  0.8934608469431130  0.5760651687739843
  0.5780834661294437  0.1632869294711199  0.3158212095916398
  0.0296053892183589  0.7759848975814031  0.2799749971289863
  0.3356802738827764  0.6992542948264819  0.4984616642340589
  0.8647138226769531  0.3819637684633034  0.3968371401438643
  0.3910673896179391  0.9127674185364616  0.4723826756598145
  0.7132849568993100  0.1420453273820647  0.1376307902992907
  0.6347337008875844  0.1747553284997480  0.9348649795222789
  0.9852472518285917  0.3177628072044262  0.0086159655853263
  0.3207258746343806  0.5219357450605530  0.1299356848881076
  0.5738317439132116  0.9128838769572972  0.6569945368433152
  0.9655407668385219  0.5540496771163106  0.0237664601034053
  0.9148625893789403  0.9193019537559491  0.1306308289396333
  0.8176295525019055  0.4055267603202632  0.8600789388658554
  0.4391995273061748  0.2433322059391036  0.9217422220908028
  0.2998548781550069  0.0051016308592109  0.2293928753108861
  0.6060575217459421  0.3817393053935090  0.8638880625839670
  0.4588120512144034  0.5947473965682941  0.7683136824441902
  0.3769765529407418  0.0108206712050092  0.6752562538132479
  0.5526819209557442  0.1548309030694877  0.7246789729674021
  0.8433485059865835  0.6250572013580589  0.8727118495412770
  0.8514775341885470  0.1695310389439864  0.9452480027472955
  0.8662999926756862  0.6869668355942306  0.1683280427981675
  0.1751385479814457  0.7996690708775434  0.9555094414613361
  0.3394037149829501  0.9147357469856643  0.0428045720573590
  0.4434287795142239  0.3712282427658910  0.2878180658173820
  0.0569068144582710  0.6607553804218547  0.8139216634414955
  0.7620759014391849  0.2254599331703029  0.7522178457432607
  0.9656540423729324  0.1964878462689335  0.4164567341807835
  0.0950272958079194  0.8652365140384377  0.7633519138219796
  0.0225315722491643  0.9954254667998860  0.4879036902061848
  0.7429045561928378  0.0212283023601835  0.5827287433692077
  0.2531956792901106  0.0918565616903357  0.5283134053241235
  0.4987692428401538  0.9544063676715716  0.2955032186660584
  0.6211167988911895  0.3672656429453676  0.6473753687822529
  0.9038302617420669  0.6741630725554822  0.6623082260799317
  0.8885814339223738  0.4403332302343440  0.1847230726329139
  0.1494518931321082  0.4264768537709115  0.0615575176205116
  0.8613002128762755  0.3826171508150824  0.6168426095149904
  0.0324509941219459  0.4586255206216560  0.8342858819208997
  0.9404652289681090  0.0500734607977725  0.8083858002765565
  0.8305218111048503  0.8650752645975059  0.3541818989457853
  0.3894567442629455  0.4480468817392025  0.9454956578225800
  0.9633341928232668  0.7703159610563900  0.9810003515833897
  0.3660917660005562  0.1747813343456595  0.3414568042258350
  0.3083477730953340  0.1280649864251361  0.0445691157745422
  0.6219149941149168  0.6058245499751934  0.9005393263458489
  0.3279156265189089  0.2058752033971455  0.7470514417467962
  0.7401119992485273  0.3319267055546744  0.0478154034590823
  0.6480978677040965  0.7169137980516653  0.2251649888898797
  0.1455741569593358  0.6753805565730086  0.6110048106313140
  0.5527819119137812  0.7753421243696793  0.4718859559416909
  0.1143500334247610  0.1766831882783694  0.9154679721397527
  0.0772072413657952  0.4199243250162564  0.4204793603365891
  0.5214773330119253  0.0936057240643462  0.5199617588040287
  0.5129634151086934  0.2604344740773417  0.1221623648496230
  0.9392129031659026  0.1425097815459571  0.1391427493408326
  0.4305459078796292  0.5103727877654632  0.5621779720789811
  0.6994405774894698  0.5898198340771367  0.5085596806491727
  0.5388325835586280  0.5134984609903224  0.1599539531580599
  0.2613133434647641  0.6374085059088010  0.8389790141947850
  0.1339081240450674  0.9063978223694213  0.1405461619628664
  0.3921079905275484  0.7952528340571228  0.6788210570335417
  0.5416822784920078  0.8500038650222550  0.0040715210562288
  0.9216133584529906  0.6163124737838981  0.3836584187634149
  0.3339810817628223  0.5728333306266357  0.3290604175003777
  0.6319353708074146  0.3666820207996763  0.3800214626022505
  0.2409161830564980  0.3620758988051963  0.2592159677674465
  0.2759462521413896  0.9591119285427894  0.8501363227445520
  0.7271366621398688  0.8009354569649810  0.7792068148302167
  0.3480232947420408  0.7075644490373183  0.0543426806188072
  0.2141691233917841  0.8422611793885012  0.3690209409378574
  0.1295383436059622  0.1168765330930933  0.2867133020688777
  0.7430916628560396  0.9831561824596649  0.0065743850478803
  0.7879153871517859  0.1254863878377940  0.3324779137871628
  0.0956328752129854  0.2704280952385752  0.5964906567530261
  0.1241066190130576  0.6466932807643228  0.1394675877290840
 
  0.00000000E+00  0.00000000E+00  0.00000000E+00
  0.00000000E+00  0.00000000E+00  0.00000000E+00
  0.00000000E+00  0.00000000E+00  0.00000000E+00
  0.00000000E+00  0.00000000E+00  0.00000000E+00
  0.00000000E+00  0.00000000E+00  0.00000000E+00
  0.00000000E+00  0.00000000E+00  0.00000000E+00
  0.00000000E+00  0.00000000E+00  0.00000000E+00
  0.00000000E+00  0.00000000E+00  0.00000000E+00
  0.00000000E+00  0.00000000E+00  0.00000000E+00
  0.00000000E+00  0.00000000E+00  0.00000000E+00
  0.00000000E+00  0.00000000E+00  0.00000000E+00
  0.00000000E+00  0.00000000E+00  0.00000000E+00
  0.00000000E+00  0.00000000E+00  0.00000000E+00
  0.00000000E+00  0.00000000E+00  0.00000000E+00
  0.00000000E+00  0.00000000E+00  0.00000000E+00
  0.00000000E+00  0.00000000E+00  0.00000000E+00
  0.00000000E+00  0.00000000E+00  0.00000000E+00
  0.00000000E+00  0.00000000E+00  0.00000000E+00
  0.00000000E+00  0.00000000E+00  0.00000000E+00
  0.00000000E+00  0.00000000E+00  0.00000000E+00
  0.00000000E+00  0.00000000E+00  0.00000000E+00
  0.00000000E+00  0.00000000E+00  0.00000000E+00
  0.00000000E+00  0.00000000E+00  0.00000000E+00
  0.00000000E+00  0.00000000E+00  0.00000000E+00
  0.00000000E+00  0.00000000E+00  0.00000000E+00
  0.00000000E+00  0.00000000E+00  0.00000000E+00
  0.00000000E+00  0.00000000E+00  0.00000000E+00
  0.00000000E+00  0.00000000E+00  0.00000000E+00
  0.00000000E+00  0.00000000E+00  0.00000000E+00
  0.00000000E+00  0.00000000E+00  0.00000000E+00
  0.00000000E+00  0.00000000E+00  0.00000000E+00
  0.00000000E+00  0.00000000E+00  0.00000000E+00
  0.00000000E+00  0.00000000E+00  0.00000000E+00
  0.00000000E+00  0.00000000E+00  0.00000000E+00
  0.00000000E+00  0.00000000E+00  0.00000000E+00
  0.00000000E+00  0.00000000E+00  0.00000000E+00
  0.00000000E+00  0.00000000E+00  0.00000000E+00
  0.00000000E+00  0.00000000E+00  0.00000000E+00
  0.00000000E+00  0.00000000E+00  0.00000000E+00
  0.00000000E+00  0.00000000E+00  0.00000000E+00
  0.00000000E+00  0.00000000E+00  0.00000000E+00
  0.00000000E+00  0.00000000E+00  0.00000000E+00
  0.00000000E+00  0.00000000E+00  0.00000000E+00
  0.00000000E+00  0.00000000E+00  0.00000000E+00
  0.00000000E+00  0.00000000E+00  0.00000000E+00
  0.00000000E+00  0.00000000E+00  0.00000000E+00
  0.00000000E+00  0.00000000E+00  0.00000000E+00
  0.00000000E+00  0.00000000E+00  0.00000000E+00
  0.00000000E+00  0.00000000E+00  0.00000000E+00
  0.00000000E+00  0.00000000E+00  0.00000000E+00
  0.00000000E+00  0.00000000E+00  0.00000000E+00
  0.00000000E+00  0.00000000E+00  0.00000000E+00
  0.00000000E+00  0.00000000E+00  0.00000000E+00
  0.00000000E+00  0.00000000E+00  0.00000000E+00
  0.00000000E+00  0.00000000E+00  0.00000000E+00
  0.00000000E+00  0.00000000E+00  0.00000000E+00
  0.00000000E+00  0.00000000E+00  0.00000000E+00
  0.00000000E+00  0.00000000E+00  0.00000000E+00
  0.00000000E+00  0.00000000E+00  0.00000000E+00
  0.00000000E+00  0.00000000E+00  0.00000000E+00
  0.00000000E+00  0.00000000E+00  0.00000000E+00
  0.00000000E+00  0.00000000E+00  0.00000000E+00
  0.00000000E+00  0.00000000E+00  0.00000000E+00
  0.00000000E+00  0.00000000E+00  0.00000000E+00
  0.00000000E+00  0.00000000E+00  0.00000000E+00
  0.00000000E+00  0.00000000E+00  0.00000000E+00
  0.00000000E+00  0.00000000E+00  0.00000000E+00
  0.00000000E+00  0.00000000E+00  0.00000000E+00
  0.00000000E+00  0.00000000E+00  0.00000000E+00
  0.00000000E+00  0.00000000E+00  0.00000000E+00
  0.00000000E+00  0.00000000E+00  0.00000000E+00
  0.00000000E+00  0.00000000E+00  0.00000000E+00
  0.00000000E+00  0.00000000E+00  0.00000000E+00
  0.00000000E+00  0.00000000E+00  0.00000000E+00
  0.00000000E+00  0.00000000E+00  0.00000000E+00
  0.00000000E+00  0.00000000E+00  0.00000000E+00
  0.00000000E+00  0.00000000E+00  0.00000000E+00
  0.00000000E+00  0.00000000E+00  0.00000000E+00
  0.00000000E+00  0.00000000E+00  0.00000000E+00
  0.00000000E+00  0.00000000E+00  0.00000000E+00
  0.00000000E+00  0.00000000E+00  0.00000000E+00
  0.00000000E+00  0.00000000E+00  0.00000000E+00
  0.00000000E+00  0.00000000E+00  0.00000000E+00
  0.00000000E+00  0.00000000E+00  0.00000000E+00
  0.00000000E+00  0.00000000E+00  0.00000000E+00
  0.00000000E+00  0.00000000E+00  0.00000000E+00
  0.00000000E+00  0.00000000E+00  0.00000000E+00
  0.00000000E+00  0.00000000E+00  0.00000000E+00
  0.00000000E+00  0.00000000E+00  0.00000000E+00
  0.00000000E+00  0.00000000E+00  0.00000000E+00
  0.00000000E+00  0.00000000E+00  0.00000000E+00
  0.00000000E+00  0.00000000E+00  0.00000000E+00
  0.00000000E+00  0.00000000E+00  0.00000000E+00
  0.00000000E+00  0.00000000E+00  0.00000000E+00
  0.00000000E+00  0.00000000E+00  0.00000000E+00
  0.00000000E+00  0.00000000E+00  0.00000000E+00
