FeGe                                    
    1.000000000000000     
    10.9862636319718465   -0.3243384538364656    0.0626103887681703
    -0.3414502144029524   11.0584062277837560    0.1966155013958553
     0.0424777561812914    0.1875283899477953   11.6101939537070642
   Fe   Ge
    48    48
Direct
  0.6545363765371028  0.4040423164080671  0.5148279660074787
  0.3551802532271114  0.7176706160618049  0.1316663363790582
  0.7383106833485471  0.7636389095635900  0.2430392462547363
  0.5684915410396404  0.7908673728605069  0.4105620948751549
  0.6175430631022062  0.5042569480117377  0.1731487257855659
  0.6338665528897336  0.6260070623318794  0.6400971172359086
  0.0206821682777426  0.6178519663277126  0.5707577618000433
  0.0754080674734384  0.0284811473243472  0.6959765842376113
  0.7131560258658618  0.1383298745205335  0.2751040569698914
  0.9413996847087408  0.4604117074648190  0.7659208372273691
  0.7992146113309457  0.3597945958962508  0.1335889619539654
  0.7458096737404055  0.6172105470960769  0.0155081522910737
  0.6045443216168931  0.2349376229874525  0.6570800978786515
  0.8765544283524502  0.9529047437718611  0.5651652292382117
  0.6924687791485092  0.5764469123853427  0.3817626166775200
  0.2333265284193825  0.7472274310789110  0.6746558738382720
  0.9739904062357487  0.7739547147892828  0.1924352596647876
  0.1573346503970048  0.8587206788203098  0.0297714066300253
  0.0763202069715278  0.9903592160206534  0.2153428533597595
  0.3247413058969583  0.4904947578415884  0.3973184925969209
  0.1273880003623270  0.6985413393229843  0.4027409969268150
  0.5438837825551280  0.5534409652885578  0.8472057802838405
  0.8679014937038898  0.7334151547052098  0.6557404973769212
  0.4339783420470819  0.8926215823755862  0.7357763933255604
  0.9835610151364391  0.8744528596993260  0.3917920336994343
  0.2284682307189582  0.8953709653583666  0.4295815169271455
  0.1644411292983600  0.3859468992986795  0.2714850865729396
  0.6151442724872274  0.7715195265498160  0.8403024457360588
  0.6868821826954110  0.9924504005505139  0.4389614944882884
  0.7808250373292059  0.1967376356745392  0.5075918614350903
  0.4060373028993963  0.8839032285421449  0.2765840881693037
  0.3472644279154347  0.0456533307977093  0.9154568958549042
  0.2044605832355949  0.4503919229231557  0.0549338705108106
  0.0095047780280565  0.2818541412572901  0.4431579203630613
  0.0102749324408304  0.8468444017375465  0.8059507550513351
  0.7456976608638511  0.0242964962748220  0.9199416533132523
  0.2716268674805833  0.9903539920409629  0.6270579970957374
  0.6200196388231189  0.8389300127191189  0.6257365695745560
  0.1035906795147025  0.0665404590809938  0.4682676618632426
  0.6095023658289274  0.3907070279330889  0.9766684911399671
  0.3443865357195939  0.7069231361714813  0.3857219100568235
  0.9003735164954557  0.0885290639766878  0.3842518102913207
  0.9042744628119544  0.6559780744286114  0.3767370432223038
  0.3935476918631055  0.4832592156286912  0.1914212908239018
  0.9483878849064946  0.9496844377293445  0.0373482974971283
  0.3830694690101494  0.7783886847698360  0.9298053951932046
  0.1916487034807542  0.8195200027582642  0.2406425654285306
  0.2428218490816920  0.2630297543838365  0.9551266215842505
  0.4366731980746585  0.1137850506459211  0.7175980852214022
  0.2044838121345178  0.5936320584252679  0.2352581361366502
  0.7944542730495374  0.1445947446244809  0.0759140306791563
  0.4548848931258227  0.2177530115693856  0.9790353704942707
  0.7955617171138991  0.8892425941908064  0.7727905172272982
  0.5407150776582151  0.9657030943209710  0.9027134696408515
  0.6650546444049645  0.2106336873434065  0.8549616301200991
  0.5269400101433281  0.6421488569385280  0.0250468984861868
  0.7716594827808513  0.7851812829168957  0.4684426200586410
  0.0870461149421520  0.3901101142785216  0.8891212743448941
  0.4313376185537834  0.6761174067177611  0.7269319757397564
  0.7377835725479197  0.8394172687849812  0.0380218490496065
  0.7663927035891265  0.6035376712479148  0.8072556165790500
  0.8170365230124049  0.5443161483773381  0.5581218145053110
  0.0699114346505294  0.3995223068051458  0.6162256584206005
  0.2822356548258898  0.0546341925112349  0.2678285461400052
  0.8280205935892011  0.4143083628916953  0.9368397703167094
  0.8332755138682134  0.5675969441514298  0.2033117328576930
  0.6090035125417878  0.9454094531781090  0.2420074129225951
  0.2250962148576679  0.3008717628315966  0.4545730854105874
  0.5227505833102906  0.6737031257584716  0.2519962963660099
  0.0600959891486437  0.6415299741555460  0.7739256360321080
  0.5213379517054271  0.4112066195821029  0.3494148531491869
  0.8210213129951460  0.3258734921406883  0.3430124870521080
  0.9544821037836165  0.0574109780310798  0.8599059073768220
  0.0697276269322630  0.8453433026261817  0.5817909401534005
  0.1972682693925507  0.6524444591784375  0.9900306185816180
  0.3830366877847514  0.4415571545873773  0.9349516060240194
  0.9532106019936053  0.7376400892398897  0.9817298305631089
  0.2405866816347262  0.5736915858852500  0.5653087960363761
  0.6770487907234549  0.0472343044597479  0.6440936170256695
  0.8559676679071202  0.9627122090683089  0.2272427738231379
  0.4163059885024861  0.8627843856328503  0.5293620191939769
  0.3013145176170011  0.2750067189091772  0.1633624128936289
  0.2088351238885152  0.1673646206384213  0.7807946773170267
  0.5713577989028878  0.1924600921694410  0.4471242701334915
  0.4935207099314322  0.5834554878879785  0.4990882545582569
  0.0239359691408527  0.4885928010103195  0.3911015771474039
  0.2213205869476640  0.8967140871437782  0.8244921892705519
  0.0678025572429034  0.1898045420854730  0.2720988574428052
  0.3465028452630484  0.1155109469103769  0.4718202288412244
  0.5479465918215624  0.4169625195346913  0.7075410261193656
  0.1399846177309373  0.0814348050611087  0.0298506818373480
  0.3671207557004908  0.9312542585420122  0.0856897670842345
  0.9582647868677591  0.1594190344756093  0.6041778711724747
  0.5838209953863553  0.2794767817097422  0.1677152110982940
  0.0076037582752514  0.3914340330029925  0.1340818477403339
  0.8029980186910678  0.3290773742816505  0.6698552369069423
 
  0.00000000E+00  0.00000000E+00  0.00000000E+00
  0.00000000E+00  0.00000000E+00  0.00000000E+00
  0.00000000E+00  0.00000000E+00  0.00000000E+00
  0.00000000E+00  0.00000000E+00  0.00000000E+00
  0.00000000E+00  0.00000000E+00  0.00000000E+00
  0.00000000E+00  0.00000000E+00  0.00000000E+00
  0.00000000E+00  0.00000000E+00  0.00000000E+00
  0.00000000E+00  0.00000000E+00  0.00000000E+00
  0.00000000E+00  0.00000000E+00  0.00000000E+00
  0.00000000E+00  0.00000000E+00  0.00000000E+00
  0.00000000E+00  0.00000000E+00  0.00000000E+00
  0.00000000E+00  0.00000000E+00  0.00000000E+00
  0.00000000E+00  0.00000000E+00  0.00000000E+00
  0.00000000E+00  0.00000000E+00  0.00000000E+00
  0.00000000E+00  0.00000000E+00  0.00000000E+00
  0.00000000E+00  0.00000000E+00  0.00000000E+00
  0.00000000E+00  0.00000000E+00  0.00000000E+00
  0.00000000E+00  0.00000000E+00  0.00000000E+00
  0.00000000E+00  0.00000000E+00  0.00000000E+00
  0.00000000E+00  0.00000000E+00  0.00000000E+00
  0.00000000E+00  0.00000000E+00  0.00000000E+00
  0.00000000E+00  0.00000000E+00  0.00000000E+00
  0.00000000E+00  0.00000000E+00  0.00000000E+00
  0.00000000E+00  0.00000000E+00  0.00000000E+00
  0.00000000E+00  0.00000000E+00  0.00000000E+00
  0.00000000E+00  0.00000000E+00  0.00000000E+00
  0.00000000E+00  0.00000000E+00  0.00000000E+00
  0.00000000E+00  0.00000000E+00  0.00000000E+00
  0.00000000E+00  0.00000000E+00  0.00000000E+00
  0.00000000E+00  0.00000000E+00  0.00000000E+00
  0.00000000E+00  0.00000000E+00  0.00000000E+00
  0.00000000E+00  0.00000000E+00  0.00000000E+00
  0.00000000E+00  0.00000000E+00  0.00000000E+00
  0.00000000E+00  0.00000000E+00  0.00000000E+00
  0.00000000E+00  0.00000000E+00  0.00000000E+00
  0.00000000E+00  0.00000000E+00  0.00000000E+00
  0.00000000E+00  0.00000000E+00  0.00000000E+00
  0.00000000E+00  0.00000000E+00  0.00000000E+00
  0.00000000E+00  0.00000000E+00  0.00000000E+00
  0.00000000E+00  0.00000000E+00  0.00000000E+00
  0.00000000E+00  0.00000000E+00  0.00000000E+00
  0.00000000E+00  0.00000000E+00  0.00000000E+00
  0.00000000E+00  0.00000000E+00  0.00000000E+00
  0.00000000E+00  0.00000000E+00  0.00000000E+00
  0.00000000E+00  0.00000000E+00  0.00000000E+00
  0.00000000E+00  0.00000000E+00  0.00000000E+00
  0.00000000E+00  0.00000000E+00  0.00000000E+00
  0.00000000E+00  0.00000000E+00  0.00000000E+00
  0.00000000E+00  0.00000000E+00  0.00000000E+00
  0.00000000E+00  0.00000000E+00  0.00000000E+00
  0.00000000E+00  0.00000000E+00  0.00000000E+00
  0.00000000E+00  0.00000000E+00  0.00000000E+00
  0.00000000E+00  0.00000000E+00  0.00000000E+00
  0.00000000E+00  0.00000000E+00  0.00000000E+00
  0.00000000E+00  0.00000000E+00  0.00000000E+00
  0.00000000E+00  0.00000000E+00  0.00000000E+00
  0.00000000E+00  0.00000000E+00  0.00000000E+00
  0.00000000E+00  0.00000000E+00  0.00000000E+00
  0.00000000E+00  0.00000000E+00  0.00000000E+00
  0.00000000E+00  0.00000000E+00  0.00000000E+00
  0.00000000E+00  0.00000000E+00  0.00000000E+00
  0.00000000E+00  0.00000000E+00  0.00000000E+00
  0.00000000E+00  0.00000000E+00  0.00000000E+00
  0.00000000E+00  0.00000000E+00  0.00000000E+00
  0.00000000E+00  0.00000000E+00  0.00000000E+00
  0.00000000E+00  0.00000000E+00  0.00000000E+00
  0.00000000E+00  0.00000000E+00  0.00000000E+00
  0.00000000E+00  0.00000000E+00  0.00000000E+00
  0.00000000E+00  0.00000000E+00  0.00000000E+00
  0.00000000E+00  0.00000000E+00  0.00000000E+00
  0.00000000E+00  0.00000000E+00  0.00000000E+00
  0.00000000E+00  0.00000000E+00  0.00000000E+00
  0.00000000E+00  0.00000000E+00  0.00000000E+00
  0.00000000E+00  0.00000000E+00  0.00000000E+00
  0.00000000E+00  0.00000000E+00  0.00000000E+00
  0.00000000E+00  0.00000000E+00  0.00000000E+00
  0.00000000E+00  0.00000000E+00  0.00000000E+00
  0.00000000E+00  0.00000000E+00  0.00000000E+00
  0.00000000E+00  0.00000000E+00  0.00000000E+00
  0.00000000E+00  0.00000000E+00  0.00000000E+00
  0.00000000E+00  0.00000000E+00  0.00000000E+00
  0.00000000E+00  0.00000000E+00  0.00000000E+00
  0.00000000E+00  0.00000000E+00  0.00000000E+00
  0.00000000E+00  0.00000000E+00  0.00000000E+00
  0.00000000E+00  0.00000000E+00  0.00000000E+00
  0.00000000E+00  0.00000000E+00  0.00000000E+00
  0.00000000E+00  0.00000000E+00  0.00000000E+00
  0.00000000E+00  0.00000000E+00  0.00000000E+00
  0.00000000E+00  0.00000000E+00  0.00000000E+00
  0.00000000E+00  0.00000000E+00  0.00000000E+00
  0.00000000E+00  0.00000000E+00  0.00000000E+00
  0.00000000E+00  0.00000000E+00  0.00000000E+00
  0.00000000E+00  0.00000000E+00  0.00000000E+00
  0.00000000E+00  0.00000000E+00  0.00000000E+00
  0.00000000E+00  0.00000000E+00  0.00000000E+00
  0.00000000E+00  0.00000000E+00  0.00000000E+00
