  Built with Packmol                    
    1.000000000000000     
    10.8844383743844784   -0.2576850141068716    0.0369652200452007
    -0.2714369234763020   10.9979309581566280    0.1540898335986600
     0.0248832090402984    0.1372341751495170   11.7396659651953641
   Fe   Ge
    48    48
Direct
  0.6501123874610784  0.4123210759163953  0.5122160644564104
  0.3403520833375140  0.7128014575383972  0.1297936129217234
  0.7332165095434746  0.7542172341939164  0.2319352699195818
  0.5711138208304334  0.7826173133890677  0.4117942196649622
  0.6180133168767199  0.4987474072812077  0.1754461728314922
  0.6293134900986743  0.6244246449973332  0.6499531863474388
  0.0221022418069339  0.6107930191749276  0.5759974568094748
  0.0646918818914912  0.0147900095498841  0.6955551955020383
  0.7164332721955802  0.1440607662726663  0.2825711183685442
  0.9414427393928833  0.4561770086588908  0.7701532729710294
  0.7997951001782582  0.3582070244836615  0.1387597269509797
  0.7279704480265750  0.6058829982431320  0.0148104880821904
  0.6046818254965345  0.2365361918533182  0.6548165180679320
  0.8763815711024918  0.9638057822456929  0.5572542633315720
  0.6929230948315066  0.5697840783537416  0.3660805259422020
  0.2290098697313923  0.7623011864035334  0.6772599941318447
  0.9963688264041153  0.7596647702450170  0.1986343033884097
  0.1612284216991000  0.8606293168208197  0.0407483265989086
  0.0722299535620863  0.9953948743298895  0.2056387894292513
  0.3125332299400227  0.4925570723993005  0.3981681901294181
  0.1285190247152954  0.6965228174147953  0.4083222364079617
  0.5410523992011989  0.5562460131149365  0.8467423029339116
  0.8549227460217779  0.7281688404227893  0.6758298428495735
  0.4450836465957693  0.8953811297315397  0.7386934383755843
  0.0116475656034396  0.8814794971400701  0.3795916289967849
  0.2376662076285356  0.8907215518242921  0.4429633553940491
  0.1652162774668540  0.3891867056998137  0.2781506310423509
  0.6265457271947525  0.7706034916887390  0.8272950758609028
  0.6888979034575655  0.9910703161758718  0.4352568671295600
  0.7802648577959559  0.1971430805332588  0.5022253020752743
  0.4083204794787392  0.8976393242598490  0.2855120713173989
  0.3561910187221287  0.0396762433131741  0.9133311774033928
  0.2090341721010631  0.4695772830139333  0.0615867439185749
  0.0090888660189634  0.2777858043949095  0.4401620122001901
  0.9976049825817981  0.8494404419966770  0.8279390899029195
  0.7624930741857199  0.0199807716644784  0.9308852279994397
  0.2738849675252482  0.9936896729993379  0.6407268876272738
  0.6338970410049427  0.8342739239735266  0.6158711536846369
  0.1123001833007393  0.0679464559160436  0.4690327989517229
  0.6085910667301562  0.3878325532556346  0.9817280494269767
  0.3516860367688537  0.7035212762541434  0.3683620256569426
  0.9002008222810716  0.0828189292336674  0.3778953370062297
  0.9129003221157035  0.6612426024736493  0.3691768222856240
  0.3799938574713408  0.5019450747031087  0.1961878674518829
  0.9473448711105803  0.9422756122598059  0.0325134629813846
  0.3946488124238741  0.7864596514556723  0.9239317644628073
  0.1984016633674912  0.8283962929162385  0.2537343913628831
  0.2445813652756144  0.2558911053813091  0.9497838632421818
  0.4391977201196511  0.1207196990826134  0.7237709625101658
  0.1717375173581246  0.6039722312205029  0.2252203969977415
  0.7849862695756187  0.1415473585209170  0.0891142998704169
  0.4587623138724410  0.2167302463676677  0.9744809381405517
  0.7964227048328709  0.9119288762858062  0.7592474446910487
  0.5541740990169188  0.9640986280079744  0.9108705028510613
  0.6764171197762181  0.2082714270950703  0.8509597199681096
  0.5043222791653150  0.6226683493776193  0.0277874429738603
  0.7844604092172673  0.7947199433558652  0.4557004976604944
  0.0922585007106136  0.3938735036302035  0.8960379507645939
  0.4224800486046121  0.6755070125800842  0.7294871509701437
  0.7309857063620981  0.8269051729112533  0.0322274721180094
  0.7669891613158981  0.5862823392170142  0.8166505650137381
  0.8148122276925207  0.5566007192533533  0.5491181625065522
  0.0736091392094380  0.3958643953011176  0.6221392241508426
  0.2708347589470819  0.0576991736920647  0.2736821045178033
  0.8287914912824021  0.3926218114478175  0.9380642340070935
  0.8422422956136870  0.5702864411296815  0.1942698104066523
  0.6158616940301371  0.9462884736952333  0.2456896743183989
  0.2249957654531798  0.2972340133096338  0.4599375526500395
  0.5255910935805161  0.6845900425073737  0.2407080192857336
  0.0460651249520012  0.6458534037174104  0.7778622148058290
  0.5103480572662491  0.4095071417304652  0.3458299795395376
  0.8150438043443557  0.3384316120382422  0.3487303175177132
  0.9606831533513542  0.0726488561190664  0.8618632095301848
  0.0497165108563493  0.8320785877223074  0.5765067772019350
  0.2085560289570267  0.6571010806333959  0.9646472314657970
  0.3745963018898522  0.4344982822957419  0.9219605615567872
  0.9521465763548633  0.7210043306215468  0.9996079789653294
  0.2428706901739517  0.5844357968162299  0.5648822795889785
  0.6660115848751929  0.0464724219707691  0.6276066036817554
  0.8603138385223943  0.9391687164141516  0.2297533596321628
  0.4248749601862727  0.8627809499781591  0.5348439817763406
  0.2931165146126418  0.2846059190798371  0.1512922152105034
  0.2057763533963382  0.1651997503570470  0.7764223899180962
  0.5690083396477021  0.1995067025352668  0.4457160781382754
  0.4978694069474088  0.5855514760358886  0.4935842403698345
  0.0240452718706550  0.4868279279616701  0.4025415822071565
  0.2152029465617318  0.8995733136955053  0.8333278971953675
  0.0618798625846466  0.1938219476697398  0.2663248174411592
  0.3497822847520595  0.1062630502441024  0.4766962786467062
  0.5478577043013857  0.4156019149103614  0.7106406641732335
  0.1415058863069447  0.0831271604850201  0.0294052122508504
  0.3743247681458541  0.9294966245187695  0.0903348754921183
  0.9605394696217218  0.1634066619781294  0.6035062598797651
  0.5783446161405337  0.2740838671817230  0.1683709928304111
  0.0119594275892183  0.3951058898289830  0.1318321411387515
  0.8013127949999301  0.3353167444651675  0.6630052171562326
 
  0.00000000E+00  0.00000000E+00  0.00000000E+00
  0.00000000E+00  0.00000000E+00  0.00000000E+00
  0.00000000E+00  0.00000000E+00  0.00000000E+00
  0.00000000E+00  0.00000000E+00  0.00000000E+00
  0.00000000E+00  0.00000000E+00  0.00000000E+00
  0.00000000E+00  0.00000000E+00  0.00000000E+00
  0.00000000E+00  0.00000000E+00  0.00000000E+00
  0.00000000E+00  0.00000000E+00  0.00000000E+00
  0.00000000E+00  0.00000000E+00  0.00000000E+00
  0.00000000E+00  0.00000000E+00  0.00000000E+00
  0.00000000E+00  0.00000000E+00  0.00000000E+00
  0.00000000E+00  0.00000000E+00  0.00000000E+00
  0.00000000E+00  0.00000000E+00  0.00000000E+00
  0.00000000E+00  0.00000000E+00  0.00000000E+00
  0.00000000E+00  0.00000000E+00  0.00000000E+00
  0.00000000E+00  0.00000000E+00  0.00000000E+00
  0.00000000E+00  0.00000000E+00  0.00000000E+00
  0.00000000E+00  0.00000000E+00  0.00000000E+00
  0.00000000E+00  0.00000000E+00  0.00000000E+00
  0.00000000E+00  0.00000000E+00  0.00000000E+00
  0.00000000E+00  0.00000000E+00  0.00000000E+00
  0.00000000E+00  0.00000000E+00  0.00000000E+00
  0.00000000E+00  0.00000000E+00  0.00000000E+00
  0.00000000E+00  0.00000000E+00  0.00000000E+00
  0.00000000E+00  0.00000000E+00  0.00000000E+00
  0.00000000E+00  0.00000000E+00  0.00000000E+00
  0.00000000E+00  0.00000000E+00  0.00000000E+00
  0.00000000E+00  0.00000000E+00  0.00000000E+00
  0.00000000E+00  0.00000000E+00  0.00000000E+00
  0.00000000E+00  0.00000000E+00  0.00000000E+00
  0.00000000E+00  0.00000000E+00  0.00000000E+00
  0.00000000E+00  0.00000000E+00  0.00000000E+00
  0.00000000E+00  0.00000000E+00  0.00000000E+00
  0.00000000E+00  0.00000000E+00  0.00000000E+00
  0.00000000E+00  0.00000000E+00  0.00000000E+00
  0.00000000E+00  0.00000000E+00  0.00000000E+00
  0.00000000E+00  0.00000000E+00  0.00000000E+00
  0.00000000E+00  0.00000000E+00  0.00000000E+00
  0.00000000E+00  0.00000000E+00  0.00000000E+00
  0.00000000E+00  0.00000000E+00  0.00000000E+00
  0.00000000E+00  0.00000000E+00  0.00000000E+00
  0.00000000E+00  0.00000000E+00  0.00000000E+00
  0.00000000E+00  0.00000000E+00  0.00000000E+00
  0.00000000E+00  0.00000000E+00  0.00000000E+00
  0.00000000E+00  0.00000000E+00  0.00000000E+00
  0.00000000E+00  0.00000000E+00  0.00000000E+00
  0.00000000E+00  0.00000000E+00  0.00000000E+00
  0.00000000E+00  0.00000000E+00  0.00000000E+00
  0.00000000E+00  0.00000000E+00  0.00000000E+00
  0.00000000E+00  0.00000000E+00  0.00000000E+00
  0.00000000E+00  0.00000000E+00  0.00000000E+00
  0.00000000E+00  0.00000000E+00  0.00000000E+00
  0.00000000E+00  0.00000000E+00  0.00000000E+00
  0.00000000E+00  0.00000000E+00  0.00000000E+00
  0.00000000E+00  0.00000000E+00  0.00000000E+00
  0.00000000E+00  0.00000000E+00  0.00000000E+00
  0.00000000E+00  0.00000000E+00  0.00000000E+00
  0.00000000E+00  0.00000000E+00  0.00000000E+00
  0.00000000E+00  0.00000000E+00  0.00000000E+00
  0.00000000E+00  0.00000000E+00  0.00000000E+00
  0.00000000E+00  0.00000000E+00  0.00000000E+00
  0.00000000E+00  0.00000000E+00  0.00000000E+00
  0.00000000E+00  0.00000000E+00  0.00000000E+00
  0.00000000E+00  0.00000000E+00  0.00000000E+00
  0.00000000E+00  0.00000000E+00  0.00000000E+00
  0.00000000E+00  0.00000000E+00  0.00000000E+00
  0.00000000E+00  0.00000000E+00  0.00000000E+00
  0.00000000E+00  0.00000000E+00  0.00000000E+00
  0.00000000E+00  0.00000000E+00  0.00000000E+00
  0.00000000E+00  0.00000000E+00  0.00000000E+00
  0.00000000E+00  0.00000000E+00  0.00000000E+00
  0.00000000E+00  0.00000000E+00  0.00000000E+00
  0.00000000E+00  0.00000000E+00  0.00000000E+00
  0.00000000E+00  0.00000000E+00  0.00000000E+00
  0.00000000E+00  0.00000000E+00  0.00000000E+00
  0.00000000E+00  0.00000000E+00  0.00000000E+00
  0.00000000E+00  0.00000000E+00  0.00000000E+00
  0.00000000E+00  0.00000000E+00  0.00000000E+00
  0.00000000E+00  0.00000000E+00  0.00000000E+00
  0.00000000E+00  0.00000000E+00  0.00000000E+00
  0.00000000E+00  0.00000000E+00  0.00000000E+00
  0.00000000E+00  0.00000000E+00  0.00000000E+00
  0.00000000E+00  0.00000000E+00  0.00000000E+00
  0.00000000E+00  0.00000000E+00  0.00000000E+00
  0.00000000E+00  0.00000000E+00  0.00000000E+00
  0.00000000E+00  0.00000000E+00  0.00000000E+00
  0.00000000E+00  0.00000000E+00  0.00000000E+00
  0.00000000E+00  0.00000000E+00  0.00000000E+00
  0.00000000E+00  0.00000000E+00  0.00000000E+00
  0.00000000E+00  0.00000000E+00  0.00000000E+00
  0.00000000E+00  0.00000000E+00  0.00000000E+00
  0.00000000E+00  0.00000000E+00  0.00000000E+00
  0.00000000E+00  0.00000000E+00  0.00000000E+00
  0.00000000E+00  0.00000000E+00  0.00000000E+00
  0.00000000E+00  0.00000000E+00  0.00000000E+00
  0.00000000E+00  0.00000000E+00  0.00000000E+00
