  Built with Packmol                    
   1.00000000000000     
    11.1405468363394089    0.1709905850836191    0.2865684278996438
     0.1676061084520510   11.1837392051033486    0.1303298400877108
     0.2895472198069194    0.1226144587582105   11.3000718886157010
   Fe   Ge
    48    48
Direct
  0.1426671420746050  0.6220912216880887  0.3867997645115889
  0.9082947065679385  0.1423161481708755  0.6272306875235726
  0.9155770672854119  0.9080193263349805  0.6674243950491583
  0.3942430078427780  0.4205037978851932  0.7461855352477031
  0.5135573709107831  0.0350845661009698  0.0942215948303705
  0.1518961339435888  0.0925109066066612  0.7314596393327536
  0.0388986475207495  0.2985661569417724  0.2393630643285413
  0.7243037058678103  0.5383670789242897  0.0654716069953715
  0.7596930157612440  0.8013523658711624  0.5506650175395245
  0.6926923263886918  0.9053479638246994  0.1818631804508039
  0.4887314786554547  0.0184609475712558  0.8687363097750267
  0.7249740888128728  0.0504037335296761  0.7770047119531753
  0.9875664301300394  0.7848048601222519  0.4891859646415255
  0.9742711981290612  0.2743330405828755  0.7823097062051648
  0.7378839801665101  0.7637808059533063  0.0118545305312541
  0.7209151839229004  0.2244346094166537  0.5374400559077930
  0.7359155897151480  0.5245331342306498  0.7186370653372418
  0.5334433781495193  0.5872624895260987  0.3983944074522932
  0.7389648921326883  0.5382792313626994  0.3171277272102799
  0.1976152359012687  0.8903964046568109  0.5715425068672624
  0.5836293072326478  0.1595081072898321  0.3265157641344514
  0.0172408142460092  0.7878878042113011  0.2720898260689318
  0.3488839602098101  0.6988361377948322  0.5009849691506564
  0.8583938752511030  0.3779878940404530  0.4040398061609252
  0.3900608864180188  0.9321964576677294  0.4646786631614434
  0.7170682553400014  0.1243272030056235  0.1472133623181515
  0.6265751155320223  0.1737599847412286  0.9420811783523588
  0.9919533682225414  0.3229125258781669  0.0122241390044293
  0.3169924447673644  0.5196692469885585  0.1428432716549035
  0.5819299719528356  0.9194046463329909  0.6639709578565377
  0.9626990912429525  0.5474038270022243  0.0157201048517974
  0.9110921464567023  0.9218815615716931  0.1230648348528334
  0.8330178134354458  0.4168350381761164  0.8876698547226348
  0.4335814126759461  0.2424555262840393  0.9342734361010225
  0.2997440463717450  0.9945035107253865  0.2368249640916385
  0.6001230646693900  0.3896159989285310  0.8737972746021819
  0.5025001994000063  0.6009060494013018  0.6735903754023050
  0.3834289944429787  0.0205821373748817  0.6733942126674026
  0.5402815097275935  0.1787508411349638  0.7347432648709216
  0.8360162387056265  0.6328469586474397  0.8677767715406637
  0.8487123086725207  0.1732139448152724  0.9455408828630703
  0.8673228388849094  0.6762186172464443  0.1701431700439240
  0.1830170005746016  0.7765281746465216  0.9384089367753948
  0.3389544449407603  0.9059446406997527  0.0397549668041343
  0.4380703011674273  0.3690820875942836  0.3130938607461827
  0.0655871699106634  0.6589751831334422  0.8076284983291468
  0.7500194710388132  0.2642982538974902  0.7644769066717469
  0.9845169632166250  0.1979668604377217  0.4316028114024001
  0.0994925803627323  0.8637559233592687  0.7572889468825701
  0.0211442440158535  0.9938315619543564  0.4901981070578751
  0.7568309372445632  0.0124386877503771  0.5558206048234682
  0.2419177913822918  0.0949207762107050  0.5304349500360012
  0.5102674509465005  0.9466042558480777  0.2871971203124400
  0.5928736721559279  0.3772459206977677  0.6520065720042492
  0.9023981395651473  0.6718928971214302  0.6649737053072040
  0.8810601496859434  0.4379629441715164  0.1866519548424934
  0.1512069595641108  0.4210269031332554  0.0727016893238806
  0.8658228930733505  0.3788786679858925  0.6186698611971451
  0.0434181271360939  0.4564561074419921  0.8273695610546674
  0.9498675209677557  0.0457107557750957  0.8164151949046704
  0.8215601167876520  0.8666555275730708  0.3419028462269073
  0.3892907600642543  0.4437379340549671  0.9598050179011243
  0.9622900117646721  0.7662023874470236  0.9775331205144787
  0.3677636514287214  0.1638061916901308  0.3445857817988440
  0.3071496096790359  0.1189098360249376  0.0545121018506398
  0.6126730661050019  0.6127131309808452  0.8869716596493714
  0.3228992192902966  0.2199912492309922  0.7526188336644716
  0.7283432976667802  0.3239427343470823  0.0516617643775279
  0.6440393942557594  0.7044124320028520  0.2275128642078314
  0.1476567380929961  0.6712016897126311  0.5957760643260904
  0.5542944962966511  0.7852203307408575  0.4844145822750255
  0.1210731249173241  0.1810341810759538  0.9211180708623438
  0.0658597476820466  0.4202607643765198  0.4297896720085610
  0.5321750342761159  0.1002431506370236  0.5330704105558572
  0.5114192984313775  0.2497946563621572  0.1377160680600592
  0.9487674773564797  0.1363909509262353  0.1266042997694957
  0.3897567465328056  0.4570255685844637  0.5254899559973327
  0.7024348313581732  0.5908957900992589  0.5234237635004547
  0.5374523848595963  0.4975574052782881  0.1710034567507702
  0.2797863351717106  0.6071717372381501  0.8060104792279177
  0.1357221387652977  0.9005950671871887  0.1287204135468310
  0.3885057914968639  0.8056032275880679  0.6762796319625177
  0.5370173075189287  0.8386468689933779  0.9950714631701512
  0.9208096055743057  0.6183128752580859  0.3813775928970602
  0.3460288626397935  0.6096817338011727  0.3156724277095581
  0.6272352083828696  0.3681075017340244  0.3996651104892904
  0.2343433845804137  0.3701421639808007  0.2792682716678372
  0.2761651071387465  0.9586426266807225  0.8515798891692989
  0.7384507461844131  0.8260048389605639  0.7832136835282176
  0.3452412239025640  0.6955609937781659  0.0427889892622539
  0.2091455502504652  0.8357172221476025  0.3673379870870593
  0.1314158376540379  0.1154239508747807  0.2836055940068138
  0.7370216332244905  0.9835752605432545  0.9833165890736874
  0.8033320810433974  0.1803541127342410  0.3283126065260972
  0.0992549201909360  0.2713333810634463  0.6076709574339423
  0.1140588758614500  0.6442227392192174  0.1403685971737686
 
  0.00000000E+00  0.00000000E+00  0.00000000E+00
  0.00000000E+00  0.00000000E+00  0.00000000E+00
  0.00000000E+00  0.00000000E+00  0.00000000E+00
  0.00000000E+00  0.00000000E+00  0.00000000E+00
  0.00000000E+00  0.00000000E+00  0.00000000E+00
  0.00000000E+00  0.00000000E+00  0.00000000E+00
  0.00000000E+00  0.00000000E+00  0.00000000E+00
  0.00000000E+00  0.00000000E+00  0.00000000E+00
  0.00000000E+00  0.00000000E+00  0.00000000E+00
  0.00000000E+00  0.00000000E+00  0.00000000E+00
  0.00000000E+00  0.00000000E+00  0.00000000E+00
  0.00000000E+00  0.00000000E+00  0.00000000E+00
  0.00000000E+00  0.00000000E+00  0.00000000E+00
  0.00000000E+00  0.00000000E+00  0.00000000E+00
  0.00000000E+00  0.00000000E+00  0.00000000E+00
  0.00000000E+00  0.00000000E+00  0.00000000E+00
  0.00000000E+00  0.00000000E+00  0.00000000E+00
  0.00000000E+00  0.00000000E+00  0.00000000E+00
  0.00000000E+00  0.00000000E+00  0.00000000E+00
  0.00000000E+00  0.00000000E+00  0.00000000E+00
  0.00000000E+00  0.00000000E+00  0.00000000E+00
  0.00000000E+00  0.00000000E+00  0.00000000E+00
  0.00000000E+00  0.00000000E+00  0.00000000E+00
  0.00000000E+00  0.00000000E+00  0.00000000E+00
  0.00000000E+00  0.00000000E+00  0.00000000E+00
  0.00000000E+00  0.00000000E+00  0.00000000E+00
  0.00000000E+00  0.00000000E+00  0.00000000E+00
  0.00000000E+00  0.00000000E+00  0.00000000E+00
  0.00000000E+00  0.00000000E+00  0.00000000E+00
  0.00000000E+00  0.00000000E+00  0.00000000E+00
  0.00000000E+00  0.00000000E+00  0.00000000E+00
  0.00000000E+00  0.00000000E+00  0.00000000E+00
  0.00000000E+00  0.00000000E+00  0.00000000E+00
  0.00000000E+00  0.00000000E+00  0.00000000E+00
  0.00000000E+00  0.00000000E+00  0.00000000E+00
  0.00000000E+00  0.00000000E+00  0.00000000E+00
  0.00000000E+00  0.00000000E+00  0.00000000E+00
  0.00000000E+00  0.00000000E+00  0.00000000E+00
  0.00000000E+00  0.00000000E+00  0.00000000E+00
  0.00000000E+00  0.00000000E+00  0.00000000E+00
  0.00000000E+00  0.00000000E+00  0.00000000E+00
  0.00000000E+00  0.00000000E+00  0.00000000E+00
  0.00000000E+00  0.00000000E+00  0.00000000E+00
  0.00000000E+00  0.00000000E+00  0.00000000E+00
  0.00000000E+00  0.00000000E+00  0.00000000E+00
  0.00000000E+00  0.00000000E+00  0.00000000E+00
  0.00000000E+00  0.00000000E+00  0.00000000E+00
  0.00000000E+00  0.00000000E+00  0.00000000E+00
  0.00000000E+00  0.00000000E+00  0.00000000E+00
  0.00000000E+00  0.00000000E+00  0.00000000E+00
  0.00000000E+00  0.00000000E+00  0.00000000E+00
  0.00000000E+00  0.00000000E+00  0.00000000E+00
  0.00000000E+00  0.00000000E+00  0.00000000E+00
  0.00000000E+00  0.00000000E+00  0.00000000E+00
  0.00000000E+00  0.00000000E+00  0.00000000E+00
  0.00000000E+00  0.00000000E+00  0.00000000E+00
  0.00000000E+00  0.00000000E+00  0.00000000E+00
  0.00000000E+00  0.00000000E+00  0.00000000E+00
  0.00000000E+00  0.00000000E+00  0.00000000E+00
  0.00000000E+00  0.00000000E+00  0.00000000E+00
  0.00000000E+00  0.00000000E+00  0.00000000E+00
  0.00000000E+00  0.00000000E+00  0.00000000E+00
  0.00000000E+00  0.00000000E+00  0.00000000E+00
  0.00000000E+00  0.00000000E+00  0.00000000E+00
  0.00000000E+00  0.00000000E+00  0.00000000E+00
  0.00000000E+00  0.00000000E+00  0.00000000E+00
  0.00000000E+00  0.00000000E+00  0.00000000E+00
  0.00000000E+00  0.00000000E+00  0.00000000E+00
  0.00000000E+00  0.00000000E+00  0.00000000E+00
  0.00000000E+00  0.00000000E+00  0.00000000E+00
  0.00000000E+00  0.00000000E+00  0.00000000E+00
  0.00000000E+00  0.00000000E+00  0.00000000E+00
  0.00000000E+00  0.00000000E+00  0.00000000E+00
  0.00000000E+00  0.00000000E+00  0.00000000E+00
  0.00000000E+00  0.00000000E+00  0.00000000E+00
  0.00000000E+00  0.00000000E+00  0.00000000E+00
  0.00000000E+00  0.00000000E+00  0.00000000E+00
  0.00000000E+00  0.00000000E+00  0.00000000E+00
  0.00000000E+00  0.00000000E+00  0.00000000E+00
  0.00000000E+00  0.00000000E+00  0.00000000E+00
  0.00000000E+00  0.00000000E+00  0.00000000E+00
  0.00000000E+00  0.00000000E+00  0.00000000E+00
  0.00000000E+00  0.00000000E+00  0.00000000E+00
  0.00000000E+00  0.00000000E+00  0.00000000E+00
  0.00000000E+00  0.00000000E+00  0.00000000E+00
  0.00000000E+00  0.00000000E+00  0.00000000E+00
  0.00000000E+00  0.00000000E+00  0.00000000E+00
  0.00000000E+00  0.00000000E+00  0.00000000E+00
  0.00000000E+00  0.00000000E+00  0.00000000E+00
  0.00000000E+00  0.00000000E+00  0.00000000E+00
  0.00000000E+00  0.00000000E+00  0.00000000E+00
  0.00000000E+00  0.00000000E+00  0.00000000E+00
  0.00000000E+00  0.00000000E+00  0.00000000E+00
  0.00000000E+00  0.00000000E+00  0.00000000E+00
  0.00000000E+00  0.00000000E+00  0.00000000E+00
  0.00000000E+00  0.00000000E+00  0.00000000E+00
