  Built with Packmol                    
    1.000000000000000     
    10.9317658915515086   -0.2974980015892552   -0.0399239011195813
    -0.3096411844632464   11.0489638223778108    0.2090198609440011
    -0.0589177308336431    0.1916819721570504   11.7033238672077022
   Fe   Ge
    48    48
Direct
  0.6409601887067922  0.4128266253627331  0.5189691346808445
  0.3505659755211425  0.7162592465861408  0.1285474787304679
  0.7393395064664290  0.7557878261940303  0.2329070424117745
  0.5724317005458630  0.7873725157976779  0.4154072400755737
  0.6170894080564366  0.5008286846178152  0.1740210568302416
  0.6277420448481550  0.6288910751216505  0.6434283713908755
  0.0196135873161722  0.6109447745114593  0.5777308857839927
  0.0767475007626217  0.0227727770234978  0.6925866479508542
  0.7121137787446870  0.1334225998873819  0.2790332435864968
  0.9390225402744363  0.4582035546841112  0.7692043017532910
  0.7984621517843777  0.3574804823291231  0.1372264941548451
  0.7398626357008879  0.6134277810463118  0.0183024153385247
  0.6014124712909563  0.2380131989649144  0.6563074811325436
  0.8676840125548253  0.9585806482495940  0.5598596252891141
  0.6891788310257212  0.5812538309841102  0.3739030764620281
  0.2292550950536949  0.7569952723727624  0.6694467664464838
  0.9672231490682179  0.7689996123028067  0.1877682471439357
  0.1597178910727806  0.8603703216751555  0.0273464032937341
  0.0765662400944933  0.9949506514595825  0.2125097023136533
  0.3107397317111733  0.4901572605125040  0.3969529165641745
  0.1328282092228861  0.6941023726492759  0.4231857230843730
  0.5424003828509854  0.5572744443536735  0.8484246095718859
  0.8592244411629437  0.7234330537703642  0.6719899825168554
  0.4405090413161474  0.8931943467977916  0.7392772014363160
  0.9957814875497277  0.8660871791278524  0.3747088577811084
  0.2328536217573429  0.8923353131383536  0.4388445150736473
  0.1673611981923173  0.3912630284736096  0.2745254707180607
  0.6183088099201868  0.7744550547640046  0.8346097856691941
  0.6770804585541370  0.9913219181160784  0.4416116239890400
  0.7768264932749389  0.1984106275488884  0.5071076204316967
  0.4067989295298773  0.8979486224368713  0.2848603841332817
  0.3538395169476090  0.0409959407450415  0.9155781151898594
  0.2055525300262531  0.4596257120491458  0.0632519322163034
  0.0137180395932504  0.2817253761860741  0.4436538331544213
  0.0047949935340199  0.8442425248153427  0.8040301560841883
  0.7564578918844092  0.0238545596868178  0.9266789012370324
  0.2765672073802889  0.9914259880619625  0.6272550148396121
  0.6341398453464251  0.8389889026672961  0.6215020977713479
  0.1124093416040850  0.0637515672558564  0.4736537582566456
  0.6091785307892579  0.3876713255709561  0.9777539098486585
  0.3459288155927212  0.7123659195690237  0.3597322491943160
  0.9043686520169416  0.0841305650411854  0.3875145481243294
  0.9086579032588844  0.6534685542003373  0.3747820405268740
  0.3826709783005953  0.4996297645481604  0.1940564261389071
  0.9578778694721422  0.9443146779640514  0.0372974620370741
  0.3888387594252194  0.7864128255050957  0.9257938064787865
  0.1964617972845986  0.8191097237260507  0.2478181732102058
  0.2453809081256537  0.2598423539900310  0.9525747446287269
  0.4355115210671627  0.1180772394400904  0.7207460854503864
  0.1815596892362805  0.6041845924692311  0.2285825495159202
  0.7788455642813972  0.1455863719738133  0.0814417507281604
  0.4575680149839556  0.2177103161427993  0.9755397270001964
  0.7946130147760258  0.8987151179830803  0.7682359830265995
  0.5493300284138130  0.9673702879547719  0.9097558068135072
  0.6696596689386354  0.2092340060609814  0.8522480601479145
  0.5199244144725981  0.6403800169776090  0.0262906414408519
  0.7806627996275495  0.7894142289813004  0.4615487194582784
  0.0885496652543196  0.3876313829829172  0.8940960791356503
  0.4231659677316912  0.6746053286152005  0.7287230413146588
  0.7397337603936620  0.8339321533042749  0.0341809995507134
  0.7643222964375838  0.5922302831600632  0.8162450774005947
  0.8121832678526886  0.5501494511930360  0.5502359318057088
  0.0693698903642499  0.3952844041807566  0.6233584644623775
  0.2797541011171134  0.0615126031025426  0.2687026557165595
  0.8288745405042448  0.4039859359861140  0.9393896592502742
  0.8339863398294085  0.5603484942423549  0.2059033107630341
  0.6143854304190199  0.9373240077411538  0.2413220799408933
  0.2285201132485710  0.2954014107166927  0.4580402200290408
  0.5260086689782923  0.6820468911217361  0.2481466061429956
  0.0584997527760294  0.6397426824454087  0.7780052959784669
  0.5141402141374343  0.4162533173826901  0.3467665556073030
  0.8295379602271282  0.3147910672905354  0.3396925180403869
  0.9584608872949900  0.0564129301861414  0.8567740107664221
  0.0521107984205642  0.8406535995310946  0.5756057995549853
  0.2075969903426653  0.6522759362765669  0.9727584289480689
  0.3798116756404610  0.4400832491462978  0.9332241407538291
  0.9553760154220754  0.7300765719878015  0.9790132540608099
  0.2427794503755152  0.5678992307358115  0.5747507788564263
  0.6695305495790294  0.0493723320131707  0.6386080428320895
  0.8563947351596468  0.9618753365952202  0.2279697303021777
  0.4268686073607668  0.8665415955417970  0.5314010332116510
  0.3015829125645340  0.2808448236083265  0.1578594431984257
  0.2100081028867749  0.1672659527318245  0.7797135139595355
  0.5705891029484462  0.2021693606872788  0.4416194831714293
  0.4864390346464020  0.5907509794033174  0.4944310299733203
  0.0303039996562902  0.4873250422550441  0.3993126368680322
  0.2186069455346953  0.9011769059959605  0.8244709529642975
  0.0680033373021942  0.1932865641130732  0.2732270324702810
  0.3557402020485867  0.1113512196128141  0.4718493172699709
  0.5473311226006317  0.4168991849163817  0.7144488128202084
  0.1460565595643857  0.0841064100664326  0.0295190111026358
  0.3702186217982444  0.9311024493349151  0.0898730893067707
  0.9602758915124028  0.1587773616248569  0.6006482684896000
  0.5807248518980899  0.2771751382892234  0.1694496659872158
  0.0083451565078363  0.3865435787977916  0.1314488645441401
  0.8001713068493856  0.3337113572127350  0.6645719726687460
 
  0.00000000E+00  0.00000000E+00  0.00000000E+00
  0.00000000E+00  0.00000000E+00  0.00000000E+00
  0.00000000E+00  0.00000000E+00  0.00000000E+00
  0.00000000E+00  0.00000000E+00  0.00000000E+00
  0.00000000E+00  0.00000000E+00  0.00000000E+00
  0.00000000E+00  0.00000000E+00  0.00000000E+00
  0.00000000E+00  0.00000000E+00  0.00000000E+00
  0.00000000E+00  0.00000000E+00  0.00000000E+00
  0.00000000E+00  0.00000000E+00  0.00000000E+00
  0.00000000E+00  0.00000000E+00  0.00000000E+00
  0.00000000E+00  0.00000000E+00  0.00000000E+00
  0.00000000E+00  0.00000000E+00  0.00000000E+00
  0.00000000E+00  0.00000000E+00  0.00000000E+00
  0.00000000E+00  0.00000000E+00  0.00000000E+00
  0.00000000E+00  0.00000000E+00  0.00000000E+00
  0.00000000E+00  0.00000000E+00  0.00000000E+00
  0.00000000E+00  0.00000000E+00  0.00000000E+00
  0.00000000E+00  0.00000000E+00  0.00000000E+00
  0.00000000E+00  0.00000000E+00  0.00000000E+00
  0.00000000E+00  0.00000000E+00  0.00000000E+00
  0.00000000E+00  0.00000000E+00  0.00000000E+00
  0.00000000E+00  0.00000000E+00  0.00000000E+00
  0.00000000E+00  0.00000000E+00  0.00000000E+00
  0.00000000E+00  0.00000000E+00  0.00000000E+00
  0.00000000E+00  0.00000000E+00  0.00000000E+00
  0.00000000E+00  0.00000000E+00  0.00000000E+00
  0.00000000E+00  0.00000000E+00  0.00000000E+00
  0.00000000E+00  0.00000000E+00  0.00000000E+00
  0.00000000E+00  0.00000000E+00  0.00000000E+00
  0.00000000E+00  0.00000000E+00  0.00000000E+00
  0.00000000E+00  0.00000000E+00  0.00000000E+00
  0.00000000E+00  0.00000000E+00  0.00000000E+00
  0.00000000E+00  0.00000000E+00  0.00000000E+00
  0.00000000E+00  0.00000000E+00  0.00000000E+00
  0.00000000E+00  0.00000000E+00  0.00000000E+00
  0.00000000E+00  0.00000000E+00  0.00000000E+00
  0.00000000E+00  0.00000000E+00  0.00000000E+00
  0.00000000E+00  0.00000000E+00  0.00000000E+00
  0.00000000E+00  0.00000000E+00  0.00000000E+00
  0.00000000E+00  0.00000000E+00  0.00000000E+00
  0.00000000E+00  0.00000000E+00  0.00000000E+00
  0.00000000E+00  0.00000000E+00  0.00000000E+00
  0.00000000E+00  0.00000000E+00  0.00000000E+00
  0.00000000E+00  0.00000000E+00  0.00000000E+00
  0.00000000E+00  0.00000000E+00  0.00000000E+00
  0.00000000E+00  0.00000000E+00  0.00000000E+00
  0.00000000E+00  0.00000000E+00  0.00000000E+00
  0.00000000E+00  0.00000000E+00  0.00000000E+00
  0.00000000E+00  0.00000000E+00  0.00000000E+00
  0.00000000E+00  0.00000000E+00  0.00000000E+00
  0.00000000E+00  0.00000000E+00  0.00000000E+00
  0.00000000E+00  0.00000000E+00  0.00000000E+00
  0.00000000E+00  0.00000000E+00  0.00000000E+00
  0.00000000E+00  0.00000000E+00  0.00000000E+00
  0.00000000E+00  0.00000000E+00  0.00000000E+00
  0.00000000E+00  0.00000000E+00  0.00000000E+00
  0.00000000E+00  0.00000000E+00  0.00000000E+00
  0.00000000E+00  0.00000000E+00  0.00000000E+00
  0.00000000E+00  0.00000000E+00  0.00000000E+00
  0.00000000E+00  0.00000000E+00  0.00000000E+00
  0.00000000E+00  0.00000000E+00  0.00000000E+00
  0.00000000E+00  0.00000000E+00  0.00000000E+00
  0.00000000E+00  0.00000000E+00  0.00000000E+00
  0.00000000E+00  0.00000000E+00  0.00000000E+00
  0.00000000E+00  0.00000000E+00  0.00000000E+00
  0.00000000E+00  0.00000000E+00  0.00000000E+00
  0.00000000E+00  0.00000000E+00  0.00000000E+00
  0.00000000E+00  0.00000000E+00  0.00000000E+00
  0.00000000E+00  0.00000000E+00  0.00000000E+00
  0.00000000E+00  0.00000000E+00  0.00000000E+00
  0.00000000E+00  0.00000000E+00  0.00000000E+00
  0.00000000E+00  0.00000000E+00  0.00000000E+00
  0.00000000E+00  0.00000000E+00  0.00000000E+00
  0.00000000E+00  0.00000000E+00  0.00000000E+00
  0.00000000E+00  0.00000000E+00  0.00000000E+00
  0.00000000E+00  0.00000000E+00  0.00000000E+00
  0.00000000E+00  0.00000000E+00  0.00000000E+00
  0.00000000E+00  0.00000000E+00  0.00000000E+00
  0.00000000E+00  0.00000000E+00  0.00000000E+00
  0.00000000E+00  0.00000000E+00  0.00000000E+00
  0.00000000E+00  0.00000000E+00  0.00000000E+00
  0.00000000E+00  0.00000000E+00  0.00000000E+00
  0.00000000E+00  0.00000000E+00  0.00000000E+00
  0.00000000E+00  0.00000000E+00  0.00000000E+00
  0.00000000E+00  0.00000000E+00  0.00000000E+00
  0.00000000E+00  0.00000000E+00  0.00000000E+00
  0.00000000E+00  0.00000000E+00  0.00000000E+00
  0.00000000E+00  0.00000000E+00  0.00000000E+00
  0.00000000E+00  0.00000000E+00  0.00000000E+00
  0.00000000E+00  0.00000000E+00  0.00000000E+00
  0.00000000E+00  0.00000000E+00  0.00000000E+00
  0.00000000E+00  0.00000000E+00  0.00000000E+00
  0.00000000E+00  0.00000000E+00  0.00000000E+00
  0.00000000E+00  0.00000000E+00  0.00000000E+00
  0.00000000E+00  0.00000000E+00  0.00000000E+00
  0.00000000E+00  0.00000000E+00  0.00000000E+00
