  Built with Packmol                    
    1.000000000000000     
    11.0359188306817888   -0.1195877200349609   -0.1491976226413259
    -0.1236481327966468   11.4187636274593309    0.2283367678090316
    -0.1513289359117116    0.2338963779766919   11.2584903063613133
   Fe   Ge
    48    48
Direct
  0.1674240506656659  0.0836076363933671  0.5308645797588696
  0.9483784379136750  0.9166435642853443  0.9565898223312388
  0.9495745542534237  0.1189185317735308  0.5754027025357118
  0.3384753589276386  0.5045290500387836  0.8638322643714389
  0.5029157314165857  0.3970180412094635  0.5691933602916990
  0.2758615017273272  0.2384183161791071  0.3865699187740574
  0.5839281308726854  0.2080614530869411  0.6587798073859119
  0.2314786052632911  0.6590358250622543  0.5321598593064181
  0.4352533391868434  0.7235533924154893  0.2331883694289374
  0.1459606469972812  0.6413323214865159  0.9097912439451292
  0.3364792344773377  0.3237772691602316  0.1778921520010570
  0.5444520700737812  0.3328536841309102  0.1566177093218428
  0.6799009625796089  0.8089547125106975  0.2411832061828889
  0.0711195539383169  0.2883640111504775  0.2156865332595217
  0.2632134944033666  0.6272617734793613  0.1005460461735836
  0.8828747895821252  0.4201413143878767  0.5021991032372739
  0.6532750297426091  0.1986842238042783  0.2956002558118271
  0.4370615800812629  0.1391788248986501  0.2660245653455675
  0.1083263736030347  0.4641518289347815  0.4080330502443346
  0.4135002150791820  0.3364847454284146  0.7579557116053479
  0.3466015816647001  0.8337366679323637  0.0656430583311689
  0.8420015121732263  0.9989099754504025  0.2057964857862089
  0.9232642795859789  0.8159301204602230  0.3495837491933642
  0.7783857712099689  0.2989658296764119  0.8767634582008270
  0.4214441418870933  0.5137422954220483  0.2437591315447705
  0.5139140037128129  0.3680472971103868  0.3564279158370525
  0.3526890096545330  0.0385688076431094  0.4479579991538927
  0.5271058615732187  0.9976468900424180  0.9716161223452104
  0.4425123486930076  0.1819963617903753  0.0518566599694594
  0.2819895377706345  0.6197842782135439  0.3368147056112960
  0.2132870261204260  0.7889313389651065  0.2352968842314951
  0.6843654531737116  0.5039292300238785  0.4540825185299298
  0.7277991562445507  0.9199637329152566  0.0180992263813664
  0.7308067616281875  0.4066350491827890  0.2670769120167407
  0.5503050127511102  0.3598048476984346  0.9436863764905254
  0.6740895851146149  0.1920625116918160  0.0670585257868481
  0.0840056894007191  0.9442613182253439  0.7101984836916628
  0.4624372793498139  0.5926041827970536  0.4656363438842561
  0.7143543320946222  0.9833036078597246  0.6150588912955399
  0.9878127474560259  0.0943853670226176  0.3409100171331261
  0.5689053631642125  0.9906800917663432  0.3879608953368887
  0.7102769007745167  0.0753084799533781  0.8437596188665140
  0.2081164856503719  0.8734787036652065  0.8696330043159577
  0.1599118812170346  0.4367566067532280  0.0162446222786770
  0.5060168577807005  0.1866140008406418  0.4625824640047895
  0.0026352921974038  0.7454302184287229  0.5894371038738981
  0.8165421168332117  0.5865329209051637  0.1390069316320037
  0.0275873552943580  0.1104840317618070  0.1111285200222909
  0.7984316475512827  0.1947650915054666  0.6864435892508070
  0.0068885391344082  0.9383457335590748  0.4986424314841145
  0.3069652118490325  0.3085471481673920  0.9504368126137877
  0.7649856795950427  0.7112595089030549  0.9434731641986076
  0.9763917354783160  0.7473549654329972  0.8182463128259272
  0.6262112551185979  0.6008620115889158  0.2642660906069239
  0.5182326620225837  0.7873278862447037  0.4148868385068170
  0.3376392277221072  0.2103140609920047  0.6039065505711676
  0.0773797526943554  0.6778066810621795  0.3757037820539111
  0.5530753804260939  0.7994894004025070  0.0656642219612849
  0.3186506416394508  0.4323643483233113  0.4461818509050914
  0.3614165237505418  0.7042825259508234  0.9051299546643108
  0.0529658630163823  0.5361945955401524  0.5921247949264483
  0.6306310133942006  0.8808770026679369  0.8111344456836207
  0.4491405722633957  0.5037292678779224  0.0444420749767360
  0.3702058384458766  0.5542268748800794  0.6634190163879623
  0.7437072881406124  0.8698122948879075  0.4352104117785629
  0.1063716452590668  0.1821463478944949  0.7144866453766099
  0.1160238607051980  0.7981771480836102  0.0466965347905131
  0.8748465853765950  0.4088093556100461  0.7193469530799632
  0.6062800324513802  0.0160198058125047  0.1778387362551612
  0.8521840372214058  0.1037962928878429  0.9935751477142389
  0.1318206929421493  0.4618412857601513  0.8042871606949831
  0.1867880805663518  0.7359734582492905  0.7144707321622406
  0.8473889786101836  0.6417677822081700  0.4670725617614551
  0.8559724058570666  0.2289934402244072  0.2147910435191491
  0.8825497599156265  0.9879454738043236  0.7513964302805647
  0.1926140242273391  0.4650476693090084  0.2203513626855198
  0.7337603149875775  0.4197990792885378  0.0437673091909261
  0.2284647509081950  0.1420044377929415  0.1900438200903380
  0.0715029827043452  0.9385898772373551  0.2364573037517985
  0.7871871961752461  0.0949036966792676  0.4314721168110225
  0.0550895870954804  0.2635900823226649  0.4485678934321911
  0.8733875049909940  0.7910116339265372  0.1420041238856342
  0.1062151668713938  0.0624334783445519  0.9125089934462380
  0.3999256692876187  0.9266581664022695  0.7936528453487952
  0.6947786459687961  0.3019216922527548  0.4857890090968056
  0.9354308729149139  0.4671530700159821  0.2838646794645712
  0.3684551838898358  0.9330100876183920  0.2627162956450988
  0.6244286400717485  0.4237765040588997  0.7568739785690397
  0.5040914954578000  0.0057466282693994  0.6007479459316727
  0.2513241493864413  0.8635573817281994  0.5010373845902265
  0.7871892576829467  0.7780691211211916  0.6500052019844063
  0.6228694824263385  0.6120061551200777  0.6188149641108964
  0.3143607861996784  0.0237157365288994  0.9958070597463546
  0.5268355928215058  0.1735434608339759  0.8568587729141228
  0.9996607309502537  0.5676283068717325  0.0432568443215473
  0.9948451544467929  0.3042757827878972  0.9886439514151490
 
  0.00000000E+00  0.00000000E+00  0.00000000E+00
  0.00000000E+00  0.00000000E+00  0.00000000E+00
  0.00000000E+00  0.00000000E+00  0.00000000E+00
  0.00000000E+00  0.00000000E+00  0.00000000E+00
  0.00000000E+00  0.00000000E+00  0.00000000E+00
  0.00000000E+00  0.00000000E+00  0.00000000E+00
  0.00000000E+00  0.00000000E+00  0.00000000E+00
  0.00000000E+00  0.00000000E+00  0.00000000E+00
  0.00000000E+00  0.00000000E+00  0.00000000E+00
  0.00000000E+00  0.00000000E+00  0.00000000E+00
  0.00000000E+00  0.00000000E+00  0.00000000E+00
  0.00000000E+00  0.00000000E+00  0.00000000E+00
  0.00000000E+00  0.00000000E+00  0.00000000E+00
  0.00000000E+00  0.00000000E+00  0.00000000E+00
  0.00000000E+00  0.00000000E+00  0.00000000E+00
  0.00000000E+00  0.00000000E+00  0.00000000E+00
  0.00000000E+00  0.00000000E+00  0.00000000E+00
  0.00000000E+00  0.00000000E+00  0.00000000E+00
  0.00000000E+00  0.00000000E+00  0.00000000E+00
  0.00000000E+00  0.00000000E+00  0.00000000E+00
  0.00000000E+00  0.00000000E+00  0.00000000E+00
  0.00000000E+00  0.00000000E+00  0.00000000E+00
  0.00000000E+00  0.00000000E+00  0.00000000E+00
  0.00000000E+00  0.00000000E+00  0.00000000E+00
  0.00000000E+00  0.00000000E+00  0.00000000E+00
  0.00000000E+00  0.00000000E+00  0.00000000E+00
  0.00000000E+00  0.00000000E+00  0.00000000E+00
  0.00000000E+00  0.00000000E+00  0.00000000E+00
  0.00000000E+00  0.00000000E+00  0.00000000E+00
  0.00000000E+00  0.00000000E+00  0.00000000E+00
  0.00000000E+00  0.00000000E+00  0.00000000E+00
  0.00000000E+00  0.00000000E+00  0.00000000E+00
  0.00000000E+00  0.00000000E+00  0.00000000E+00
  0.00000000E+00  0.00000000E+00  0.00000000E+00
  0.00000000E+00  0.00000000E+00  0.00000000E+00
  0.00000000E+00  0.00000000E+00  0.00000000E+00
  0.00000000E+00  0.00000000E+00  0.00000000E+00
  0.00000000E+00  0.00000000E+00  0.00000000E+00
  0.00000000E+00  0.00000000E+00  0.00000000E+00
  0.00000000E+00  0.00000000E+00  0.00000000E+00
  0.00000000E+00  0.00000000E+00  0.00000000E+00
  0.00000000E+00  0.00000000E+00  0.00000000E+00
  0.00000000E+00  0.00000000E+00  0.00000000E+00
  0.00000000E+00  0.00000000E+00  0.00000000E+00
  0.00000000E+00  0.00000000E+00  0.00000000E+00
  0.00000000E+00  0.00000000E+00  0.00000000E+00
  0.00000000E+00  0.00000000E+00  0.00000000E+00
  0.00000000E+00  0.00000000E+00  0.00000000E+00
  0.00000000E+00  0.00000000E+00  0.00000000E+00
  0.00000000E+00  0.00000000E+00  0.00000000E+00
  0.00000000E+00  0.00000000E+00  0.00000000E+00
  0.00000000E+00  0.00000000E+00  0.00000000E+00
  0.00000000E+00  0.00000000E+00  0.00000000E+00
  0.00000000E+00  0.00000000E+00  0.00000000E+00
  0.00000000E+00  0.00000000E+00  0.00000000E+00
  0.00000000E+00  0.00000000E+00  0.00000000E+00
  0.00000000E+00  0.00000000E+00  0.00000000E+00
  0.00000000E+00  0.00000000E+00  0.00000000E+00
  0.00000000E+00  0.00000000E+00  0.00000000E+00
  0.00000000E+00  0.00000000E+00  0.00000000E+00
  0.00000000E+00  0.00000000E+00  0.00000000E+00
  0.00000000E+00  0.00000000E+00  0.00000000E+00
  0.00000000E+00  0.00000000E+00  0.00000000E+00
  0.00000000E+00  0.00000000E+00  0.00000000E+00
  0.00000000E+00  0.00000000E+00  0.00000000E+00
  0.00000000E+00  0.00000000E+00  0.00000000E+00
  0.00000000E+00  0.00000000E+00  0.00000000E+00
  0.00000000E+00  0.00000000E+00  0.00000000E+00
  0.00000000E+00  0.00000000E+00  0.00000000E+00
  0.00000000E+00  0.00000000E+00  0.00000000E+00
  0.00000000E+00  0.00000000E+00  0.00000000E+00
  0.00000000E+00  0.00000000E+00  0.00000000E+00
  0.00000000E+00  0.00000000E+00  0.00000000E+00
  0.00000000E+00  0.00000000E+00  0.00000000E+00
  0.00000000E+00  0.00000000E+00  0.00000000E+00
  0.00000000E+00  0.00000000E+00  0.00000000E+00
  0.00000000E+00  0.00000000E+00  0.00000000E+00
  0.00000000E+00  0.00000000E+00  0.00000000E+00
  0.00000000E+00  0.00000000E+00  0.00000000E+00
  0.00000000E+00  0.00000000E+00  0.00000000E+00
  0.00000000E+00  0.00000000E+00  0.00000000E+00
  0.00000000E+00  0.00000000E+00  0.00000000E+00
  0.00000000E+00  0.00000000E+00  0.00000000E+00
  0.00000000E+00  0.00000000E+00  0.00000000E+00
  0.00000000E+00  0.00000000E+00  0.00000000E+00
  0.00000000E+00  0.00000000E+00  0.00000000E+00
  0.00000000E+00  0.00000000E+00  0.00000000E+00
  0.00000000E+00  0.00000000E+00  0.00000000E+00
  0.00000000E+00  0.00000000E+00  0.00000000E+00
  0.00000000E+00  0.00000000E+00  0.00000000E+00
  0.00000000E+00  0.00000000E+00  0.00000000E+00
  0.00000000E+00  0.00000000E+00  0.00000000E+00
  0.00000000E+00  0.00000000E+00  0.00000000E+00
  0.00000000E+00  0.00000000E+00  0.00000000E+00
  0.00000000E+00  0.00000000E+00  0.00000000E+00
  0.00000000E+00  0.00000000E+00  0.00000000E+00
