  Built with Packmol                    
   1.00000000000000     
    11.1620662575404523    0.1743231062714913    0.1544988965276669
     0.1763600030633641   11.4368837105148291    0.0517273584231992
     0.1542827540615110    0.0498511525829189   11.1573732048071417
   Fe   Ge
    48    48
Direct
  0.1470361245311276  0.6329576460980226  0.4039176229552137
  0.9233563119783772  0.1447586328146871  0.6033225437835180
  0.9272109537448050  0.9261755040988232  0.6493850796117242
  0.4400317290411151  0.3703314525480004  0.7446962190299545
  0.5059416779319423  0.0636152225293491  0.1092581765258947
  0.1452251257305547  0.0981995431911918  0.7154807671210673
  0.0481854209014360  0.3158050236075747  0.2378499449007925
  0.7345322237137980  0.5490169031446006  0.0612585159270529
  0.7607601341462440  0.8169759626558214  0.5544466964076331
  0.6834954299051245  0.9363791269548348  0.2004679463501673
  0.4648950223196828  0.0291772055719680  0.8817917020071115
  0.7184348924426556  0.0084002737728120  0.8131774689782768
  0.9876819605216143  0.7955642253589326  0.4858222174372846
  0.9736260599882890  0.2749904010396485  0.7698702490150934
  0.7339782607025426  0.7807307052208314  0.0039155101551588
  0.7438941869669782  0.2196881275593387  0.4881447615126340
  0.6833515563347661  0.5016747041713338  0.7245517845393233
  0.5408380560276986  0.5802631260513074  0.3912997101611947
  0.7429428161771064  0.5438143117502848  0.3156839930435562
  0.1864842124274793  0.8893671809642281  0.5750523040165642
  0.5759267708911505  0.1674048990420499  0.3169931474464918
  0.0377682947983999  0.7711444863369568  0.2807812915782654
  0.3505690545534786  0.6998985499094214  0.5051515926272165
  0.8721673705777362  0.3863149830651580  0.4013569447419307
  0.3933574781634787  0.9059708968890033  0.4793789016204588
  0.7041854643435640  0.1549254533289163  0.1297465874883071
  0.6288182291207096  0.1500475134589413  0.9379974326803621
  0.9908180343457963  0.3321360932409706  0.9971806896197245
  0.3231965498858519  0.5254413468768376  0.1302505454445644
  0.5755704093318819  0.9172585475657586  0.6483202963450689
  0.9590492106303792  0.5413082578882280  0.0056362022910369
  0.9144746550242704  0.8744542368838626  0.1336525749565953
  0.8247044528199022  0.4127893055273174  0.8661643398183343
  0.4386758444954035  0.2372496426193088  0.9292243843684557
  0.2964381368238696  0.0102051129438139  0.2311759072289168
  0.6168481353629285  0.3535774595687948  0.8675084891563002
  0.4410393293937772  0.5869684313018385  0.7912385745531457
  0.3763321096054279  0.9955222361724979  0.6874231472528988
  0.5490623199216230  0.1462477243951817  0.7257221298940832
  0.8232632580918654  0.6195593678628576  0.8515530583338070
  0.8432750964918500  0.1857618835384086  0.9391333720899060
  0.8762724468472692  0.6747891280480299  0.1691089972755763
  0.1582123038437162  0.7971701681939857  0.9625227018631458
  0.3405451528739208  0.9134234907003673  0.0492710537198943
  0.4488510151021287  0.3770969839049852  0.2899332701130151
  0.0486639753975287  0.6509513296305768  0.8061718857213940
  0.7530325681613742  0.2221518663028371  0.7503072036032988
  0.9530033885867742  0.1883203801840842  0.3983102879378944
  0.0866544035056189  0.8549078145815691  0.7650019845122591
  0.0302455286998058  0.0003223671686957  0.4714719485184656
  0.7434897989667244  0.0325833448305981  0.5926000423437918
  0.2611767592758413  0.0823077197065690  0.5287696303122889
  0.4946838021044531  0.9526676569716985  0.2951515044074037
  0.6041008983657454  0.3241315369306171  0.6194570263626319
  0.8994039219276452  0.6987230045281416  0.6660488650606713
  0.8930467595476734  0.4526275880577912  0.1874540469164739
  0.1542282416826974  0.4254274980987366  0.0631371074526606
  0.8518812683130657  0.3761926987464516  0.6204944718326789
  0.0399335969870867  0.4545324879115772  0.8121242350480473
  0.9373168212336466  0.0593840332275877  0.8044309899532917
  0.8258393986340473  0.8541654252139326  0.3460047434378911
  0.3927633949682951  0.4452846567404643  0.9453056129284186
  0.9490617704486367  0.7517481264750306  0.9681714741111070
  0.3654063231695056  0.1816078361539285  0.3438858171673351
  0.3027166862116966  0.1232623140803119  0.0421038616405726
  0.6080325186215336  0.6154086756254343  0.9060609481131983
  0.3273089930337847  0.1971346408980050  0.7528763640932883
  0.7319436216903159  0.3429556355955040  0.0533140084480093
  0.6630600207027774  0.7213548030278194  0.2139005052494906
  0.1481144885627783  0.6739621791610175  0.6079327365865420
  0.5640129892134007  0.7792349882683519  0.4722821214582222
  0.1098692518168112  0.1786702608203859  0.9151374785180323
  0.0838991540323671  0.4277954623813299  0.4272376547419635
  0.5180147384966670  0.0878153167470801  0.5171863048599362
  0.5139353626482486  0.2713220501672390  0.1229430526903567
  0.9136273306378143  0.1924018934316918  0.1484423301491901
  0.4698573967421277  0.5255419953689993  0.5922202876803790
  0.7112004233963607  0.5923806479325643  0.5261023081895160
  0.5409396279924105  0.5234238503680575  0.1627293825079641
  0.2499490646598278  0.6421320668975544  0.8460114662566974
  0.1283056162552390  0.9160999093262404  0.1421622987495064
  0.4193050429778181  0.7837410536305329  0.6993528954463223
  0.5494333887439794  0.8794243679931204  0.0092356754649110
  0.9289929592340808  0.6163458094282968  0.3860209383854294
  0.3391729470057290  0.5695474415352001  0.3369635473606936
  0.6416214983978392  0.3687670066840358  0.3713380066647218
  0.2451676031425954  0.3674670185654013  0.2633887634272740
  0.2600071164855002  0.9513791854679926  0.8576051194548883
  0.7115874613607367  0.8012994207792095  0.7795941527115839
  0.3445871675303429  0.7121451116092780  0.0555558999705238
  0.2245741314225153  0.8370268793215624  0.3653612689900542
  0.1297250984708557  0.1300482343448721  0.2728215495004297
  0.7857724783986731  0.9918380225444701  0.0155581046744974
  0.7781603202162310  0.0868020094811773  0.3207445906422635
  0.1003073452725892  0.2722831025151642  0.5931020890748031
  0.1217939348892547  0.6435654195212396  0.1311599875526820
 
  0.00000000E+00  0.00000000E+00  0.00000000E+00
  0.00000000E+00  0.00000000E+00  0.00000000E+00
  0.00000000E+00  0.00000000E+00  0.00000000E+00
  0.00000000E+00  0.00000000E+00  0.00000000E+00
  0.00000000E+00  0.00000000E+00  0.00000000E+00
  0.00000000E+00  0.00000000E+00  0.00000000E+00
  0.00000000E+00  0.00000000E+00  0.00000000E+00
  0.00000000E+00  0.00000000E+00  0.00000000E+00
  0.00000000E+00  0.00000000E+00  0.00000000E+00
  0.00000000E+00  0.00000000E+00  0.00000000E+00
  0.00000000E+00  0.00000000E+00  0.00000000E+00
  0.00000000E+00  0.00000000E+00  0.00000000E+00
  0.00000000E+00  0.00000000E+00  0.00000000E+00
  0.00000000E+00  0.00000000E+00  0.00000000E+00
  0.00000000E+00  0.00000000E+00  0.00000000E+00
  0.00000000E+00  0.00000000E+00  0.00000000E+00
  0.00000000E+00  0.00000000E+00  0.00000000E+00
  0.00000000E+00  0.00000000E+00  0.00000000E+00
  0.00000000E+00  0.00000000E+00  0.00000000E+00
  0.00000000E+00  0.00000000E+00  0.00000000E+00
  0.00000000E+00  0.00000000E+00  0.00000000E+00
  0.00000000E+00  0.00000000E+00  0.00000000E+00
  0.00000000E+00  0.00000000E+00  0.00000000E+00
  0.00000000E+00  0.00000000E+00  0.00000000E+00
  0.00000000E+00  0.00000000E+00  0.00000000E+00
  0.00000000E+00  0.00000000E+00  0.00000000E+00
  0.00000000E+00  0.00000000E+00  0.00000000E+00
  0.00000000E+00  0.00000000E+00  0.00000000E+00
  0.00000000E+00  0.00000000E+00  0.00000000E+00
  0.00000000E+00  0.00000000E+00  0.00000000E+00
  0.00000000E+00  0.00000000E+00  0.00000000E+00
  0.00000000E+00  0.00000000E+00  0.00000000E+00
  0.00000000E+00  0.00000000E+00  0.00000000E+00
  0.00000000E+00  0.00000000E+00  0.00000000E+00
  0.00000000E+00  0.00000000E+00  0.00000000E+00
  0.00000000E+00  0.00000000E+00  0.00000000E+00
  0.00000000E+00  0.00000000E+00  0.00000000E+00
  0.00000000E+00  0.00000000E+00  0.00000000E+00
  0.00000000E+00  0.00000000E+00  0.00000000E+00
  0.00000000E+00  0.00000000E+00  0.00000000E+00
  0.00000000E+00  0.00000000E+00  0.00000000E+00
  0.00000000E+00  0.00000000E+00  0.00000000E+00
  0.00000000E+00  0.00000000E+00  0.00000000E+00
  0.00000000E+00  0.00000000E+00  0.00000000E+00
  0.00000000E+00  0.00000000E+00  0.00000000E+00
  0.00000000E+00  0.00000000E+00  0.00000000E+00
  0.00000000E+00  0.00000000E+00  0.00000000E+00
  0.00000000E+00  0.00000000E+00  0.00000000E+00
  0.00000000E+00  0.00000000E+00  0.00000000E+00
  0.00000000E+00  0.00000000E+00  0.00000000E+00
  0.00000000E+00  0.00000000E+00  0.00000000E+00
  0.00000000E+00  0.00000000E+00  0.00000000E+00
  0.00000000E+00  0.00000000E+00  0.00000000E+00
  0.00000000E+00  0.00000000E+00  0.00000000E+00
  0.00000000E+00  0.00000000E+00  0.00000000E+00
  0.00000000E+00  0.00000000E+00  0.00000000E+00
  0.00000000E+00  0.00000000E+00  0.00000000E+00
  0.00000000E+00  0.00000000E+00  0.00000000E+00
  0.00000000E+00  0.00000000E+00  0.00000000E+00
  0.00000000E+00  0.00000000E+00  0.00000000E+00
  0.00000000E+00  0.00000000E+00  0.00000000E+00
  0.00000000E+00  0.00000000E+00  0.00000000E+00
  0.00000000E+00  0.00000000E+00  0.00000000E+00
  0.00000000E+00  0.00000000E+00  0.00000000E+00
  0.00000000E+00  0.00000000E+00  0.00000000E+00
  0.00000000E+00  0.00000000E+00  0.00000000E+00
  0.00000000E+00  0.00000000E+00  0.00000000E+00
  0.00000000E+00  0.00000000E+00  0.00000000E+00
  0.00000000E+00  0.00000000E+00  0.00000000E+00
  0.00000000E+00  0.00000000E+00  0.00000000E+00
  0.00000000E+00  0.00000000E+00  0.00000000E+00
  0.00000000E+00  0.00000000E+00  0.00000000E+00
  0.00000000E+00  0.00000000E+00  0.00000000E+00
  0.00000000E+00  0.00000000E+00  0.00000000E+00
  0.00000000E+00  0.00000000E+00  0.00000000E+00
  0.00000000E+00  0.00000000E+00  0.00000000E+00
  0.00000000E+00  0.00000000E+00  0.00000000E+00
  0.00000000E+00  0.00000000E+00  0.00000000E+00
  0.00000000E+00  0.00000000E+00  0.00000000E+00
  0.00000000E+00  0.00000000E+00  0.00000000E+00
  0.00000000E+00  0.00000000E+00  0.00000000E+00
  0.00000000E+00  0.00000000E+00  0.00000000E+00
  0.00000000E+00  0.00000000E+00  0.00000000E+00
  0.00000000E+00  0.00000000E+00  0.00000000E+00
  0.00000000E+00  0.00000000E+00  0.00000000E+00
  0.00000000E+00  0.00000000E+00  0.00000000E+00
  0.00000000E+00  0.00000000E+00  0.00000000E+00
  0.00000000E+00  0.00000000E+00  0.00000000E+00
  0.00000000E+00  0.00000000E+00  0.00000000E+00
  0.00000000E+00  0.00000000E+00  0.00000000E+00
  0.00000000E+00  0.00000000E+00  0.00000000E+00
  0.00000000E+00  0.00000000E+00  0.00000000E+00
  0.00000000E+00  0.00000000E+00  0.00000000E+00
  0.00000000E+00  0.00000000E+00  0.00000000E+00
  0.00000000E+00  0.00000000E+00  0.00000000E+00
  0.00000000E+00  0.00000000E+00  0.00000000E+00
