  Built with Packmol                    
   1.00000000000000     
    10.7348358178849299   -0.0467037289861529   -0.3798170031521422
    -0.0252261351682244   11.8260148150472411    0.0193742435405957
    -0.3738040624456252    0.0278486479934203   11.0918542983300554
   Fe   Ge
    48    48
Direct
  0.2171966075756870  0.0957333352549412  0.5697295260675830
  0.9178166949492876  0.9005735552865346  0.9098054976840331
  0.9715479031225271  0.1108552846543560  0.5767929404756487
  0.3419901617582184  0.5160525098545179  0.8972685840396508
  0.5183918614233889  0.4163814296209267  0.5709305033164114
  0.2731870841885993  0.2252129283340238  0.4087892472561450
  0.6103619723411526  0.2436472767434665  0.6856395417901169
  0.2227287032407474  0.6228306655512839  0.5315428365846060
  0.4553529025388414  0.7103955645142079  0.2248535207753619
  0.1358939950647056  0.6274590849895887  0.8674332734693948
  0.3369961370736476  0.3116572162366325  0.2177594863664609
  0.5357079675712058  0.3587766388204372  0.1535657781643636
  0.6757173571646575  0.8394394740623312  0.2346544941739879
  0.0892336479183200  0.2935502569432558  0.2549145838672615
  0.2453929640344867  0.6346027017871947  0.0728492488427435
  0.8991676724419122  0.4252404624554984  0.5106410465983160
  0.6559272203438979  0.1977286995097032  0.2913240056179518
  0.4341781106717448  0.1098964014482178  0.3065997946529393
  0.1182276800764299  0.4579211985938088  0.4025311273464638
  0.4232166427668247  0.3672678754971272  0.7764950740743259
  0.3269594604025485  0.8268967900727304  0.0540707963068598
  0.8319478170145871  0.0180185056989899  0.2183483006953324
  0.8896538955100652  0.7917417141987357  0.3104479973273939
  0.7874034475578284  0.2995018381609569  0.8782234928733885
  0.4977118564011462  0.5178720681582547  0.3037502876642151
  0.5069557133039524  0.3233691950166460  0.3690617065041835
  0.2445997119919241  0.9854837159118475  0.3706621997426680
  0.5111029454717908  0.0180544269364091  0.9431235013278680
  0.4405232504432917  0.1656688924916878  0.0935190522215663
  0.2768318127135458  0.6166268730139137  0.3121762126636440
  0.2124849325187057  0.7974621850978139  0.2301069117184227
  0.6677107429394482  0.5108613204484556  0.4483330850722282
  0.7091685066796813  0.9202808807882974  0.9994357381451735
  0.7211769684405738  0.3961704915065454  0.2744714752535629
  0.5677243716300779  0.4185126750992083  0.9631561883155300
  0.6829617154956296  0.2246393991084048  0.0764483797165312
  0.0638605456895931  0.9438907413501738  0.7085117347095462
  0.4521534999657533  0.6254979016865079  0.4860101236888781
  0.6575950452262731  0.0165892307727447  0.5948016926952064
  0.0482317626187623  0.1099412815631950  0.3550983628917947
  0.6122618685898829  0.9887808012471027  0.3717687937988430
  0.6889332956053096  0.0796684335857307  0.8179402030110694
  0.1879502029937541  0.8403423859923578  0.8570740195473334
  0.1619881861399080  0.4391698750366686  0.9826590003802380
  0.5438576457483180  0.1709461602152018  0.4960817801339559
  0.9717710146471674  0.7745579634582427  0.5432148014582268
  0.8373681674120661  0.5881649533708639  0.1374294415563639
  0.0135646089850638  0.1156934574777395  0.1181429912661471
  0.8295241644696105  0.1963436830740903  0.6971289063901125
  0.0677092336119287  0.9449703158725384  0.4900536241679490
  0.3522229650477442  0.3284034066873645  0.9920693702432786
  0.6711292191179652  0.6076413715928624  0.9836262060761953
  0.9593435752182131  0.7393254990305564  0.7652162242942637
  0.6904564082691991  0.6315092203084447  0.2746911705946147
  0.5579257711568744  0.7857945160182567  0.4173387257648002
  0.3774061215296456  0.2362043957843909  0.6233830373578968
  0.0650460206416241  0.6723022421210985  0.3696867290881656
  0.5426171528191119  0.7978974368520610  0.0413917118807845
  0.3346476427818459  0.4384211138680030  0.4305414625838893
  0.3598659997552147  0.7138374203406954  0.8766303490397434
  0.0913708191635791  0.4864627466615943  0.6153456926985541
  0.5562509527199140  0.9163016845383538  0.7568385392967514
  0.4553624997694854  0.5460401158123034  0.0885877486959998
  0.3733809584856616  0.5509757903483532  0.6805788157960748
  0.7788425505285090  0.8665329479804953  0.4800708828392644
  0.1119649721863141  0.1689350909966336  0.7386295692826437
  0.0936923600208814  0.7961565217379345  0.0367792506812492
  0.8717471699594057  0.4160402782362809  0.7235129209685951
  0.6113693280200749  0.0355397473640053  0.1532644186279626
  0.8360718825666140  0.0943734950872397  0.9857544821227648
  0.1943715531031884  0.3698408648878200  0.7845083566012505
  0.1702479698602275  0.7580274674261247  0.6645932389552982
  0.8474023329106259  0.6172898152053250  0.5192580022630651
  0.8718678111336118  0.2333869185759880  0.2272561107250795
  0.8492497985816314  0.9695945005266466  0.7068690249382570
  0.1840578889592237  0.4677907925335774  0.1946786458911376
  0.7762402257110779  0.4135323077757747  0.0549186009723215
  0.2230094839600270  0.1326734532176346  0.2013707103140945
  0.0456459479934921  0.9363086452807678  0.2323150833056999
  0.8092860867992897  0.0945478254588465  0.4247905122760400
  0.0602674523904696  0.2738395725141771  0.4829725210124423
  0.8509551669304685  0.7853772877623371  0.0931717708956938
  0.0816336853640180  0.0467011392732744  0.9218125081964672
  0.3065078637169307  0.9809071659283504  0.7441345161406190
  0.7115277437089773  0.3155918983658452  0.4969134756781699
  0.9284866735436665  0.4770861849011396  0.2962575756750567
  0.4017959982762846  0.9179044037704500  0.2354778829055277
  0.6359938720318326  0.4433166489419946  0.7699143656936442
  0.4233209326570773  0.0034898141308517  0.5189041684730569
  0.3048378706097949  0.7889873382157475  0.4426605540689863
  0.7216515811070678  0.7661615605969985  0.8353839667710901
  0.6300068486301740  0.6233212818749934  0.6292451533619499
  0.3002917188818088  0.0166233755468994  0.9935817654509549
  0.5381926581149798  0.2159096023856080  0.8865482943052214
  0.0045203857050709  0.5674298826628714  0.0245681136585603
  0.0021755086450170  0.2956616153489833  0.9862898936504578
 
  0.00000000E+00  0.00000000E+00  0.00000000E+00
  0.00000000E+00  0.00000000E+00  0.00000000E+00
  0.00000000E+00  0.00000000E+00  0.00000000E+00
  0.00000000E+00  0.00000000E+00  0.00000000E+00
  0.00000000E+00  0.00000000E+00  0.00000000E+00
  0.00000000E+00  0.00000000E+00  0.00000000E+00
  0.00000000E+00  0.00000000E+00  0.00000000E+00
  0.00000000E+00  0.00000000E+00  0.00000000E+00
  0.00000000E+00  0.00000000E+00  0.00000000E+00
  0.00000000E+00  0.00000000E+00  0.00000000E+00
  0.00000000E+00  0.00000000E+00  0.00000000E+00
  0.00000000E+00  0.00000000E+00  0.00000000E+00
  0.00000000E+00  0.00000000E+00  0.00000000E+00
  0.00000000E+00  0.00000000E+00  0.00000000E+00
  0.00000000E+00  0.00000000E+00  0.00000000E+00
  0.00000000E+00  0.00000000E+00  0.00000000E+00
  0.00000000E+00  0.00000000E+00  0.00000000E+00
  0.00000000E+00  0.00000000E+00  0.00000000E+00
  0.00000000E+00  0.00000000E+00  0.00000000E+00
  0.00000000E+00  0.00000000E+00  0.00000000E+00
  0.00000000E+00  0.00000000E+00  0.00000000E+00
  0.00000000E+00  0.00000000E+00  0.00000000E+00
  0.00000000E+00  0.00000000E+00  0.00000000E+00
  0.00000000E+00  0.00000000E+00  0.00000000E+00
  0.00000000E+00  0.00000000E+00  0.00000000E+00
  0.00000000E+00  0.00000000E+00  0.00000000E+00
  0.00000000E+00  0.00000000E+00  0.00000000E+00
  0.00000000E+00  0.00000000E+00  0.00000000E+00
  0.00000000E+00  0.00000000E+00  0.00000000E+00
  0.00000000E+00  0.00000000E+00  0.00000000E+00
  0.00000000E+00  0.00000000E+00  0.00000000E+00
  0.00000000E+00  0.00000000E+00  0.00000000E+00
  0.00000000E+00  0.00000000E+00  0.00000000E+00
  0.00000000E+00  0.00000000E+00  0.00000000E+00
  0.00000000E+00  0.00000000E+00  0.00000000E+00
  0.00000000E+00  0.00000000E+00  0.00000000E+00
  0.00000000E+00  0.00000000E+00  0.00000000E+00
  0.00000000E+00  0.00000000E+00  0.00000000E+00
  0.00000000E+00  0.00000000E+00  0.00000000E+00
  0.00000000E+00  0.00000000E+00  0.00000000E+00
  0.00000000E+00  0.00000000E+00  0.00000000E+00
  0.00000000E+00  0.00000000E+00  0.00000000E+00
  0.00000000E+00  0.00000000E+00  0.00000000E+00
  0.00000000E+00  0.00000000E+00  0.00000000E+00
  0.00000000E+00  0.00000000E+00  0.00000000E+00
  0.00000000E+00  0.00000000E+00  0.00000000E+00
  0.00000000E+00  0.00000000E+00  0.00000000E+00
  0.00000000E+00  0.00000000E+00  0.00000000E+00
  0.00000000E+00  0.00000000E+00  0.00000000E+00
  0.00000000E+00  0.00000000E+00  0.00000000E+00
  0.00000000E+00  0.00000000E+00  0.00000000E+00
  0.00000000E+00  0.00000000E+00  0.00000000E+00
  0.00000000E+00  0.00000000E+00  0.00000000E+00
  0.00000000E+00  0.00000000E+00  0.00000000E+00
  0.00000000E+00  0.00000000E+00  0.00000000E+00
  0.00000000E+00  0.00000000E+00  0.00000000E+00
  0.00000000E+00  0.00000000E+00  0.00000000E+00
  0.00000000E+00  0.00000000E+00  0.00000000E+00
  0.00000000E+00  0.00000000E+00  0.00000000E+00
  0.00000000E+00  0.00000000E+00  0.00000000E+00
  0.00000000E+00  0.00000000E+00  0.00000000E+00
  0.00000000E+00  0.00000000E+00  0.00000000E+00
  0.00000000E+00  0.00000000E+00  0.00000000E+00
  0.00000000E+00  0.00000000E+00  0.00000000E+00
  0.00000000E+00  0.00000000E+00  0.00000000E+00
  0.00000000E+00  0.00000000E+00  0.00000000E+00
  0.00000000E+00  0.00000000E+00  0.00000000E+00
  0.00000000E+00  0.00000000E+00  0.00000000E+00
  0.00000000E+00  0.00000000E+00  0.00000000E+00
  0.00000000E+00  0.00000000E+00  0.00000000E+00
  0.00000000E+00  0.00000000E+00  0.00000000E+00
  0.00000000E+00  0.00000000E+00  0.00000000E+00
  0.00000000E+00  0.00000000E+00  0.00000000E+00
  0.00000000E+00  0.00000000E+00  0.00000000E+00
  0.00000000E+00  0.00000000E+00  0.00000000E+00
  0.00000000E+00  0.00000000E+00  0.00000000E+00
  0.00000000E+00  0.00000000E+00  0.00000000E+00
  0.00000000E+00  0.00000000E+00  0.00000000E+00
  0.00000000E+00  0.00000000E+00  0.00000000E+00
  0.00000000E+00  0.00000000E+00  0.00000000E+00
  0.00000000E+00  0.00000000E+00  0.00000000E+00
  0.00000000E+00  0.00000000E+00  0.00000000E+00
  0.00000000E+00  0.00000000E+00  0.00000000E+00
  0.00000000E+00  0.00000000E+00  0.00000000E+00
  0.00000000E+00  0.00000000E+00  0.00000000E+00
  0.00000000E+00  0.00000000E+00  0.00000000E+00
  0.00000000E+00  0.00000000E+00  0.00000000E+00
  0.00000000E+00  0.00000000E+00  0.00000000E+00
  0.00000000E+00  0.00000000E+00  0.00000000E+00
  0.00000000E+00  0.00000000E+00  0.00000000E+00
  0.00000000E+00  0.00000000E+00  0.00000000E+00
  0.00000000E+00  0.00000000E+00  0.00000000E+00
  0.00000000E+00  0.00000000E+00  0.00000000E+00
  0.00000000E+00  0.00000000E+00  0.00000000E+00
  0.00000000E+00  0.00000000E+00  0.00000000E+00
  0.00000000E+00  0.00000000E+00  0.00000000E+00
