  Built with Packmol                    
   1.00000000000000     
    10.8466346518555365   -0.0638292966469328   -0.3238861606295393
    -0.0559301614846476   11.6302082391129371   -0.1712270552304519
    -0.3287496195352591   -0.1619472842589784   11.2800751124252034
   Fe   Ge
    48    48
Direct
  0.1798619907998500  0.0811588672858505  0.5147122998698492
  0.9562675838339629  0.9162973178231439  0.9455468521999109
  0.9787803777325195  0.1271090030924213  0.5902517917042047
  0.3562298584159009  0.4877351063599846  0.8485161407901955
  0.4838750942197834  0.3705434767654197  0.5586767300181563
  0.2947924739631844  0.2656619563116251  0.4118333658198452
  0.6069280455752448  0.2288643720924952  0.6762244642809776
  0.2019351908070703  0.6454240191457288  0.5336727902042071
  0.4343546689785214  0.7149389437303739  0.1877618870799225
  0.1256539413129047  0.5984179607087157  0.8679172580364352
  0.3261830849336036  0.3079524881052293  0.1889965207982343
  0.5478351356524342  0.3754718312020557  0.1520386420837383
  0.6748646615085079  0.8181817948564429  0.2227687285619666
  0.0920348807652331  0.2969745335511433  0.2634178585312270
  0.2279071554704188  0.6423104732851854  0.0738049498445932
  0.8632410883086195  0.4747796897255583  0.5014683257287231
  0.6646300812830930  0.2032946646408149  0.2751408208082466
  0.4370172308412634  0.1245728030125903  0.2675343339985190
  0.0968136341807693  0.4798933293209515  0.4271829239390286
  0.3819076294790023  0.2970493853401805  0.7626141449580714
  0.3321899712914984  0.8441625894530631  0.0467517310927832
  0.8300422758566626  0.9956167597609422  0.2442487570943541
  0.8856402928009572  0.7955761059676973  0.3128381301918424
  0.7296510325350241  0.3196474725032132  0.8552114217162767
  0.4299738624926022  0.5112462882955242  0.2647554193070292
  0.4951353059623358  0.3308614261214942  0.3483208109475768
  0.3626021567493254  0.0143308600050815  0.4326291079454379
  0.5144006021360781  0.9838594693376521  0.9429799138811461
  0.4889055765264700  0.1926889817867945  0.0754074023075333
  0.2718223147569105  0.6363010527160355  0.3267275790136992
  0.2211664339589419  0.8068580416677023  0.2476325657025455
  0.6002462088248208  0.5204931879535764  0.4128078802974997
  0.7156866643265900  0.9051840880899178  0.0009277623064463
  0.7279949179930156  0.4089907934767396  0.2718661457126714
  0.5396959997011592  0.3705295855318624  0.9481948612188873
  0.7037805034090141  0.2343054941371037  0.0575408476455195
  0.1242201910066996  0.9890292637415925  0.7450802753210652
  0.4353642393396058  0.6351036916552601  0.4914786683234524
  0.7285704752930400  0.0307019572399341  0.6141875869581739
  0.0031187172942140  0.1128382256490283  0.3727892582619532
  0.6085768620708478  0.9781297564188094  0.3580480949547038
  0.7304171216896052  0.0911663970340442  0.8506162042731589
  0.1621286224452589  0.8086549704464190  0.8747914633820173
  0.1739161329104988  0.4299925586700510  0.0002951620375669
  0.5607931447223535  0.1635571732603793  0.4654048330459446
  0.9541995722631640  0.7314422843704662  0.5362429371010720
  0.8314967792736851  0.5954647222063301  0.1500914369326907
  0.0274197592114760  0.1011642679427709  0.1456783421633290
  0.8375798691088434  0.2066625186665405  0.7168729330740220
  0.0287034320332182  0.9300567521761778  0.5379254161419595
  0.3247274390436274  0.2876839247762177  0.9650920992638561
  0.7377418263614004  0.6670477856106629  0.9454437257797323
  0.9480011611219865  0.7330183544082871  0.8306617093179085
  0.6196510182331210  0.5953155799079681  0.1985904615822349
  0.5554204671233478  0.7509516403525680  0.3837899498028960
  0.3791629065981894  0.1797809979573231  0.5876119758229663
  0.0631991511223475  0.6859570561477710  0.3556471580240554
  0.5399052130607913  0.7882701326424595  0.0217103065841826
  0.3185820532894823  0.4653832114286587  0.4488019047205754
  0.3422837717082956  0.6935985547771253  0.8902826883456427
  0.0384267273591803  0.5466774597374311  0.6297431676146772
  0.6375265530886836  0.9118289329052445  0.7810608902237632
  0.3998636183978022  0.5091046952628346  0.0533301925761691
  0.3527741415654404  0.5866979116020801  0.6727271650961200
  0.7781649985466572  0.8778969124754639  0.4689210574445255
  0.1874728129717482  0.1792317811733071  0.7249067698803486
  0.1066590954914943  0.8162246193732301  0.0695620087926230
  0.8186133768935377  0.4350175822633346  0.7036177016889127
  0.6210802268872726  0.0328029836182964  0.1431864950869937
  0.8510859450401469  0.0801666820419413  0.0237376024085378
  0.1589281721166884  0.3986081199834288  0.7864400302157932
  0.1413398925938765  0.7781243315380735  0.6731331356250934
  0.7963637159239880  0.6268958048092870  0.3799037504494223
  0.8751010450347678  0.2360926608401002  0.2229028838237426
  0.9027935302583714  0.9915277476259803  0.7539953253249720
  0.1954411869136905  0.4741729504050838  0.2148823644547875
  0.7470187457325608  0.4359891202347157  0.0391092295388304
  0.2130352828653415  0.1178100457576505  0.2803356501248757
  0.0509269809629203  0.9324995408324881  0.2730223172041804
  0.7940359225530003  0.1118075103055176  0.4361759521823103
  0.0696514807700197  0.2879613108843344  0.4865078354529899
  0.8684847874395913  0.7967176702650463  0.1047060687462604
  0.1294690284525331  0.0410584376101610  0.9565843525280329
  0.3283529752147629  0.9460083027057635  0.8270803258893054
  0.6959745414737171  0.3385288446601322  0.4819149100143107
  0.9416036000504988  0.4591982528430307  0.2766915141092312
  0.4132825696177633  0.9123182917921895  0.2514533190788129
  0.5596367284179564  0.4378540340148547  0.7584594930564208
  0.5199857572177038  0.9760463049711134  0.5729791767182846
  0.3011316361536061  0.8152819297553506  0.4673126813152280
  0.7706043668287137  0.7611796383472367  0.6655561719244147
  0.6205751100457206  0.5896821983213627  0.6147248171475113
  0.3397446078996467  0.0484961921674341  0.0678896550240111
  0.5305409773231702  0.1708389607129632  0.8653183921924494
  0.0108219126988445  0.5614476612875379  0.0439531665912938
  0.0724392010585717  0.2708857072749211  0.0498217061239856
 
  0.00000000E+00  0.00000000E+00  0.00000000E+00
  0.00000000E+00  0.00000000E+00  0.00000000E+00
  0.00000000E+00  0.00000000E+00  0.00000000E+00
  0.00000000E+00  0.00000000E+00  0.00000000E+00
  0.00000000E+00  0.00000000E+00  0.00000000E+00
  0.00000000E+00  0.00000000E+00  0.00000000E+00
  0.00000000E+00  0.00000000E+00  0.00000000E+00
  0.00000000E+00  0.00000000E+00  0.00000000E+00
  0.00000000E+00  0.00000000E+00  0.00000000E+00
  0.00000000E+00  0.00000000E+00  0.00000000E+00
  0.00000000E+00  0.00000000E+00  0.00000000E+00
  0.00000000E+00  0.00000000E+00  0.00000000E+00
  0.00000000E+00  0.00000000E+00  0.00000000E+00
  0.00000000E+00  0.00000000E+00  0.00000000E+00
  0.00000000E+00  0.00000000E+00  0.00000000E+00
  0.00000000E+00  0.00000000E+00  0.00000000E+00
  0.00000000E+00  0.00000000E+00  0.00000000E+00
  0.00000000E+00  0.00000000E+00  0.00000000E+00
  0.00000000E+00  0.00000000E+00  0.00000000E+00
  0.00000000E+00  0.00000000E+00  0.00000000E+00
  0.00000000E+00  0.00000000E+00  0.00000000E+00
  0.00000000E+00  0.00000000E+00  0.00000000E+00
  0.00000000E+00  0.00000000E+00  0.00000000E+00
  0.00000000E+00  0.00000000E+00  0.00000000E+00
  0.00000000E+00  0.00000000E+00  0.00000000E+00
  0.00000000E+00  0.00000000E+00  0.00000000E+00
  0.00000000E+00  0.00000000E+00  0.00000000E+00
  0.00000000E+00  0.00000000E+00  0.00000000E+00
  0.00000000E+00  0.00000000E+00  0.00000000E+00
  0.00000000E+00  0.00000000E+00  0.00000000E+00
  0.00000000E+00  0.00000000E+00  0.00000000E+00
  0.00000000E+00  0.00000000E+00  0.00000000E+00
  0.00000000E+00  0.00000000E+00  0.00000000E+00
  0.00000000E+00  0.00000000E+00  0.00000000E+00
  0.00000000E+00  0.00000000E+00  0.00000000E+00
  0.00000000E+00  0.00000000E+00  0.00000000E+00
  0.00000000E+00  0.00000000E+00  0.00000000E+00
  0.00000000E+00  0.00000000E+00  0.00000000E+00
  0.00000000E+00  0.00000000E+00  0.00000000E+00
  0.00000000E+00  0.00000000E+00  0.00000000E+00
  0.00000000E+00  0.00000000E+00  0.00000000E+00
  0.00000000E+00  0.00000000E+00  0.00000000E+00
  0.00000000E+00  0.00000000E+00  0.00000000E+00
  0.00000000E+00  0.00000000E+00  0.00000000E+00
  0.00000000E+00  0.00000000E+00  0.00000000E+00
  0.00000000E+00  0.00000000E+00  0.00000000E+00
  0.00000000E+00  0.00000000E+00  0.00000000E+00
  0.00000000E+00  0.00000000E+00  0.00000000E+00
  0.00000000E+00  0.00000000E+00  0.00000000E+00
  0.00000000E+00  0.00000000E+00  0.00000000E+00
  0.00000000E+00  0.00000000E+00  0.00000000E+00
  0.00000000E+00  0.00000000E+00  0.00000000E+00
  0.00000000E+00  0.00000000E+00  0.00000000E+00
  0.00000000E+00  0.00000000E+00  0.00000000E+00
  0.00000000E+00  0.00000000E+00  0.00000000E+00
  0.00000000E+00  0.00000000E+00  0.00000000E+00
  0.00000000E+00  0.00000000E+00  0.00000000E+00
  0.00000000E+00  0.00000000E+00  0.00000000E+00
  0.00000000E+00  0.00000000E+00  0.00000000E+00
  0.00000000E+00  0.00000000E+00  0.00000000E+00
  0.00000000E+00  0.00000000E+00  0.00000000E+00
  0.00000000E+00  0.00000000E+00  0.00000000E+00
  0.00000000E+00  0.00000000E+00  0.00000000E+00
  0.00000000E+00  0.00000000E+00  0.00000000E+00
  0.00000000E+00  0.00000000E+00  0.00000000E+00
  0.00000000E+00  0.00000000E+00  0.00000000E+00
  0.00000000E+00  0.00000000E+00  0.00000000E+00
  0.00000000E+00  0.00000000E+00  0.00000000E+00
  0.00000000E+00  0.00000000E+00  0.00000000E+00
  0.00000000E+00  0.00000000E+00  0.00000000E+00
  0.00000000E+00  0.00000000E+00  0.00000000E+00
  0.00000000E+00  0.00000000E+00  0.00000000E+00
  0.00000000E+00  0.00000000E+00  0.00000000E+00
  0.00000000E+00  0.00000000E+00  0.00000000E+00
  0.00000000E+00  0.00000000E+00  0.00000000E+00
  0.00000000E+00  0.00000000E+00  0.00000000E+00
  0.00000000E+00  0.00000000E+00  0.00000000E+00
  0.00000000E+00  0.00000000E+00  0.00000000E+00
  0.00000000E+00  0.00000000E+00  0.00000000E+00
  0.00000000E+00  0.00000000E+00  0.00000000E+00
  0.00000000E+00  0.00000000E+00  0.00000000E+00
  0.00000000E+00  0.00000000E+00  0.00000000E+00
  0.00000000E+00  0.00000000E+00  0.00000000E+00
  0.00000000E+00  0.00000000E+00  0.00000000E+00
  0.00000000E+00  0.00000000E+00  0.00000000E+00
  0.00000000E+00  0.00000000E+00  0.00000000E+00
  0.00000000E+00  0.00000000E+00  0.00000000E+00
  0.00000000E+00  0.00000000E+00  0.00000000E+00
  0.00000000E+00  0.00000000E+00  0.00000000E+00
  0.00000000E+00  0.00000000E+00  0.00000000E+00
  0.00000000E+00  0.00000000E+00  0.00000000E+00
  0.00000000E+00  0.00000000E+00  0.00000000E+00
  0.00000000E+00  0.00000000E+00  0.00000000E+00
  0.00000000E+00  0.00000000E+00  0.00000000E+00
  0.00000000E+00  0.00000000E+00  0.00000000E+00
  0.00000000E+00  0.00000000E+00  0.00000000E+00
