  Built with Packmol                    
   1.00000000000000     
    10.7990289047339694   -0.1815545053203508   -0.3320672219799560
    -0.1834725150900556   11.6814240953556023    0.0631951171820062
    -0.3247936548844765    0.0779946716046876   11.2031899368236303
   Fe   Ge
    48    48
Direct
  0.1835194384684213  0.0805190496663807  0.5684363941910807
  0.9492819220250149  0.9075182117913658  0.9557904119635985
  0.9526448132327352  0.1181413825993213  0.5798788086161878
  0.3298576991827217  0.5140985253712755  0.8895055976823777
  0.4999068929848767  0.3973766699381417  0.5688911413811503
  0.2700285518072275  0.2209802067598843  0.4185841349167594
  0.5965114374368651  0.2279638662881997  0.6636283161887340
  0.2010781394612103  0.6287659166779698  0.5555198856815623
  0.4554666730438471  0.7020912249885688  0.1931271535771198
  0.0972648469025486  0.5649442706773669  0.7973579631174955
  0.3159371147289478  0.3085333017430918  0.2142798755982060
  0.5239868203395563  0.3590528235096139  0.1537307999576493
  0.6602121533141870  0.8379814273553440  0.2492900263430768
  0.0806037776554043  0.2875354434336299  0.2569040930129273
  0.2496286576413240  0.6335238425555196  0.0920846796394071
  0.8835030269080185  0.4168454217093512  0.4592748657932795
  0.6565110286566331  0.2030519843176755  0.2835291201217388
  0.4346766638016441  0.1334857246478235  0.2597703424227767
  0.1018200095336717  0.4728886262407749  0.4060642231107110
  0.4098136278686871  0.3577756878833704  0.7675828758579464
  0.3411374475114510  0.8364564112459220  0.0516283947368806
  0.8331855556714582  0.0041634064575933  0.2386220735999376
  0.9018866383254357  0.8014941594757315  0.3656238224419588
  0.7638402958299864  0.2980951571612827  0.8692125462487743
  0.4669216534022084  0.5149673217255423  0.2846700577939542
  0.4913764802856698  0.3270608471171720  0.3593246690672793
  0.3121281777524133  0.9927404870610944  0.4037398554498832
  0.4981802182264339  0.9940779627325466  0.9317518601276742
  0.4677223130159424  0.1774248408642000  0.0557867995326736
  0.2744801934807359  0.6155223452933437  0.3301602722878655
  0.2352811145148673  0.7907617147181973  0.2493118733340567
  0.6449671383647750  0.5133994134225434  0.4250005416265335
  0.7190716281935386  0.9220113348420202  0.9953335998612729
  0.7176675199997746  0.4053953171899335  0.2553376628571785
  0.5421002572634207  0.3901576998367193  0.9482976977127977
  0.6882589348577385  0.2417597426907785  0.0642321975973160
  0.0741868128070431  0.9527833777652722  0.7189704631647705
  0.4294058104368208  0.5996263717409722  0.4977058983736994
  0.6864216647277985  0.0383196272955771  0.5977912333600575
  0.0439432598210259  0.0898716870606521  0.3732238281679495
  0.5880164854046491  0.0085002761796680  0.3624904041354838
  0.6985881340230105  0.0822810552087563  0.8239317221577185
  0.2188344560446823  0.8903841196535981  0.8725557044623978
  0.1518361140197796  0.4329186654268374  0.9878860406775342
  0.4974420047228099  0.1593930762417202  0.4771340616906412
  0.9848414877980630  0.7311466953045569  0.6029390808704388
  0.8407068039016815  0.5996517296543419  0.1116749259598759
  0.0115720639367692  0.0888766460190053  0.1326181186058721
  0.8215773928540454  0.2266314173573712  0.6839976099780962
  0.0078064916449035  0.9290529781885848  0.5107478489637123
  0.3330080833403881  0.3234528104151461  0.9883439681978987
  0.7918161008061083  0.7254136525641420  0.9368101368445781
  0.0087788571983023  0.7585232420136612  0.8208786670501588
  0.6671485047617539  0.6169364388052201  0.2221871251281161
  0.5595766769006912  0.7156503668638159  0.3937656590832465
  0.3531589634524561  0.2212725538521235  0.6263196548215347
  0.0734147952836342  0.6813372459497037  0.3766913119258913
  0.5509424368249675  0.8028022782618131  0.0364005218593765
  0.3139117153196824  0.4279506212886833  0.4380616249003839
  0.3017375892525173  0.7051032813942436  0.8893378738322193
  0.0144184989808287  0.5175608459454740  0.6028735197747065
  0.6043002682746460  0.8973783732707912  0.7639615170302348
  0.4605341030903508  0.5460475466169094  0.0589568218929873
  0.3707940801952228  0.5545690664916199  0.6909512438208752
  0.7343641313880068  0.8769185150026869  0.4619616330212412
  0.0902997976604769  0.1784358142852414  0.7356327494444280
  0.1215309049164321  0.8140367435366924  0.0604674202600938
  0.9483881481670934  0.4168594977372955  0.8649349342061052
  0.6215569278924136  0.0404051473495727  0.1410342905782730
  0.8414091139540660  0.1071684215554021  0.9908640244826979
  0.1878469508536340  0.3775283660408433  0.7769852618795791
  0.1994478732075143  0.7915628137531715  0.6757319257661710
  0.8316641621530426  0.6223036013205948  0.4646465800583602
  0.8686239855871206  0.2311081995752699  0.2158399853282053
  0.8618715630579425  0.9842712031753356  0.7363061450015129
  0.1832351841098490  0.4685370516370409  0.2024704098833000
  0.7416321590250166  0.4458038005165447  0.0236390086360151
  0.2100936037234268  0.1176872471470815  0.2346538053363128
  0.0655678501150673  0.9171327210709254  0.2662585030287021
  0.8017554081141436  0.1058444835242359  0.4219069698282446
  0.0575412571317834  0.2724345475911477  0.4744874885659506
  0.8544721427567755  0.8121479661802731  0.1472490559797184
  0.0994317292306981  0.0589517058757959  0.9273020330783581
  0.3335221284412048  0.0075719745564480  0.7420420672276693
  0.6873063939819636  0.3147531656892580  0.4802274539930123
  0.9344207455940503  0.4849875851095734  0.2628979010636349
  0.4243130661301469  0.9044227824052753  0.2431846292930091
  0.6287183655481002  0.4231038747800115  0.7583424828439147
  0.4719169512545505  0.9667953413249166  0.5624521101381136
  0.3230370964150988  0.7845318828869986  0.4636862678666848
  0.7732108771279731  0.7437724216959893  0.6967755135766008
  0.6214182279465315  0.5923080260846246  0.6175973691625429
  0.3090677447686195  0.0326880349010419  0.0350629402905122
  0.5270055759334434  0.1956552483091309  0.8587772201403884
  0.0285080996228589  0.5934076355047145  0.0212268180745561
  0.0618224222454263  0.2658034841033860  0.0425868143074469
 
  0.00000000E+00  0.00000000E+00  0.00000000E+00
  0.00000000E+00  0.00000000E+00  0.00000000E+00
  0.00000000E+00  0.00000000E+00  0.00000000E+00
  0.00000000E+00  0.00000000E+00  0.00000000E+00
  0.00000000E+00  0.00000000E+00  0.00000000E+00
  0.00000000E+00  0.00000000E+00  0.00000000E+00
  0.00000000E+00  0.00000000E+00  0.00000000E+00
  0.00000000E+00  0.00000000E+00  0.00000000E+00
  0.00000000E+00  0.00000000E+00  0.00000000E+00
  0.00000000E+00  0.00000000E+00  0.00000000E+00
  0.00000000E+00  0.00000000E+00  0.00000000E+00
  0.00000000E+00  0.00000000E+00  0.00000000E+00
  0.00000000E+00  0.00000000E+00  0.00000000E+00
  0.00000000E+00  0.00000000E+00  0.00000000E+00
  0.00000000E+00  0.00000000E+00  0.00000000E+00
  0.00000000E+00  0.00000000E+00  0.00000000E+00
  0.00000000E+00  0.00000000E+00  0.00000000E+00
  0.00000000E+00  0.00000000E+00  0.00000000E+00
  0.00000000E+00  0.00000000E+00  0.00000000E+00
  0.00000000E+00  0.00000000E+00  0.00000000E+00
  0.00000000E+00  0.00000000E+00  0.00000000E+00
  0.00000000E+00  0.00000000E+00  0.00000000E+00
  0.00000000E+00  0.00000000E+00  0.00000000E+00
  0.00000000E+00  0.00000000E+00  0.00000000E+00
  0.00000000E+00  0.00000000E+00  0.00000000E+00
  0.00000000E+00  0.00000000E+00  0.00000000E+00
  0.00000000E+00  0.00000000E+00  0.00000000E+00
  0.00000000E+00  0.00000000E+00  0.00000000E+00
  0.00000000E+00  0.00000000E+00  0.00000000E+00
  0.00000000E+00  0.00000000E+00  0.00000000E+00
  0.00000000E+00  0.00000000E+00  0.00000000E+00
  0.00000000E+00  0.00000000E+00  0.00000000E+00
  0.00000000E+00  0.00000000E+00  0.00000000E+00
  0.00000000E+00  0.00000000E+00  0.00000000E+00
  0.00000000E+00  0.00000000E+00  0.00000000E+00
  0.00000000E+00  0.00000000E+00  0.00000000E+00
  0.00000000E+00  0.00000000E+00  0.00000000E+00
  0.00000000E+00  0.00000000E+00  0.00000000E+00
  0.00000000E+00  0.00000000E+00  0.00000000E+00
  0.00000000E+00  0.00000000E+00  0.00000000E+00
  0.00000000E+00  0.00000000E+00  0.00000000E+00
  0.00000000E+00  0.00000000E+00  0.00000000E+00
  0.00000000E+00  0.00000000E+00  0.00000000E+00
  0.00000000E+00  0.00000000E+00  0.00000000E+00
  0.00000000E+00  0.00000000E+00  0.00000000E+00
  0.00000000E+00  0.00000000E+00  0.00000000E+00
  0.00000000E+00  0.00000000E+00  0.00000000E+00
  0.00000000E+00  0.00000000E+00  0.00000000E+00
  0.00000000E+00  0.00000000E+00  0.00000000E+00
  0.00000000E+00  0.00000000E+00  0.00000000E+00
  0.00000000E+00  0.00000000E+00  0.00000000E+00
  0.00000000E+00  0.00000000E+00  0.00000000E+00
  0.00000000E+00  0.00000000E+00  0.00000000E+00
  0.00000000E+00  0.00000000E+00  0.00000000E+00
  0.00000000E+00  0.00000000E+00  0.00000000E+00
  0.00000000E+00  0.00000000E+00  0.00000000E+00
  0.00000000E+00  0.00000000E+00  0.00000000E+00
  0.00000000E+00  0.00000000E+00  0.00000000E+00
  0.00000000E+00  0.00000000E+00  0.00000000E+00
  0.00000000E+00  0.00000000E+00  0.00000000E+00
  0.00000000E+00  0.00000000E+00  0.00000000E+00
  0.00000000E+00  0.00000000E+00  0.00000000E+00
  0.00000000E+00  0.00000000E+00  0.00000000E+00
  0.00000000E+00  0.00000000E+00  0.00000000E+00
  0.00000000E+00  0.00000000E+00  0.00000000E+00
  0.00000000E+00  0.00000000E+00  0.00000000E+00
  0.00000000E+00  0.00000000E+00  0.00000000E+00
  0.00000000E+00  0.00000000E+00  0.00000000E+00
  0.00000000E+00  0.00000000E+00  0.00000000E+00
  0.00000000E+00  0.00000000E+00  0.00000000E+00
  0.00000000E+00  0.00000000E+00  0.00000000E+00
  0.00000000E+00  0.00000000E+00  0.00000000E+00
  0.00000000E+00  0.00000000E+00  0.00000000E+00
  0.00000000E+00  0.00000000E+00  0.00000000E+00
  0.00000000E+00  0.00000000E+00  0.00000000E+00
  0.00000000E+00  0.00000000E+00  0.00000000E+00
  0.00000000E+00  0.00000000E+00  0.00000000E+00
  0.00000000E+00  0.00000000E+00  0.00000000E+00
  0.00000000E+00  0.00000000E+00  0.00000000E+00
  0.00000000E+00  0.00000000E+00  0.00000000E+00
  0.00000000E+00  0.00000000E+00  0.00000000E+00
  0.00000000E+00  0.00000000E+00  0.00000000E+00
  0.00000000E+00  0.00000000E+00  0.00000000E+00
  0.00000000E+00  0.00000000E+00  0.00000000E+00
  0.00000000E+00  0.00000000E+00  0.00000000E+00
  0.00000000E+00  0.00000000E+00  0.00000000E+00
  0.00000000E+00  0.00000000E+00  0.00000000E+00
  0.00000000E+00  0.00000000E+00  0.00000000E+00
  0.00000000E+00  0.00000000E+00  0.00000000E+00
  0.00000000E+00  0.00000000E+00  0.00000000E+00
  0.00000000E+00  0.00000000E+00  0.00000000E+00
  0.00000000E+00  0.00000000E+00  0.00000000E+00
  0.00000000E+00  0.00000000E+00  0.00000000E+00
  0.00000000E+00  0.00000000E+00  0.00000000E+00
  0.00000000E+00  0.00000000E+00  0.00000000E+00
  0.00000000E+00  0.00000000E+00  0.00000000E+00
