  Built with Packmol                    
   1.00000000000000     
    11.2213682383614035    0.1245651022563872    0.1540681748930482
     0.1290234433439686   11.2951538375072538    0.0885061904199523
     0.1517899946803937    0.0838262650561920   11.1976002760644029
   Fe   Ge
    48    48
Direct
  0.1515078210854881  0.6288187050429173  0.4001962690678553
  0.9256338795405838  0.1460561835409209  0.6105457164451522
  0.9303275517050977  0.9265233423891885  0.6495624830318505
  0.4227839000953182  0.3742666609932712  0.7381607091807183
  0.5068412141719136  0.0535157230306638  0.0980321111662263
  0.1409724679399815  0.0834040350659819  0.7230498722900833
  0.0407322041478082  0.3031067067078723  0.2361309338955806
  0.7290804549831336  0.5468007918509485  0.0573703673634398
  0.7632759159327875  0.8189538467755284  0.5577653313894189
  0.6940491903582640  0.9384876871865870  0.2188878235158640
  0.4761672111387369  0.0221494048714135  0.8813458038533781
  0.6950365570911643  0.0163831949650373  0.8126284250204847
  0.9947390990112694  0.7867751947363573  0.4839191850940878
  0.9789381917208999  0.2683958414432084  0.7689898673557423
  0.7288070063612082  0.7682685728287240  0.0092483390046425
  0.7486383922894433  0.2288001759913669  0.4976913254197797
  0.7057093979950579  0.5229270550008920  0.7120997606264083
  0.5500981051566285  0.5850880658040936  0.3768318606879006
  0.7473819021607326  0.5437609341312850  0.3021423015981242
  0.1855305353567402  0.8932059108489696  0.5761479459810133
  0.5783679347925741  0.1700751056580287  0.3180999913536127
  0.0341113106325821  0.7673312810574942  0.2747090642526047
  0.3466348821918217  0.7002210544974972  0.5095687390345134
  0.8746580857213431  0.3993770814502255  0.4039745573996711
  0.3931169939980848  0.9074398704340751  0.4796947291402134
  0.6947646418878008  0.1480334992817660  0.1349939298266918
  0.6177471509841723  0.1773342358380319  0.9303356247128391
  0.9820049393633496  0.3278824120260566  0.9992326511067233
  0.3184434516046721  0.5219782659315300  0.1332376214790614
  0.5797245570434484  0.9211486928933468  0.6514540753775862
  0.9602896604066302  0.5445104215382415  0.0105999051254173
  0.9235834898634963  0.9036854199083351  0.1335435020297808
  0.8202263617715531  0.4052487277426735  0.8558634757730488
  0.4257522263259190  0.2474845473535296  0.9252768318899598
  0.2995768999005364  0.0068124430846126  0.2335625965442318
  0.5953646217160440  0.3792595935828729  0.8538626216616976
  0.4485883975388205  0.5898218052073361  0.7772437684372306
  0.3773207093169972  0.0020718878082988  0.6816176036887711
  0.5366297618243436  0.1600286632085073  0.7271137424678713
  0.8338579155657371  0.6211663599742820  0.8558735413165124
  0.8397295805786911  0.1705450020659782  0.9503217892474609
  0.8733489737569116  0.6730073472892428  0.1696823866584296
  0.1658445203001975  0.7966200471676359  0.9658448383358476
  0.3323116102697838  0.9112933470127658  0.0463266335915975
  0.4464536239753016  0.3776778808161438  0.2908902144249268
  0.0548026352281781  0.6556018645081494  0.8146626438251374
  0.7581126599695835  0.2175823303056745  0.7506701802166020
  0.9541804119352832  0.1950840153833511  0.4037446496627766
  0.0882883466292270  0.8598994443504679  0.7661376339884640
  0.0291775033362427  0.0006590350727649  0.4731742580651073
  0.7482420764213700  0.0349227789512767  0.5926709725829724
  0.2586434644043152  0.0861687640813074  0.5311797780015084
  0.4989810146296776  0.9585732727516856  0.2955076665475858
  0.6087491967293133  0.3374870822057616  0.6274039505362836
  0.9071366264293559  0.6944816520636579  0.6640881219340926
  0.8847150540418340  0.4351855287943138  0.1812272758420974
  0.1537688505990502  0.4148987166681692  0.0626403825167827
  0.8595164476747712  0.3782279776279296  0.6189648167242510
  0.0348435556337847  0.4559226305331805  0.8201388583733262
  0.9271082889793263  0.0515924533124732  0.8092795504201291
  0.8405914553071270  0.8580875872479368  0.3488527013171137
  0.3863456294653034  0.4552488592242838  0.9423525316087336
  0.9491299298567455  0.7603436859198851  0.9768485478338391
  0.3664479818425264  0.1804257526764985  0.3453233990605185
  0.3002155781489861  0.1234044645838281  0.0456930793247921
  0.6118381583464370  0.6138738050468433  0.8970707572615808
  0.3158487688266547  0.1941422230172947  0.7569430188762993
  0.7277813879880171  0.3362394033237166  0.0380738831396599
  0.6572076890248084  0.7242712064886092  0.2238905901157580
  0.1483839523682207  0.6761570501635816  0.6087467616574784
  0.5669057080416451  0.7835400301552937  0.4705102750418888
  0.1010411984509432  0.1660945298356182  0.9212537407039179
  0.0812531178470479  0.4199421983779885  0.4314355842703890
  0.5220606368877512  0.0924627953669912  0.5202226620234498
  0.5019436907821486  0.2680248423922365  0.1232126157952180
  0.9365146589508129  0.1375621013965258  0.1396065956832686
  0.4792665006744841  0.5283460415985530  0.5783583308659601
  0.7206701519169485  0.6000504558983550  0.5100588280501128
  0.5387518762335475  0.5189065906509356  0.1588439447874066
  0.2585268832000551  0.6433763742747516  0.8425719123498467
  0.1331947177401034  0.9152538437143889  0.1469701623263902
  0.4162962394587311  0.7899012415420330  0.6937207092605746
  0.5370258494319415  0.8585201656916936  0.0080335651443733
  0.9360828005242610  0.6077894328335560  0.3842938346994913
  0.3474926712904463  0.5766122829846836  0.3343999822838768
  0.6427617312316372  0.3698803928558974  0.3713785418974922
  0.2387108965221429  0.3703729634141766  0.2715209710443247
  0.2696443107966360  0.9498228669727098  0.8512124206780243
  0.7243239842022007  0.8065774565511390  0.7790395461731876
  0.3423926701825053  0.7099290440667687  0.0685291452111016
  0.2195248794628739  0.8383538533851578  0.3690797631626239
  0.1344234135018212  0.1261888103488999  0.2823759804176760
  0.7553543030972349  0.9809593798209093  0.0148405093455253
  0.7827230624867383  0.1030394077713837  0.3261906135318782
  0.1098017597598115  0.2649535371427163  0.5970277348215447
  0.1188040010490994  0.6344803739673281  0.1329185770022434
 
  0.00000000E+00  0.00000000E+00  0.00000000E+00
  0.00000000E+00  0.00000000E+00  0.00000000E+00
  0.00000000E+00  0.00000000E+00  0.00000000E+00
  0.00000000E+00  0.00000000E+00  0.00000000E+00
  0.00000000E+00  0.00000000E+00  0.00000000E+00
  0.00000000E+00  0.00000000E+00  0.00000000E+00
  0.00000000E+00  0.00000000E+00  0.00000000E+00
  0.00000000E+00  0.00000000E+00  0.00000000E+00
  0.00000000E+00  0.00000000E+00  0.00000000E+00
  0.00000000E+00  0.00000000E+00  0.00000000E+00
  0.00000000E+00  0.00000000E+00  0.00000000E+00
  0.00000000E+00  0.00000000E+00  0.00000000E+00
  0.00000000E+00  0.00000000E+00  0.00000000E+00
  0.00000000E+00  0.00000000E+00  0.00000000E+00
  0.00000000E+00  0.00000000E+00  0.00000000E+00
  0.00000000E+00  0.00000000E+00  0.00000000E+00
  0.00000000E+00  0.00000000E+00  0.00000000E+00
  0.00000000E+00  0.00000000E+00  0.00000000E+00
  0.00000000E+00  0.00000000E+00  0.00000000E+00
  0.00000000E+00  0.00000000E+00  0.00000000E+00
  0.00000000E+00  0.00000000E+00  0.00000000E+00
  0.00000000E+00  0.00000000E+00  0.00000000E+00
  0.00000000E+00  0.00000000E+00  0.00000000E+00
  0.00000000E+00  0.00000000E+00  0.00000000E+00
  0.00000000E+00  0.00000000E+00  0.00000000E+00
  0.00000000E+00  0.00000000E+00  0.00000000E+00
  0.00000000E+00  0.00000000E+00  0.00000000E+00
  0.00000000E+00  0.00000000E+00  0.00000000E+00
  0.00000000E+00  0.00000000E+00  0.00000000E+00
  0.00000000E+00  0.00000000E+00  0.00000000E+00
  0.00000000E+00  0.00000000E+00  0.00000000E+00
  0.00000000E+00  0.00000000E+00  0.00000000E+00
  0.00000000E+00  0.00000000E+00  0.00000000E+00
  0.00000000E+00  0.00000000E+00  0.00000000E+00
  0.00000000E+00  0.00000000E+00  0.00000000E+00
  0.00000000E+00  0.00000000E+00  0.00000000E+00
  0.00000000E+00  0.00000000E+00  0.00000000E+00
  0.00000000E+00  0.00000000E+00  0.00000000E+00
  0.00000000E+00  0.00000000E+00  0.00000000E+00
  0.00000000E+00  0.00000000E+00  0.00000000E+00
  0.00000000E+00  0.00000000E+00  0.00000000E+00
  0.00000000E+00  0.00000000E+00  0.00000000E+00
  0.00000000E+00  0.00000000E+00  0.00000000E+00
  0.00000000E+00  0.00000000E+00  0.00000000E+00
  0.00000000E+00  0.00000000E+00  0.00000000E+00
  0.00000000E+00  0.00000000E+00  0.00000000E+00
  0.00000000E+00  0.00000000E+00  0.00000000E+00
  0.00000000E+00  0.00000000E+00  0.00000000E+00
  0.00000000E+00  0.00000000E+00  0.00000000E+00
  0.00000000E+00  0.00000000E+00  0.00000000E+00
  0.00000000E+00  0.00000000E+00  0.00000000E+00
  0.00000000E+00  0.00000000E+00  0.00000000E+00
  0.00000000E+00  0.00000000E+00  0.00000000E+00
  0.00000000E+00  0.00000000E+00  0.00000000E+00
  0.00000000E+00  0.00000000E+00  0.00000000E+00
  0.00000000E+00  0.00000000E+00  0.00000000E+00
  0.00000000E+00  0.00000000E+00  0.00000000E+00
  0.00000000E+00  0.00000000E+00  0.00000000E+00
  0.00000000E+00  0.00000000E+00  0.00000000E+00
  0.00000000E+00  0.00000000E+00  0.00000000E+00
  0.00000000E+00  0.00000000E+00  0.00000000E+00
  0.00000000E+00  0.00000000E+00  0.00000000E+00
  0.00000000E+00  0.00000000E+00  0.00000000E+00
  0.00000000E+00  0.00000000E+00  0.00000000E+00
  0.00000000E+00  0.00000000E+00  0.00000000E+00
  0.00000000E+00  0.00000000E+00  0.00000000E+00
  0.00000000E+00  0.00000000E+00  0.00000000E+00
  0.00000000E+00  0.00000000E+00  0.00000000E+00
  0.00000000E+00  0.00000000E+00  0.00000000E+00
  0.00000000E+00  0.00000000E+00  0.00000000E+00
  0.00000000E+00  0.00000000E+00  0.00000000E+00
  0.00000000E+00  0.00000000E+00  0.00000000E+00
  0.00000000E+00  0.00000000E+00  0.00000000E+00
  0.00000000E+00  0.00000000E+00  0.00000000E+00
  0.00000000E+00  0.00000000E+00  0.00000000E+00
  0.00000000E+00  0.00000000E+00  0.00000000E+00
  0.00000000E+00  0.00000000E+00  0.00000000E+00
  0.00000000E+00  0.00000000E+00  0.00000000E+00
  0.00000000E+00  0.00000000E+00  0.00000000E+00
  0.00000000E+00  0.00000000E+00  0.00000000E+00
  0.00000000E+00  0.00000000E+00  0.00000000E+00
  0.00000000E+00  0.00000000E+00  0.00000000E+00
  0.00000000E+00  0.00000000E+00  0.00000000E+00
  0.00000000E+00  0.00000000E+00  0.00000000E+00
  0.00000000E+00  0.00000000E+00  0.00000000E+00
  0.00000000E+00  0.00000000E+00  0.00000000E+00
  0.00000000E+00  0.00000000E+00  0.00000000E+00
  0.00000000E+00  0.00000000E+00  0.00000000E+00
  0.00000000E+00  0.00000000E+00  0.00000000E+00
  0.00000000E+00  0.00000000E+00  0.00000000E+00
  0.00000000E+00  0.00000000E+00  0.00000000E+00
  0.00000000E+00  0.00000000E+00  0.00000000E+00
  0.00000000E+00  0.00000000E+00  0.00000000E+00
  0.00000000E+00  0.00000000E+00  0.00000000E+00
  0.00000000E+00  0.00000000E+00  0.00000000E+00
  0.00000000E+00  0.00000000E+00  0.00000000E+00
