  Built with Packmol                    
    1.000000000000000     
    10.9437415003598026   -0.3564657595915111    0.0170722211338722
    -0.3690937694463365   11.0630376972845532    0.1629382672791901
     0.0066164260189374    0.1493962748623709   11.7393886777469287
   Fe   Ge
    48    48
Direct
  0.6463428760742218  0.4137665303177371  0.5197980219493132
  0.3495646028501369  0.7076980444043599  0.1250553819577078
  0.7405703664250893  0.7655685829118468  0.2361680333352041
  0.5701659370870686  0.7890114403924926  0.4123353244722168
  0.6261933628491008  0.5035546318592452  0.1751485553829610
  0.6331812158601124  0.6225275742526861  0.6569406239298488
  0.0217197377425791  0.6139356731034695  0.5792052137522106
  0.0759221733930104  0.0290640766799868  0.6913864789273774
  0.7141141876327097  0.1416761340812513  0.2787427159342144
  0.9439592777292489  0.4540316588054907  0.7737872580331668
  0.7989112337603714  0.3589451627094533  0.1387880954321545
  0.7395868904576304  0.6228231405753277  0.0167042387177645
  0.6001971235100925  0.2341047792376401  0.6532898865231971
  0.8759658775734351  0.9511814400672947  0.5728510350182958
  0.6945221693166275  0.5813040511381615  0.3690098927800705
  0.2318717563061341  0.7506106231612506  0.6711470838324232
  0.9607251940646933  0.7741872364128923  0.1783418793965197
  0.1531722581088175  0.8584547890240160  0.0250181388658675
  0.0742361037568813  0.9911653783485264  0.2153508496690151
  0.3232117360807578  0.4840181372227832  0.4001589060673894
  0.1370827884093941  0.6900389672891976  0.4146948771945702
  0.5465929644154315  0.5550347732512364  0.8483403110560062
  0.8602664529134358  0.7334231129763467  0.6626238007245888
  0.4329586936549532  0.8930531554861361  0.7371578840861943
  0.9903750970980525  0.8729699100571793  0.3753006578339537
  0.2277744157996722  0.8952250919240470  0.4254530990455976
  0.1693686714274563  0.3875764550628915  0.2785444033206161
  0.6108938980722556  0.7729921352003899  0.8413697883827780
  0.6910180038357652  0.9898935959449204  0.4402190854357002
  0.7779523687837369  0.2017769298342387  0.5059531989216097
  0.4033134718929503  0.8883873884457998  0.2865808440292810
  0.3472091773181702  0.0414741850196734  0.9206752889205347
  0.2100067589101542  0.4539508172264135  0.0629655471107142
  0.0126208285442573  0.2855040582445909  0.4446909768310405
  0.0005256109892997  0.8431059285562199  0.7926226796127551
  0.7504184214714797  0.0267334538720334  0.9258647328309451
  0.2694143844237189  0.9866847339678770  0.6216139792638486
  0.6265205974852179  0.8293186201823488  0.6217157076818509
  0.1064969769369739  0.0654855582436866  0.4744050227988268
  0.6117914404057174  0.3904950217668954  0.9808404512427416
  0.3511492802481442  0.7016777575163289  0.3770330011274652
  0.9035894123213950  0.0863947951871111  0.3922419005678108
  0.9115578578591936  0.6604999451535178  0.3766905973382109
  0.3944614861667901  0.4955402619496709  0.1964169085937542
  0.9514584556192531  0.9555608808141614  0.0335943809632866
  0.3842664243800229  0.7844269582067938  0.9248782675701221
  0.1886171322281527  0.8159737510382215  0.2299602633637505
  0.2466355806190137  0.2611210449000865  0.9582500182642875
  0.4316128842506970  0.1132251523309264  0.7165715945684923
  0.1970547038506183  0.5948711130030233  0.2362308876308603
  0.7766665176541352  0.1458073997737159  0.0820219515606695
  0.4591592182556781  0.2163715528463328  0.9792648328224161
  0.7842852577378991  0.8981347095700016  0.7707357866594648
  0.5427431601508701  0.9705425420280207  0.9075166538165007
  0.6678626255418934  0.2080134404106033  0.8484253401795456
  0.5194864303280227  0.6385539384442680  0.0251630681661084
  0.7779000601846278  0.7934938305885453  0.4568644733651510
  0.0917926905311788  0.3871153678679278  0.8967327443361413
  0.4258642470137275  0.6739152524887189  0.7300797551846614
  0.7356738459179937  0.8435100732697833  0.0393673407260025
  0.7753123358515452  0.5923255690839184  0.8179917109796193
  0.8147541538860210  0.5534366862304267  0.5486650516339822
  0.0660092457193784  0.3986615091588632  0.6201738904647343
  0.2795377364216876  0.0602541586780418  0.2640998667744796
  0.8300222044727690  0.3964542049840105  0.9398237685873383
  0.8450829622617277  0.5709504342276759  0.2015605659059148
  0.6088345529544554  0.9489275766449268  0.2512047675142028
  0.2276349298957285  0.2928152807355815  0.4590585147735169
  0.5287209588771944  0.6854276555531698  0.2447213843985310
  0.0623425776839284  0.6377725730638915  0.7794450687393280
  0.5231372656707904  0.4129329244267126  0.3488141171424388
  0.8286378982145166  0.3215756832785956  0.3415964199596573
  0.9531130774420120  0.0547386454071912  0.8532139830737293
  0.0634482849577083  0.8421326985657629  0.5722810369310309
  0.1979860254192616  0.6481471494363262  0.9786494090184945
  0.3835602102436368  0.4363690631976667  0.9311940463080361
  0.9473534087680662  0.7406737104503662  0.9734536749837019
  0.2440987380962696  0.5676241509813948  0.5705137821588693
  0.6670527931322994  0.0450360541919608  0.6322135210646351
  0.8526325834690525  0.9691840368597795  0.2285934666971485
  0.4174625325075070  0.8603234085000651  0.5299923386673555
  0.3032743275949343  0.2776575813678832  0.1629494314088902
  0.2110602119215983  0.1659885665137395  0.7852699357332185
  0.5728253234717116  0.1946827888736848  0.4390436517679177
  0.5014507606741603  0.5914719169203764  0.4978037222480154
  0.0265041924526059  0.4900522062416286  0.3982773673637823
  0.2151713007870910  0.9035212213418973  0.8205976863611255
  0.0651021218485965  0.1920310746568674  0.2745022981943350
  0.3526128927839949  0.1100039262595232  0.4689905097757645
  0.5461509322474001  0.4114346176674033  0.7144372660819016
  0.1392598902760298  0.0849479012163314  0.0292901482909116
  0.3675100831704583  0.9250076031116521  0.0909765748576774
  0.9575704518345631  0.1622706275788914  0.6017260171609280
  0.5804238741056054  0.2762461729177019  0.1719017284903828
  0.0106875280433414  0.3908129862974192  0.1356668913031456
  0.7996678961132915  0.3351145752888556  0.6656842755570125
 
  0.00000000E+00  0.00000000E+00  0.00000000E+00
  0.00000000E+00  0.00000000E+00  0.00000000E+00
  0.00000000E+00  0.00000000E+00  0.00000000E+00
  0.00000000E+00  0.00000000E+00  0.00000000E+00
  0.00000000E+00  0.00000000E+00  0.00000000E+00
  0.00000000E+00  0.00000000E+00  0.00000000E+00
  0.00000000E+00  0.00000000E+00  0.00000000E+00
  0.00000000E+00  0.00000000E+00  0.00000000E+00
  0.00000000E+00  0.00000000E+00  0.00000000E+00
  0.00000000E+00  0.00000000E+00  0.00000000E+00
  0.00000000E+00  0.00000000E+00  0.00000000E+00
  0.00000000E+00  0.00000000E+00  0.00000000E+00
  0.00000000E+00  0.00000000E+00  0.00000000E+00
  0.00000000E+00  0.00000000E+00  0.00000000E+00
  0.00000000E+00  0.00000000E+00  0.00000000E+00
  0.00000000E+00  0.00000000E+00  0.00000000E+00
  0.00000000E+00  0.00000000E+00  0.00000000E+00
  0.00000000E+00  0.00000000E+00  0.00000000E+00
  0.00000000E+00  0.00000000E+00  0.00000000E+00
  0.00000000E+00  0.00000000E+00  0.00000000E+00
  0.00000000E+00  0.00000000E+00  0.00000000E+00
  0.00000000E+00  0.00000000E+00  0.00000000E+00
  0.00000000E+00  0.00000000E+00  0.00000000E+00
  0.00000000E+00  0.00000000E+00  0.00000000E+00
  0.00000000E+00  0.00000000E+00  0.00000000E+00
  0.00000000E+00  0.00000000E+00  0.00000000E+00
  0.00000000E+00  0.00000000E+00  0.00000000E+00
  0.00000000E+00  0.00000000E+00  0.00000000E+00
  0.00000000E+00  0.00000000E+00  0.00000000E+00
  0.00000000E+00  0.00000000E+00  0.00000000E+00
  0.00000000E+00  0.00000000E+00  0.00000000E+00
  0.00000000E+00  0.00000000E+00  0.00000000E+00
  0.00000000E+00  0.00000000E+00  0.00000000E+00
  0.00000000E+00  0.00000000E+00  0.00000000E+00
  0.00000000E+00  0.00000000E+00  0.00000000E+00
  0.00000000E+00  0.00000000E+00  0.00000000E+00
  0.00000000E+00  0.00000000E+00  0.00000000E+00
  0.00000000E+00  0.00000000E+00  0.00000000E+00
  0.00000000E+00  0.00000000E+00  0.00000000E+00
  0.00000000E+00  0.00000000E+00  0.00000000E+00
  0.00000000E+00  0.00000000E+00  0.00000000E+00
  0.00000000E+00  0.00000000E+00  0.00000000E+00
  0.00000000E+00  0.00000000E+00  0.00000000E+00
  0.00000000E+00  0.00000000E+00  0.00000000E+00
  0.00000000E+00  0.00000000E+00  0.00000000E+00
  0.00000000E+00  0.00000000E+00  0.00000000E+00
  0.00000000E+00  0.00000000E+00  0.00000000E+00
  0.00000000E+00  0.00000000E+00  0.00000000E+00
  0.00000000E+00  0.00000000E+00  0.00000000E+00
  0.00000000E+00  0.00000000E+00  0.00000000E+00
  0.00000000E+00  0.00000000E+00  0.00000000E+00
  0.00000000E+00  0.00000000E+00  0.00000000E+00
  0.00000000E+00  0.00000000E+00  0.00000000E+00
  0.00000000E+00  0.00000000E+00  0.00000000E+00
  0.00000000E+00  0.00000000E+00  0.00000000E+00
  0.00000000E+00  0.00000000E+00  0.00000000E+00
  0.00000000E+00  0.00000000E+00  0.00000000E+00
  0.00000000E+00  0.00000000E+00  0.00000000E+00
  0.00000000E+00  0.00000000E+00  0.00000000E+00
  0.00000000E+00  0.00000000E+00  0.00000000E+00
  0.00000000E+00  0.00000000E+00  0.00000000E+00
  0.00000000E+00  0.00000000E+00  0.00000000E+00
  0.00000000E+00  0.00000000E+00  0.00000000E+00
  0.00000000E+00  0.00000000E+00  0.00000000E+00
  0.00000000E+00  0.00000000E+00  0.00000000E+00
  0.00000000E+00  0.00000000E+00  0.00000000E+00
  0.00000000E+00  0.00000000E+00  0.00000000E+00
  0.00000000E+00  0.00000000E+00  0.00000000E+00
  0.00000000E+00  0.00000000E+00  0.00000000E+00
  0.00000000E+00  0.00000000E+00  0.00000000E+00
  0.00000000E+00  0.00000000E+00  0.00000000E+00
  0.00000000E+00  0.00000000E+00  0.00000000E+00
  0.00000000E+00  0.00000000E+00  0.00000000E+00
  0.00000000E+00  0.00000000E+00  0.00000000E+00
  0.00000000E+00  0.00000000E+00  0.00000000E+00
  0.00000000E+00  0.00000000E+00  0.00000000E+00
  0.00000000E+00  0.00000000E+00  0.00000000E+00
  0.00000000E+00  0.00000000E+00  0.00000000E+00
  0.00000000E+00  0.00000000E+00  0.00000000E+00
  0.00000000E+00  0.00000000E+00  0.00000000E+00
  0.00000000E+00  0.00000000E+00  0.00000000E+00
  0.00000000E+00  0.00000000E+00  0.00000000E+00
  0.00000000E+00  0.00000000E+00  0.00000000E+00
  0.00000000E+00  0.00000000E+00  0.00000000E+00
  0.00000000E+00  0.00000000E+00  0.00000000E+00
  0.00000000E+00  0.00000000E+00  0.00000000E+00
  0.00000000E+00  0.00000000E+00  0.00000000E+00
  0.00000000E+00  0.00000000E+00  0.00000000E+00
  0.00000000E+00  0.00000000E+00  0.00000000E+00
  0.00000000E+00  0.00000000E+00  0.00000000E+00
  0.00000000E+00  0.00000000E+00  0.00000000E+00
  0.00000000E+00  0.00000000E+00  0.00000000E+00
  0.00000000E+00  0.00000000E+00  0.00000000E+00
  0.00000000E+00  0.00000000E+00  0.00000000E+00
  0.00000000E+00  0.00000000E+00  0.00000000E+00
  0.00000000E+00  0.00000000E+00  0.00000000E+00
