  Built with Packmol                    
   1.00000000000000     
    11.1692727929808449   -0.1059789698370659   -0.0499968895363270
    -0.1071206308735498   11.3432359539221910    0.2066383026408314
    -0.0523712302426326    0.2121891562720227   11.2643033412321572
   Fe   Ge
    48    48
Direct
  0.1642043326748163  0.0724496251568260  0.5293077560701775
  0.9566672232037275  0.8983426193259184  0.9635533925793868
  0.9499422880933631  0.1074637728134910  0.5854148830612667
  0.3523105442910666  0.5044494025697650  0.8503372968746091
  0.4984366428705900  0.4036809041337894  0.5536289200404586
  0.2475181432755121  0.2173001786317071  0.3877337662199535
  0.5912993426140618  0.2235688384233177  0.6573955722150772
  0.2248810349499077  0.6648346133852109  0.5205266180862929
  0.4490639238421145  0.7210307055123307  0.2342659958145459
  0.1558014146405358  0.6428079951181165  0.9056056793941009
  0.3311484055765560  0.3199724729317194  0.1795904128330432
  0.5419668246485155  0.3310128368864166  0.1532776372069232
  0.6805148622173984  0.8173245354373334  0.2429305248315978
  0.0751787325600645  0.2779666294024326  0.2590793528753794
  0.2743403783970575  0.6249887036665487  0.0973131353175743
  0.8898705679984245  0.4323916286470880  0.5077112872294899
  0.6557668662490092  0.2016111916821778  0.3021855561386376
  0.4299527707532556  0.1489897788397359  0.2683373274608137
  0.1069547057859626  0.4617176688244080  0.4018090028737220
  0.4067640671135849  0.3323170503168475  0.7468158218764125
  0.3474837511791938  0.8297573862782143  0.0738021018329885
  0.8118904843977250  0.0041902810373822  0.2412367077519594
  0.9095429244267229  0.8160975512678282  0.3581075392783156
  0.7324505008825796  0.3024045436874371  0.8543176316725826
  0.4239771367089357  0.5118593803923838  0.2430483735975399
  0.5413231967880034  0.3876484675462441  0.3484149281725635
  0.3643202243281375  0.0428254567265163  0.4554000410586128
  0.5270219576629950  0.9979312339357772  0.9683843634497814
  0.4482030506670160  0.1805247458195509  0.0508005297816316
  0.2728041218255839  0.6126234028012250  0.3316505718720622
  0.2220790318178269  0.7893073134843370  0.2459595003088786
  0.6803013864191685  0.5119324748237631  0.4336777326028390
  0.7214036289773850  0.9133261934028462  0.0290085397368894
  0.7393065555670042  0.3945785339488158  0.2401279555800333
  0.5432392308262689  0.3579008903357994  0.9376733145487387
  0.6838042751491118  0.2090641257554272  0.0663426878496938
  0.0774673969599156  0.9488552402777607  0.7232468003854173
  0.4517382919301460  0.5957811434770246  0.4548881534569145
  0.7203282621842525  0.9959744539060101  0.6279190421825549
  0.9942905976137413  0.0905047053642388  0.3574216955621464
  0.5753532893311925  0.0012650827149294  0.3899583095349695
  0.7139885663634525  0.0809798871313848  0.8557774032319215
  0.2129414540202695  0.8696349942445569  0.8693501665739009
  0.1805818520130514  0.4419189513086066  0.0039608276518368
  0.5083618760332362  0.2041475132676178  0.4588829680550633
  0.9849792771263303  0.7323609906979607  0.5986513409816182
  0.8233299137731853  0.5790415167850419  0.1291598708916323
  0.0255060152939465  0.1017534423538032  0.1191033241812328
  0.8021890106079276  0.1955692575357590  0.6901559077008387
  0.0047500565517769  0.9235846598196805  0.5142162853526956
  0.3122695417981771  0.2973767898541259  0.9368178523258324
  0.7798434641382455  0.7178054857832613  0.9494231780465607
  0.9868786235568666  0.7456660319320836  0.8180650059153213
  0.6294152138162599  0.5916476912781018  0.2420465925662522
  0.5093668771102989  0.7951146047327574  0.4166524975280307
  0.3280112824768667  0.2052690133219718  0.6022600940398180
  0.0690459578687674  0.6826998967805318  0.3730366732373791
  0.5505769407052072  0.7970537804860420  0.0630185272620132
  0.3266287209506571  0.4113473782995657  0.4168617241514488
  0.3668210485135854  0.7070456584776020  0.8992706672896448
  0.0611328286368040  0.5332036111035640  0.5935629525481635
  0.6340914295006085  0.8877923744560493  0.8114878543198311
  0.4329376887548133  0.4926162280890857  0.0431481535540801
  0.3551724675565124  0.5521578395692651  0.6460453886736183
  0.7378328504444902  0.8737941279448843  0.4537214676758716
  0.1053740752384933  0.1739745570306495  0.7204799568240033
  0.1268353342675724  0.7932856731077242  0.0528958298650465
  0.8539708827651249  0.4197824413591199  0.7172451598511904
  0.5961497878692444  0.0374023860182616  0.1706787942862829
  0.8513404280923685  0.0861388491846910  0.0098333911024472
  0.1426837611398125  0.4651659207775939  0.7970343006999301
  0.1847651224488153  0.7511453629971311  0.7011438508403841
  0.8417798281567653  0.6412561458615568  0.4666198795237634
  0.8654925648035952  0.2226965011037376  0.2159955393558429
  0.8813921185157458  0.9858516755792068  0.7693428278497838
  0.1818960195133495  0.4636572441008669  0.2085342954443070
  0.7362009398168705  0.4233040407720569  0.0237119696710105
  0.2263575550609443  0.1355917079352932  0.1851933631971817
  0.0664638771866664  0.9292466819573161  0.2485471523576288
  0.7892971151956960  0.0996683808086538  0.4408403415539365
  0.0395098127288492  0.2680426792458959  0.4738148991266988
  0.8783858457431816  0.7956151395673481  0.1467591483110011
  0.1044433942145978  0.0497259873810873  0.9207488458787184
  0.4016654368882471  0.9249484986097029  0.7893299080493602
  0.7043625023894847  0.3142368909967400  0.4901182174050399
  0.9298820124766874  0.4752016008267514  0.2868521935470713
  0.3749542040296774  0.9394707816173435  0.2599386612940076
  0.5993307757298795  0.4388691107485215  0.7478931334019723
  0.5153074169072606  0.0257802510511803  0.6057860041458023
  0.2443096409360639  0.8714124659437695  0.4734492915966546
  0.7781799406878390  0.7719648713973627  0.6645359209270394
  0.6169804858240303  0.6156080834903660  0.5980066221695863
  0.3167598193619234  0.0188151316394887  0.9938569478375874
  0.5228629136740086  0.1718503097966377  0.8468863029969711
  0.0069641917039182  0.5613752401128587  0.0309078328488607
  0.0627159771920373  0.2816970260851402  0.0278392675913553
 
  0.00000000E+00  0.00000000E+00  0.00000000E+00
  0.00000000E+00  0.00000000E+00  0.00000000E+00
  0.00000000E+00  0.00000000E+00  0.00000000E+00
  0.00000000E+00  0.00000000E+00  0.00000000E+00
  0.00000000E+00  0.00000000E+00  0.00000000E+00
  0.00000000E+00  0.00000000E+00  0.00000000E+00
  0.00000000E+00  0.00000000E+00  0.00000000E+00
  0.00000000E+00  0.00000000E+00  0.00000000E+00
  0.00000000E+00  0.00000000E+00  0.00000000E+00
  0.00000000E+00  0.00000000E+00  0.00000000E+00
  0.00000000E+00  0.00000000E+00  0.00000000E+00
  0.00000000E+00  0.00000000E+00  0.00000000E+00
  0.00000000E+00  0.00000000E+00  0.00000000E+00
  0.00000000E+00  0.00000000E+00  0.00000000E+00
  0.00000000E+00  0.00000000E+00  0.00000000E+00
  0.00000000E+00  0.00000000E+00  0.00000000E+00
  0.00000000E+00  0.00000000E+00  0.00000000E+00
  0.00000000E+00  0.00000000E+00  0.00000000E+00
  0.00000000E+00  0.00000000E+00  0.00000000E+00
  0.00000000E+00  0.00000000E+00  0.00000000E+00
  0.00000000E+00  0.00000000E+00  0.00000000E+00
  0.00000000E+00  0.00000000E+00  0.00000000E+00
  0.00000000E+00  0.00000000E+00  0.00000000E+00
  0.00000000E+00  0.00000000E+00  0.00000000E+00
  0.00000000E+00  0.00000000E+00  0.00000000E+00
  0.00000000E+00  0.00000000E+00  0.00000000E+00
  0.00000000E+00  0.00000000E+00  0.00000000E+00
  0.00000000E+00  0.00000000E+00  0.00000000E+00
  0.00000000E+00  0.00000000E+00  0.00000000E+00
  0.00000000E+00  0.00000000E+00  0.00000000E+00
  0.00000000E+00  0.00000000E+00  0.00000000E+00
  0.00000000E+00  0.00000000E+00  0.00000000E+00
  0.00000000E+00  0.00000000E+00  0.00000000E+00
  0.00000000E+00  0.00000000E+00  0.00000000E+00
  0.00000000E+00  0.00000000E+00  0.00000000E+00
  0.00000000E+00  0.00000000E+00  0.00000000E+00
  0.00000000E+00  0.00000000E+00  0.00000000E+00
  0.00000000E+00  0.00000000E+00  0.00000000E+00
  0.00000000E+00  0.00000000E+00  0.00000000E+00
  0.00000000E+00  0.00000000E+00  0.00000000E+00
  0.00000000E+00  0.00000000E+00  0.00000000E+00
  0.00000000E+00  0.00000000E+00  0.00000000E+00
  0.00000000E+00  0.00000000E+00  0.00000000E+00
  0.00000000E+00  0.00000000E+00  0.00000000E+00
  0.00000000E+00  0.00000000E+00  0.00000000E+00
  0.00000000E+00  0.00000000E+00  0.00000000E+00
  0.00000000E+00  0.00000000E+00  0.00000000E+00
  0.00000000E+00  0.00000000E+00  0.00000000E+00
  0.00000000E+00  0.00000000E+00  0.00000000E+00
  0.00000000E+00  0.00000000E+00  0.00000000E+00
  0.00000000E+00  0.00000000E+00  0.00000000E+00
  0.00000000E+00  0.00000000E+00  0.00000000E+00
  0.00000000E+00  0.00000000E+00  0.00000000E+00
  0.00000000E+00  0.00000000E+00  0.00000000E+00
  0.00000000E+00  0.00000000E+00  0.00000000E+00
  0.00000000E+00  0.00000000E+00  0.00000000E+00
  0.00000000E+00  0.00000000E+00  0.00000000E+00
  0.00000000E+00  0.00000000E+00  0.00000000E+00
  0.00000000E+00  0.00000000E+00  0.00000000E+00
  0.00000000E+00  0.00000000E+00  0.00000000E+00
  0.00000000E+00  0.00000000E+00  0.00000000E+00
  0.00000000E+00  0.00000000E+00  0.00000000E+00
  0.00000000E+00  0.00000000E+00  0.00000000E+00
  0.00000000E+00  0.00000000E+00  0.00000000E+00
  0.00000000E+00  0.00000000E+00  0.00000000E+00
  0.00000000E+00  0.00000000E+00  0.00000000E+00
  0.00000000E+00  0.00000000E+00  0.00000000E+00
  0.00000000E+00  0.00000000E+00  0.00000000E+00
  0.00000000E+00  0.00000000E+00  0.00000000E+00
  0.00000000E+00  0.00000000E+00  0.00000000E+00
  0.00000000E+00  0.00000000E+00  0.00000000E+00
  0.00000000E+00  0.00000000E+00  0.00000000E+00
  0.00000000E+00  0.00000000E+00  0.00000000E+00
  0.00000000E+00  0.00000000E+00  0.00000000E+00
  0.00000000E+00  0.00000000E+00  0.00000000E+00
  0.00000000E+00  0.00000000E+00  0.00000000E+00
  0.00000000E+00  0.00000000E+00  0.00000000E+00
  0.00000000E+00  0.00000000E+00  0.00000000E+00
  0.00000000E+00  0.00000000E+00  0.00000000E+00
  0.00000000E+00  0.00000000E+00  0.00000000E+00
  0.00000000E+00  0.00000000E+00  0.00000000E+00
  0.00000000E+00  0.00000000E+00  0.00000000E+00
  0.00000000E+00  0.00000000E+00  0.00000000E+00
  0.00000000E+00  0.00000000E+00  0.00000000E+00
  0.00000000E+00  0.00000000E+00  0.00000000E+00
  0.00000000E+00  0.00000000E+00  0.00000000E+00
  0.00000000E+00  0.00000000E+00  0.00000000E+00
  0.00000000E+00  0.00000000E+00  0.00000000E+00
  0.00000000E+00  0.00000000E+00  0.00000000E+00
  0.00000000E+00  0.00000000E+00  0.00000000E+00
  0.00000000E+00  0.00000000E+00  0.00000000E+00
  0.00000000E+00  0.00000000E+00  0.00000000E+00
  0.00000000E+00  0.00000000E+00  0.00000000E+00
  0.00000000E+00  0.00000000E+00  0.00000000E+00
  0.00000000E+00  0.00000000E+00  0.00000000E+00
  0.00000000E+00  0.00000000E+00  0.00000000E+00
