  Built with Packmol                    
   1.00000000000000     
    11.1102908746725202   -0.0855874989175004   -0.2029324370338831
    -0.0817391331215507   11.3645871466239505    0.3436687702681143
    -0.2012639860982045    0.3460987420727192   11.1846039217353326
   Fe   Ge
    48    48
Direct
  0.1638178561639521  0.0857879265378045  0.5343320118644073
  0.9588390726730651  0.9019898142241800  0.9543822048590371
  0.9466763384825896  0.1078895587005917  0.5867430223556909
  0.3254695112093700  0.5073328880000290  0.8683164945836879
  0.4968238705139001  0.4034663022191580  0.5677500438254484
  0.2310676878921285  0.2276768829239657  0.3857165593170677
  0.6037244347529196  0.2379270263721835  0.6877672511895199
  0.2254921170672191  0.6682011813270208  0.5259927683597425
  0.4506527452120821  0.7126875423549777  0.2449576086624745
  0.1559110168960984  0.6344629486663962  0.9012067326787445
  0.3363150975342961  0.3271920205952767  0.1786574114510344
  0.5587818954460886  0.3313970411714564  0.1550479936670683
  0.6904838938808808  0.7907042579138164  0.2649724265011031
  0.0686440086046716  0.2877456854529967  0.2427427588355044
  0.2873887816469178  0.6157416583329081  0.0855495746107948
  0.8812418645052915  0.4661826493746730  0.4963046559395536
  0.6561650554889411  0.1813677109064216  0.2804083188263462
  0.4284774145319048  0.1582643923407119  0.2923725524824619
  0.1103505555739659  0.4703008078779902  0.4002343727502051
  0.3968573376634339  0.3431933359828108  0.7529723679234408
  0.3547835780603066  0.8176155018237594  0.0726845407513323
  0.8401202597176507  0.9940946542743845  0.2028010212909521
  0.9217277383843481  0.8271084480151814  0.3510491702146368
  0.7881559407864316  0.3001503654627058  0.8762876574974996
  0.4362157951902077  0.5078720590684114  0.2408656965301574
  0.5243126078320302  0.3487658954478405  0.3550692388496799
  0.3617538912525617  0.0557042382011232  0.4673866388093302
  0.5262336560194001  0.9980598607844016  0.9747683833836263
  0.4528246555456761  0.1686122843473612  0.0685909643754812
  0.2697073225925735  0.6100842856035911  0.3256717135661589
  0.2310058899614091  0.7877994691166990  0.2402829201812651
  0.6273925808784568  0.5427770059011650  0.4126984967889769
  0.7300772331412446  0.9178533042138994  0.0241008854577416
  0.7393138351780522  0.3988881501208894  0.2716973939660718
  0.5613925645285107  0.3385005273168531  0.9365995463865247
  0.6676085702060846  0.1720443915189946  0.0527200825976308
  0.0791371003136021  0.9542554834611536  0.7287903552109327
  0.4290888607234891  0.6048381898646724  0.4679752625178182
  0.7113488984780005  0.9873313099672316  0.6163851930484583
  0.0130837272494233  0.0974358904502495  0.3562726716822056
  0.5611876167331573  0.9898895713975762  0.3878339959157771
  0.6931537182458811  0.0997918659328434  0.8422718108093861
  0.2120583453249054  0.8673424532938867  0.8743776192718400
  0.1550362087950319  0.4254734267071854  0.9969957771538276
  0.5622244852560527  0.1772447603772633  0.4824746911107027
  0.9754916790925137  0.7203250395319927  0.5905926737628064
  0.8246671216512595  0.5812163337862017  0.1167046285738778
  0.0209269109177939  0.1084323817976269  0.1142003324330005
  0.8198766188772666  0.2067169229553230  0.6975911885057826
  0.0113670583435237  0.9245795843520170  0.5162293818985049
  0.3187065682906152  0.3007403873842094  0.9568014683147723
  0.7745178096389296  0.7185263931423123  0.9404521906066137
  0.9749206791859137  0.7445888048436728  0.8111048130895711
  0.6360315067839934  0.5884892913768027  0.2017786782343549
  0.5315416453299022  0.7838770825992682  0.4242063429459435
  0.3456787597591529  0.2200049860614683  0.5929713285621645
  0.0728231704564948  0.6856855591650941  0.3755401249482802
  0.5629622042390636  0.7997913338145395  0.0748775845189371
  0.3250882297676227  0.4148918718527170  0.4172985738201831
  0.3780428614284759  0.7060245145107231  0.8928869189574726
  0.0695549670879814  0.5250527134805623  0.5972836794571492
  0.6325751480992707  0.8904050851018184  0.8178331453959302
  0.4608226248591620  0.4892449975123014  0.0344447717113212
  0.3547700598845296  0.5507978930224269  0.6630492876745109
  0.7570232273200403  0.9092882169960816  0.4287424016830528
  0.1083631937315772  0.1796860956647066  0.7171783443725772
  0.1254475781541231  0.7819146891218054  0.0520954389689265
  0.8569341417137082  0.4358803740852792  0.7089639694199406
  0.6052333565044989  0.0027053903736629  0.1822493412974495
  0.8547115104840515  0.0897208453655409  0.9853750441317075
  0.1489503587942878  0.3983524408689405  0.7832381706276124
  0.1794638699825271  0.7505825563161537  0.7040642243203266
  0.8165607427969377  0.6570301750466285  0.4303973157733552
  0.8616746959090449  0.2160956400291809  0.2214068077115670
  0.8701595807411380  0.9851551172527948  0.7621849578936164
  0.1808777078716233  0.4667006256254993  0.2012684597523204
  0.7437306552152663  0.4046972395995709  0.0455795668854648
  0.2225131110295138  0.1445062724142687  0.1862831504451705
  0.0746836703425942  0.9318676001824215  0.2355124892591292
  0.7807730092089429  0.1344098949106964  0.4539450740435242
  0.0231850742829209  0.2816734571663702  0.4705343244891509
  0.8800935306887894  0.7857656618533468  0.1412593356895471
  0.1086756774202442  0.0561452547124972  0.9238725072586718
  0.3984974585046288  0.9278407632940073  0.8002213751467195
  0.7011533018397671  0.3570458147982691  0.5044747050884695
  0.9342369015796592  0.4877293305359629  0.2812788569383784
  0.3703644689409487  0.9391561842302067  0.2856909078705385
  0.6162122395072416  0.4383452130274890  0.7625725226713556
  0.5050419667629313  0.0033147209566025  0.6119351490785903
  0.2537445653947401  0.8785437540933145  0.4994086607966253
  0.7737419006769102  0.7762323513314087  0.6464420364546797
  0.6059875970665303  0.6169217733836945  0.6097917983294607
  0.3159845719925585  0.0127299294590841  0.0105575029123770
  0.4796819900656999  0.1615687216775044  0.8453609487790672
  0.9980525170140382  0.5536337381112730  0.0213470224011800
  0.9899336742032929  0.2972610783262226  0.9855446505686061
 
  0.00000000E+00  0.00000000E+00  0.00000000E+00
  0.00000000E+00  0.00000000E+00  0.00000000E+00
  0.00000000E+00  0.00000000E+00  0.00000000E+00
  0.00000000E+00  0.00000000E+00  0.00000000E+00
  0.00000000E+00  0.00000000E+00  0.00000000E+00
  0.00000000E+00  0.00000000E+00  0.00000000E+00
  0.00000000E+00  0.00000000E+00  0.00000000E+00
  0.00000000E+00  0.00000000E+00  0.00000000E+00
  0.00000000E+00  0.00000000E+00  0.00000000E+00
  0.00000000E+00  0.00000000E+00  0.00000000E+00
  0.00000000E+00  0.00000000E+00  0.00000000E+00
  0.00000000E+00  0.00000000E+00  0.00000000E+00
  0.00000000E+00  0.00000000E+00  0.00000000E+00
  0.00000000E+00  0.00000000E+00  0.00000000E+00
  0.00000000E+00  0.00000000E+00  0.00000000E+00
  0.00000000E+00  0.00000000E+00  0.00000000E+00
  0.00000000E+00  0.00000000E+00  0.00000000E+00
  0.00000000E+00  0.00000000E+00  0.00000000E+00
  0.00000000E+00  0.00000000E+00  0.00000000E+00
  0.00000000E+00  0.00000000E+00  0.00000000E+00
  0.00000000E+00  0.00000000E+00  0.00000000E+00
  0.00000000E+00  0.00000000E+00  0.00000000E+00
  0.00000000E+00  0.00000000E+00  0.00000000E+00
  0.00000000E+00  0.00000000E+00  0.00000000E+00
  0.00000000E+00  0.00000000E+00  0.00000000E+00
  0.00000000E+00  0.00000000E+00  0.00000000E+00
  0.00000000E+00  0.00000000E+00  0.00000000E+00
  0.00000000E+00  0.00000000E+00  0.00000000E+00
  0.00000000E+00  0.00000000E+00  0.00000000E+00
  0.00000000E+00  0.00000000E+00  0.00000000E+00
  0.00000000E+00  0.00000000E+00  0.00000000E+00
  0.00000000E+00  0.00000000E+00  0.00000000E+00
  0.00000000E+00  0.00000000E+00  0.00000000E+00
  0.00000000E+00  0.00000000E+00  0.00000000E+00
  0.00000000E+00  0.00000000E+00  0.00000000E+00
  0.00000000E+00  0.00000000E+00  0.00000000E+00
  0.00000000E+00  0.00000000E+00  0.00000000E+00
  0.00000000E+00  0.00000000E+00  0.00000000E+00
  0.00000000E+00  0.00000000E+00  0.00000000E+00
  0.00000000E+00  0.00000000E+00  0.00000000E+00
  0.00000000E+00  0.00000000E+00  0.00000000E+00
  0.00000000E+00  0.00000000E+00  0.00000000E+00
  0.00000000E+00  0.00000000E+00  0.00000000E+00
  0.00000000E+00  0.00000000E+00  0.00000000E+00
  0.00000000E+00  0.00000000E+00  0.00000000E+00
  0.00000000E+00  0.00000000E+00  0.00000000E+00
  0.00000000E+00  0.00000000E+00  0.00000000E+00
  0.00000000E+00  0.00000000E+00  0.00000000E+00
  0.00000000E+00  0.00000000E+00  0.00000000E+00
  0.00000000E+00  0.00000000E+00  0.00000000E+00
  0.00000000E+00  0.00000000E+00  0.00000000E+00
  0.00000000E+00  0.00000000E+00  0.00000000E+00
  0.00000000E+00  0.00000000E+00  0.00000000E+00
  0.00000000E+00  0.00000000E+00  0.00000000E+00
  0.00000000E+00  0.00000000E+00  0.00000000E+00
  0.00000000E+00  0.00000000E+00  0.00000000E+00
  0.00000000E+00  0.00000000E+00  0.00000000E+00
  0.00000000E+00  0.00000000E+00  0.00000000E+00
  0.00000000E+00  0.00000000E+00  0.00000000E+00
  0.00000000E+00  0.00000000E+00  0.00000000E+00
  0.00000000E+00  0.00000000E+00  0.00000000E+00
  0.00000000E+00  0.00000000E+00  0.00000000E+00
  0.00000000E+00  0.00000000E+00  0.00000000E+00
  0.00000000E+00  0.00000000E+00  0.00000000E+00
  0.00000000E+00  0.00000000E+00  0.00000000E+00
  0.00000000E+00  0.00000000E+00  0.00000000E+00
  0.00000000E+00  0.00000000E+00  0.00000000E+00
  0.00000000E+00  0.00000000E+00  0.00000000E+00
  0.00000000E+00  0.00000000E+00  0.00000000E+00
  0.00000000E+00  0.00000000E+00  0.00000000E+00
  0.00000000E+00  0.00000000E+00  0.00000000E+00
  0.00000000E+00  0.00000000E+00  0.00000000E+00
  0.00000000E+00  0.00000000E+00  0.00000000E+00
  0.00000000E+00  0.00000000E+00  0.00000000E+00
  0.00000000E+00  0.00000000E+00  0.00000000E+00
  0.00000000E+00  0.00000000E+00  0.00000000E+00
  0.00000000E+00  0.00000000E+00  0.00000000E+00
  0.00000000E+00  0.00000000E+00  0.00000000E+00
  0.00000000E+00  0.00000000E+00  0.00000000E+00
  0.00000000E+00  0.00000000E+00  0.00000000E+00
  0.00000000E+00  0.00000000E+00  0.00000000E+00
  0.00000000E+00  0.00000000E+00  0.00000000E+00
  0.00000000E+00  0.00000000E+00  0.00000000E+00
  0.00000000E+00  0.00000000E+00  0.00000000E+00
  0.00000000E+00  0.00000000E+00  0.00000000E+00
  0.00000000E+00  0.00000000E+00  0.00000000E+00
  0.00000000E+00  0.00000000E+00  0.00000000E+00
  0.00000000E+00  0.00000000E+00  0.00000000E+00
  0.00000000E+00  0.00000000E+00  0.00000000E+00
  0.00000000E+00  0.00000000E+00  0.00000000E+00
  0.00000000E+00  0.00000000E+00  0.00000000E+00
  0.00000000E+00  0.00000000E+00  0.00000000E+00
  0.00000000E+00  0.00000000E+00  0.00000000E+00
  0.00000000E+00  0.00000000E+00  0.00000000E+00
  0.00000000E+00  0.00000000E+00  0.00000000E+00
  0.00000000E+00  0.00000000E+00  0.00000000E+00
