  Built with Packmol                    
   1.00000000000000     
    11.1455928864046179    0.1573518623844085    0.2423058890322584
     0.1596303644453734   11.2453176604780651    0.1167012867820381
     0.2475049642277148    0.1125237374653636   11.3565511841693123
   Fe   Ge
    48    48
Direct
  0.1292754875813245  0.6342652881024833  0.4065876914479958
  0.9001995291195044  0.1442617602991305  0.6199502955385512
  0.8757262064512332  0.9047945217492455  0.6665519653105534
  0.4173622516081679  0.3825675020846830  0.7456962898331625
  0.5067666333939727  0.0414604209414549  0.0899773381062090
  0.1521260206071346  0.0861014237830133  0.7222046244419431
  0.0365848218159002  0.2957224402799596  0.2380350176735178
  0.7308092128308061  0.5295389899040686  0.0702327077301987
  0.7789731916165650  0.7964004864825540  0.5150710696300536
  0.6706432993354667  0.9027540617858563  0.1656893295283552
  0.4821328156134754  0.0184402678981002  0.8720094526408673
  0.7312972982714072  0.0434826227221592  0.7783211196893376
  0.0178001898037294  0.8002562875830037  0.5000824386423375
  0.9786786339980580  0.2791739038731080  0.7754110916906853
  0.7358108203245450  0.7618704848724533  0.0136670478764671
  0.7167550823674702  0.2225450747486661  0.5233115255595422
  0.7335062145438300  0.5225557399465401  0.7164869642605041
  0.5283144167607716  0.5793140081886179  0.3901734371192447
  0.7301714741872303  0.5338658693483040  0.3006988198793437
  0.2089501155597731  0.8877818158974478  0.5794088966573483
  0.5724795327071774  0.1695531772436141  0.3218389920956852
  0.0266238484396553  0.7824176318291549  0.2825439042819653
  0.3495333688487960  0.7080540628127565  0.4947985042833096
  0.8521735232317340  0.3885363550653977  0.4005622686401153
  0.4042851664481901  0.9158189035660556  0.4683885682531113
  0.7171448866622114  0.1193010334692630  0.1394370204947819
  0.6343686556189994  0.1587014408947738  0.9421406958728795
  0.9836280663040995  0.3265784899686750  0.0137211013056344
  0.3179033914752409  0.5219196801255777  0.1347327184384284
  0.5922586208279057  0.9194922550387687  0.6530784296443315
  0.9703466488607972  0.5542886951515129  0.0207992538937560
  0.9071366743663845  0.9255993372846874  0.1257512735841075
  0.8257703398567742  0.4221888517140044  0.8797365176458527
  0.4396574491109675  0.2379164001518959  0.9286388820558855
  0.2938657728625600  0.0025381079819553  0.2290652560835369
  0.6046431016319715  0.3782348582181001  0.8723004257599669
  0.4681779420154797  0.5788828007397981  0.7796494533043585
  0.3866111145579794  0.0030949949671850  0.6725923433539123
  0.5511938280353021  0.1618351577433614  0.7319761013635500
  0.8484390438544267  0.6351792473243663  0.8658411198802796
  0.8580041062635217  0.1703554450947564  0.9448028865996676
  0.8623194081364929  0.6754991322638517  0.1697363642650060
  0.1753789550956242  0.7904857554644806  0.9540776971765155
  0.3302775355124723  0.9126911309705577  0.0388147669903702
  0.4369819799658003  0.3693820878676064  0.2892366822874592
  0.0696568638336359  0.6640328320264999  0.8140059016197441
  0.7573519116886871  0.2491598283061052  0.7690951145463032
  0.9671976053531566  0.2065052845749875  0.4283695926504052
  0.0758541483009125  0.8645596791548726  0.7470175906860845
  0.0296126865836257  0.0096150689347709  0.5114716693327637
  0.7578187486220500  0.0111700144770026  0.5313799758011726
  0.2621437682938463  0.0943575794876210  0.5329467703823738
  0.5044698296131358  0.9593345096535515  0.2864536737288290
  0.6067520836730367  0.3644210651431976  0.6505959153119889
  0.8998994080570881  0.6839851859541071  0.6655796129695375
  0.8911911467627149  0.4445052786702846  0.1886630197084855
  0.1544901243063421  0.4253707673599507  0.0599980809970901
  0.8648197452644126  0.3718924653541933  0.6142270858175181
  0.0364576249127140  0.4642179237348216  0.8256229487658189
  0.9492146970558935  0.0498320856361545  0.8008258868026346
  0.8197674133797506  0.8756517648138740  0.3165857223228130
  0.3929210792312716  0.4419407540603970  0.9530332956121867
  0.9595933809487462  0.7717293948567772  0.9844986143046270
  0.3604612259853184  0.1737775163214152  0.3413563706946832
  0.3022240507726295  0.1221455031036456  0.0408887315571533
  0.6332479965430622  0.6000003885217708  0.9010380887068834
  0.3290568326184200  0.1950564832115305  0.7589553239469566
  0.7371908321436607  0.3180440335590831  0.0496668042171606
  0.6363684696075822  0.7076068367910509  0.2254286432012975
  0.1627967474070857  0.6657935100354848  0.6142238587827080
  0.5681359634477303  0.7793814910944121  0.4669447383190715
  0.1098939378563486  0.1788097458635605  0.9135617854303391
  0.0638631719442557  0.4244207662982404  0.4246788744551395
  0.5291590445411885  0.0960003374136988  0.5247349695309040
  0.5070061198162747  0.2526101037859689  0.1263835142686602
  0.9486726605915194  0.1328820664497741  0.1319988530339415
  0.4155149587617615  0.5130002333247035  0.5767370098061022
  0.7016783631976651  0.5854181414432702  0.5162839469703115
  0.5364814954763375  0.5046197407022248  0.1609517385668653
  0.2740876414979923  0.6374047791230169  0.8398512058082659
  0.1256499150852548  0.9082783217992869  0.1349851224450163
  0.4241275550784493  0.7841822936914795  0.6828260714534480
  0.5345962849470993  0.8475612508702497  0.0005752193568114
  0.9008133582212068  0.6403323597751651  0.3891775268494015
  0.3271624905947306  0.5729000723255595  0.3322763248881699
  0.6141862189341012  0.3719478814323764  0.3986413505439685
  0.2324232551935452  0.3627588999599425  0.2651043128524293
  0.2730250639467116  0.9445627416861768  0.8404178221922933
  0.7229967800126644  0.8210966671427826  0.7964178054962971
  0.3446530736271782  0.7076376528721511  0.0621366923813369
  0.2182217043178625  0.8444246584340434  0.3687129574709687
  0.1268449274108576  0.1145745992807576  0.2961589375835629
  0.7588473971732626  0.9777089966899837  0.9798264850677896
  0.7907164375171689  0.1998821150794896  0.3142920612186728
  0.0994535161027841  0.2683297935838240  0.6001879789558444
  0.1203952443790968  0.6440361560387515  0.1469434746453047
 
  0.00000000E+00  0.00000000E+00  0.00000000E+00
  0.00000000E+00  0.00000000E+00  0.00000000E+00
  0.00000000E+00  0.00000000E+00  0.00000000E+00
  0.00000000E+00  0.00000000E+00  0.00000000E+00
  0.00000000E+00  0.00000000E+00  0.00000000E+00
  0.00000000E+00  0.00000000E+00  0.00000000E+00
  0.00000000E+00  0.00000000E+00  0.00000000E+00
  0.00000000E+00  0.00000000E+00  0.00000000E+00
  0.00000000E+00  0.00000000E+00  0.00000000E+00
  0.00000000E+00  0.00000000E+00  0.00000000E+00
  0.00000000E+00  0.00000000E+00  0.00000000E+00
  0.00000000E+00  0.00000000E+00  0.00000000E+00
  0.00000000E+00  0.00000000E+00  0.00000000E+00
  0.00000000E+00  0.00000000E+00  0.00000000E+00
  0.00000000E+00  0.00000000E+00  0.00000000E+00
  0.00000000E+00  0.00000000E+00  0.00000000E+00
  0.00000000E+00  0.00000000E+00  0.00000000E+00
  0.00000000E+00  0.00000000E+00  0.00000000E+00
  0.00000000E+00  0.00000000E+00  0.00000000E+00
  0.00000000E+00  0.00000000E+00  0.00000000E+00
  0.00000000E+00  0.00000000E+00  0.00000000E+00
  0.00000000E+00  0.00000000E+00  0.00000000E+00
  0.00000000E+00  0.00000000E+00  0.00000000E+00
  0.00000000E+00  0.00000000E+00  0.00000000E+00
  0.00000000E+00  0.00000000E+00  0.00000000E+00
  0.00000000E+00  0.00000000E+00  0.00000000E+00
  0.00000000E+00  0.00000000E+00  0.00000000E+00
  0.00000000E+00  0.00000000E+00  0.00000000E+00
  0.00000000E+00  0.00000000E+00  0.00000000E+00
  0.00000000E+00  0.00000000E+00  0.00000000E+00
  0.00000000E+00  0.00000000E+00  0.00000000E+00
  0.00000000E+00  0.00000000E+00  0.00000000E+00
  0.00000000E+00  0.00000000E+00  0.00000000E+00
  0.00000000E+00  0.00000000E+00  0.00000000E+00
  0.00000000E+00  0.00000000E+00  0.00000000E+00
  0.00000000E+00  0.00000000E+00  0.00000000E+00
  0.00000000E+00  0.00000000E+00  0.00000000E+00
  0.00000000E+00  0.00000000E+00  0.00000000E+00
  0.00000000E+00  0.00000000E+00  0.00000000E+00
  0.00000000E+00  0.00000000E+00  0.00000000E+00
  0.00000000E+00  0.00000000E+00  0.00000000E+00
  0.00000000E+00  0.00000000E+00  0.00000000E+00
  0.00000000E+00  0.00000000E+00  0.00000000E+00
  0.00000000E+00  0.00000000E+00  0.00000000E+00
  0.00000000E+00  0.00000000E+00  0.00000000E+00
  0.00000000E+00  0.00000000E+00  0.00000000E+00
  0.00000000E+00  0.00000000E+00  0.00000000E+00
  0.00000000E+00  0.00000000E+00  0.00000000E+00
  0.00000000E+00  0.00000000E+00  0.00000000E+00
  0.00000000E+00  0.00000000E+00  0.00000000E+00
  0.00000000E+00  0.00000000E+00  0.00000000E+00
  0.00000000E+00  0.00000000E+00  0.00000000E+00
  0.00000000E+00  0.00000000E+00  0.00000000E+00
  0.00000000E+00  0.00000000E+00  0.00000000E+00
  0.00000000E+00  0.00000000E+00  0.00000000E+00
  0.00000000E+00  0.00000000E+00  0.00000000E+00
  0.00000000E+00  0.00000000E+00  0.00000000E+00
  0.00000000E+00  0.00000000E+00  0.00000000E+00
  0.00000000E+00  0.00000000E+00  0.00000000E+00
  0.00000000E+00  0.00000000E+00  0.00000000E+00
  0.00000000E+00  0.00000000E+00  0.00000000E+00
  0.00000000E+00  0.00000000E+00  0.00000000E+00
  0.00000000E+00  0.00000000E+00  0.00000000E+00
  0.00000000E+00  0.00000000E+00  0.00000000E+00
  0.00000000E+00  0.00000000E+00  0.00000000E+00
  0.00000000E+00  0.00000000E+00  0.00000000E+00
  0.00000000E+00  0.00000000E+00  0.00000000E+00
  0.00000000E+00  0.00000000E+00  0.00000000E+00
  0.00000000E+00  0.00000000E+00  0.00000000E+00
  0.00000000E+00  0.00000000E+00  0.00000000E+00
  0.00000000E+00  0.00000000E+00  0.00000000E+00
  0.00000000E+00  0.00000000E+00  0.00000000E+00
  0.00000000E+00  0.00000000E+00  0.00000000E+00
  0.00000000E+00  0.00000000E+00  0.00000000E+00
  0.00000000E+00  0.00000000E+00  0.00000000E+00
  0.00000000E+00  0.00000000E+00  0.00000000E+00
  0.00000000E+00  0.00000000E+00  0.00000000E+00
  0.00000000E+00  0.00000000E+00  0.00000000E+00
  0.00000000E+00  0.00000000E+00  0.00000000E+00
  0.00000000E+00  0.00000000E+00  0.00000000E+00
  0.00000000E+00  0.00000000E+00  0.00000000E+00
  0.00000000E+00  0.00000000E+00  0.00000000E+00
  0.00000000E+00  0.00000000E+00  0.00000000E+00
  0.00000000E+00  0.00000000E+00  0.00000000E+00
  0.00000000E+00  0.00000000E+00  0.00000000E+00
  0.00000000E+00  0.00000000E+00  0.00000000E+00
  0.00000000E+00  0.00000000E+00  0.00000000E+00
  0.00000000E+00  0.00000000E+00  0.00000000E+00
  0.00000000E+00  0.00000000E+00  0.00000000E+00
  0.00000000E+00  0.00000000E+00  0.00000000E+00
  0.00000000E+00  0.00000000E+00  0.00000000E+00
  0.00000000E+00  0.00000000E+00  0.00000000E+00
  0.00000000E+00  0.00000000E+00  0.00000000E+00
  0.00000000E+00  0.00000000E+00  0.00000000E+00
  0.00000000E+00  0.00000000E+00  0.00000000E+00
  0.00000000E+00  0.00000000E+00  0.00000000E+00
