  Built with Packmol                    
   1.00000000000000     
    11.0450842988829674   -0.1813716618179975   -0.1658447225479188
    -0.1871068896742564   11.4474731957130107    0.1463074019116111
    -0.1708679338004897    0.1539800663700326   11.1743477572928036
   Fe   Ge
    48    48
Direct
  0.1677000500733996  0.0931764557778223  0.5421015735437180
  0.9564842682013577  0.9037353224072149  0.9513219324568425
  0.9554065260964251  0.1202656269289832  0.5806426244999230
  0.3332172466285641  0.5026270329455542  0.8726463351576328
  0.4825555674985864  0.3802433732362189  0.5685785837605550
  0.2730982372257529  0.2400162743777017  0.3863027450916476
  0.5958694607641064  0.2136857034368873  0.6703340880192243
  0.2229649173612742  0.6281557310768022  0.5398485537950961
  0.4513589864047205  0.7148053630458122  0.2260357366914789
  0.1444412168287528  0.6287787452748788  0.9066963707028464
  0.3306340356039428  0.3229423878586957  0.1760318840752078
  0.5543916555173922  0.3356038371668717  0.1605848613199967
  0.6818589612351929  0.8082932507993164  0.2323940757188083
  0.0663228947625072  0.2974973010855138  0.2282387548094533
  0.2709232122336047  0.6242763167699508  0.0881854994527487
  0.8731685449038764  0.4170012925857520  0.5022888559809147
  0.6593473081991164  0.1972268854396262  0.2956788885889736
  0.4326288502815885  0.1532623279760870  0.2687035539313314
  0.1040031876407710  0.4709316971445929  0.4086253708603351
  0.4120588888939523  0.3393349340507470  0.7649728022322080
  0.3465759862697553  0.8309604731694193  0.0607807736000012
  0.8386900357517035  0.0007924527450101  0.2329901348761609
  0.9093900146420708  0.8026377652401919  0.3524230452588313
  0.7752828993298664  0.3005132010769174  0.8840023048124124
  0.4196638442051324  0.5115183757252453  0.2510991080581775
  0.4976065225028563  0.3546875255852129  0.3545752089380088
  0.3423131406134203  0.0263019690537831  0.4445245323505489
  0.5223204185946457  0.9955396738701623  0.9647364333468502
  0.4456596316634531  0.1735598016564239  0.0590450853167255
  0.2734134036031861  0.6263778813676240  0.3333276914937642
  0.2265875636618730  0.7927393770810625  0.2362898571354322
  0.6643164613604782  0.5046677843733605  0.4671982677047666
  0.7223068286077137  0.9117109972503314  0.0182546670941335
  0.7261666818250205  0.4024714063190373  0.2776710038026238
  0.5527037582655439  0.3710975019908602  0.9372332320723089
  0.6676156377459037  0.1950160923796815  0.0438108185359383
  0.0807123817802378  0.9430562991551312  0.7067721106635503
  0.4680406416476259  0.5995283781051555  0.4633711700523904
  0.7177763228991196  0.0067964876998303  0.6195048524139395
  0.0469766273040690  0.1044811481377437  0.3518807256396030
  0.5608265871364324  0.9921995170603708  0.3769281675226281
  0.7085476049323560  0.0850901719403225  0.8379721179687607
  0.2065950051674434  0.8670923970280029  0.8625700157314569
  0.1539897148616234  0.4321944663270614  0.0140787613828195
  0.5073357652278077  0.1758410464655924  0.4696975330286506
  0.9991765882712329  0.7457868899439859  0.5881362468084248
  0.8229270740519539  0.5952613779985185  0.1502954806795742
  0.0212829813079267  0.0983938397320117  0.1175105689805633
  0.8127050416166526  0.2149458965753226  0.6849425373121818
  0.0142653418902441  0.9364656776391271  0.4925575460659672
  0.3079758830770700  0.3055922358623917  0.9575227376438846
  0.7756677124335170  0.7095359144551807  0.9386969706165900
  0.9837076740565038  0.7449049261411318  0.8129458071401601
  0.6324510791795888  0.5962443194811726  0.2710887946390983
  0.5225618561041188  0.7912511996903646  0.4126498196039492
  0.3434662250992986  0.2057843072892638  0.6098746959116497
  0.0717100224665046  0.6799190842572926  0.3734623417977758
  0.5497732906771517  0.7937267737331339  0.0525059465653825
  0.3108325436651214  0.4428187142257016  0.4516967265686915
  0.3619725842000250  0.7050554625787910  0.8929666886404988
  0.0374609126724863  0.5330635691573207  0.5984026761368284
  0.6314866574438014  0.8877290243451768  0.8048555958882631
  0.4551764098648121  0.5074210569037660  0.0498830247207920
  0.3743502407028672  0.5420617742696834  0.6681861026090488
  0.7414267271178616  0.8872994983300941  0.4310025722083708
  0.1071809771185599  0.1957308879449187  0.7264529091078913
  0.1231143575241163  0.7946943803697550  0.0459338819391135
  0.8630815720175562  0.4336993192849903  0.7294643348806673
  0.6120895808637883  0.0236002216844611  0.1697587552167548
  0.8498648769567865  0.0837686291637922  0.9984171031861138
  0.1377585742539154  0.4238253533045153  0.7976075496307971
  0.1906190999600454  0.7449549180281565  0.6992223894870691
  0.8361803971669204  0.6331867233733774  0.4656026983867037
  0.8619501387664954  0.2249554877184750  0.2139905944591050
  0.8854270996006264  0.9955783539097567  0.7580558171687954
  0.1920517620836080  0.4678824029509698  0.2182151392417850
  0.7352603167560474  0.4307248549669254  0.0497419055265027
  0.2157893087167579  0.1438776732428977  0.1955209596448313
  0.0676168849867977  0.9262924102034162  0.2476527644202449
  0.8062147509049495  0.1040299494940768  0.4281688152179655
  0.0536028703682092  0.2777461244679813  0.4624498764421574
  0.8793158858861645  0.8010341875214593  0.1354413992635912
  0.1033073459038434  0.0593366705495484  0.9163186986856431
  0.3933089482254815  0.9320550201259081  0.7843652926828639
  0.6824000158111048  0.3019742135258383  0.4873042016692608
  0.9327247660170812  0.4656765225738724  0.2834509969216228
  0.3812231608341108  0.9407397413772642  0.2410393587982114
  0.6198525273396100  0.4351149981869824  0.7434432063730654
  0.5044898771110411  0.0054347501200596  0.5984209800818476
  0.2762066428972716  0.8185856374210374  0.4613889788858287
  0.7910715920878033  0.7937812110196845  0.6401652981865809
  0.6170304957999875  0.6382390894576560  0.6229441395541429
  0.3106164608233826  0.0186158275866930  0.9941135891147326
  0.5185220019824186  0.1744612137285770  0.8585391603152033
  0.9955681087392421  0.5633284596837953  0.0433492337991979
  0.9905143662117197  0.2960182952612129  0.0010294142063003
 
  0.00000000E+00  0.00000000E+00  0.00000000E+00
  0.00000000E+00  0.00000000E+00  0.00000000E+00
  0.00000000E+00  0.00000000E+00  0.00000000E+00
  0.00000000E+00  0.00000000E+00  0.00000000E+00
  0.00000000E+00  0.00000000E+00  0.00000000E+00
  0.00000000E+00  0.00000000E+00  0.00000000E+00
  0.00000000E+00  0.00000000E+00  0.00000000E+00
  0.00000000E+00  0.00000000E+00  0.00000000E+00
  0.00000000E+00  0.00000000E+00  0.00000000E+00
  0.00000000E+00  0.00000000E+00  0.00000000E+00
  0.00000000E+00  0.00000000E+00  0.00000000E+00
  0.00000000E+00  0.00000000E+00  0.00000000E+00
  0.00000000E+00  0.00000000E+00  0.00000000E+00
  0.00000000E+00  0.00000000E+00  0.00000000E+00
  0.00000000E+00  0.00000000E+00  0.00000000E+00
  0.00000000E+00  0.00000000E+00  0.00000000E+00
  0.00000000E+00  0.00000000E+00  0.00000000E+00
  0.00000000E+00  0.00000000E+00  0.00000000E+00
  0.00000000E+00  0.00000000E+00  0.00000000E+00
  0.00000000E+00  0.00000000E+00  0.00000000E+00
  0.00000000E+00  0.00000000E+00  0.00000000E+00
  0.00000000E+00  0.00000000E+00  0.00000000E+00
  0.00000000E+00  0.00000000E+00  0.00000000E+00
  0.00000000E+00  0.00000000E+00  0.00000000E+00
  0.00000000E+00  0.00000000E+00  0.00000000E+00
  0.00000000E+00  0.00000000E+00  0.00000000E+00
  0.00000000E+00  0.00000000E+00  0.00000000E+00
  0.00000000E+00  0.00000000E+00  0.00000000E+00
  0.00000000E+00  0.00000000E+00  0.00000000E+00
  0.00000000E+00  0.00000000E+00  0.00000000E+00
  0.00000000E+00  0.00000000E+00  0.00000000E+00
  0.00000000E+00  0.00000000E+00  0.00000000E+00
  0.00000000E+00  0.00000000E+00  0.00000000E+00
  0.00000000E+00  0.00000000E+00  0.00000000E+00
  0.00000000E+00  0.00000000E+00  0.00000000E+00
  0.00000000E+00  0.00000000E+00  0.00000000E+00
  0.00000000E+00  0.00000000E+00  0.00000000E+00
  0.00000000E+00  0.00000000E+00  0.00000000E+00
  0.00000000E+00  0.00000000E+00  0.00000000E+00
  0.00000000E+00  0.00000000E+00  0.00000000E+00
  0.00000000E+00  0.00000000E+00  0.00000000E+00
  0.00000000E+00  0.00000000E+00  0.00000000E+00
  0.00000000E+00  0.00000000E+00  0.00000000E+00
  0.00000000E+00  0.00000000E+00  0.00000000E+00
  0.00000000E+00  0.00000000E+00  0.00000000E+00
  0.00000000E+00  0.00000000E+00  0.00000000E+00
  0.00000000E+00  0.00000000E+00  0.00000000E+00
  0.00000000E+00  0.00000000E+00  0.00000000E+00
  0.00000000E+00  0.00000000E+00  0.00000000E+00
  0.00000000E+00  0.00000000E+00  0.00000000E+00
  0.00000000E+00  0.00000000E+00  0.00000000E+00
  0.00000000E+00  0.00000000E+00  0.00000000E+00
  0.00000000E+00  0.00000000E+00  0.00000000E+00
  0.00000000E+00  0.00000000E+00  0.00000000E+00
  0.00000000E+00  0.00000000E+00  0.00000000E+00
  0.00000000E+00  0.00000000E+00  0.00000000E+00
  0.00000000E+00  0.00000000E+00  0.00000000E+00
  0.00000000E+00  0.00000000E+00  0.00000000E+00
  0.00000000E+00  0.00000000E+00  0.00000000E+00
  0.00000000E+00  0.00000000E+00  0.00000000E+00
  0.00000000E+00  0.00000000E+00  0.00000000E+00
  0.00000000E+00  0.00000000E+00  0.00000000E+00
  0.00000000E+00  0.00000000E+00  0.00000000E+00
  0.00000000E+00  0.00000000E+00  0.00000000E+00
  0.00000000E+00  0.00000000E+00  0.00000000E+00
  0.00000000E+00  0.00000000E+00  0.00000000E+00
  0.00000000E+00  0.00000000E+00  0.00000000E+00
  0.00000000E+00  0.00000000E+00  0.00000000E+00
  0.00000000E+00  0.00000000E+00  0.00000000E+00
  0.00000000E+00  0.00000000E+00  0.00000000E+00
  0.00000000E+00  0.00000000E+00  0.00000000E+00
  0.00000000E+00  0.00000000E+00  0.00000000E+00
  0.00000000E+00  0.00000000E+00  0.00000000E+00
  0.00000000E+00  0.00000000E+00  0.00000000E+00
  0.00000000E+00  0.00000000E+00  0.00000000E+00
  0.00000000E+00  0.00000000E+00  0.00000000E+00
  0.00000000E+00  0.00000000E+00  0.00000000E+00
  0.00000000E+00  0.00000000E+00  0.00000000E+00
  0.00000000E+00  0.00000000E+00  0.00000000E+00
  0.00000000E+00  0.00000000E+00  0.00000000E+00
  0.00000000E+00  0.00000000E+00  0.00000000E+00
  0.00000000E+00  0.00000000E+00  0.00000000E+00
  0.00000000E+00  0.00000000E+00  0.00000000E+00
  0.00000000E+00  0.00000000E+00  0.00000000E+00
  0.00000000E+00  0.00000000E+00  0.00000000E+00
  0.00000000E+00  0.00000000E+00  0.00000000E+00
  0.00000000E+00  0.00000000E+00  0.00000000E+00
  0.00000000E+00  0.00000000E+00  0.00000000E+00
  0.00000000E+00  0.00000000E+00  0.00000000E+00
  0.00000000E+00  0.00000000E+00  0.00000000E+00
  0.00000000E+00  0.00000000E+00  0.00000000E+00
  0.00000000E+00  0.00000000E+00  0.00000000E+00
  0.00000000E+00  0.00000000E+00  0.00000000E+00
  0.00000000E+00  0.00000000E+00  0.00000000E+00
  0.00000000E+00  0.00000000E+00  0.00000000E+00
  0.00000000E+00  0.00000000E+00  0.00000000E+00
