  Built with Packmol                    
    1.000000000000000     
    10.8736878555795968   -0.3190180190248375    0.0861151397349476
    -0.3288201600406374   11.0132000428517092    0.1780150387793579
     0.0725614627025195    0.1660551566170854   11.8111083638128456
   Fe   Ge
    48    48
Direct
  0.6540400375282345  0.4069497424682275  0.5121784083652382
  0.3400136666126228  0.7012639216316822  0.1135185083989038
  0.7264271443464239  0.7573273081550808  0.2357875793674367
  0.5752275134229909  0.7900939947397012  0.4043665556942970
  0.6207992102358441  0.5035561891941913  0.1782445651821271
  0.6357882655672518  0.6239513993389620  0.6508980737934494
  0.0220293800555912  0.6124557058949801  0.5710160000227693
  0.0735527413222490  0.0269073894185836  0.6939497087971287
  0.7149918826674382  0.1376769167291030  0.2811102798397898
  0.9403070402400950  0.4550028425598405  0.7673243730446725
  0.7967736383820093  0.3585036868624841  0.1378216819848008
  0.7360165519913464  0.6144843950368364  0.0181565622119062
  0.6014019774029269  0.2356509724585082  0.6543978269877276
  0.8694218437913248  0.9581090390139431  0.5665763430719193
  0.6958449602026444  0.5772118471583183  0.3700846328192547
  0.2330897820097114  0.7494025828389537  0.6716828861481317
  0.9613235404550444  0.7731199077169332  0.1897312686480910
  0.1499731019353578  0.8531477487859608  0.0261080692767563
  0.0733574871126340  0.9932357920234169  0.2136758563256288
  0.3291830904275365  0.5041592032590658  0.3932853776552685
  0.1327233250851776  0.7064319224730768  0.4152697168163890
  0.5471844504222072  0.5560257227313612  0.8468445604344433
  0.8612893609249677  0.7269171074745057  0.6750860990276144
  0.4351757817236767  0.8967435790503325  0.7401556872181827
  0.0005687767932953  0.8762887340692830  0.3810098046813147
  0.2396406460608730  0.9034389985032026  0.4309031092933611
  0.1674944110934216  0.3883941214426005  0.2697005579410674
  0.6180274986062666  0.7760841694401898  0.8340935810453239
  0.6888602681378642  0.9874660805892983  0.4398458773978244
  0.7779620151701847  0.1966574112108557  0.5021117912095598
  0.4022745643805830  0.8700636665834234  0.2749947923603485
  0.3484470235395035  0.0428389919073813  0.9193338068901301
  0.2073662347998767  0.4514592239665723  0.0547183183585992
  0.0106168667732504  0.2861735537416336  0.4402719281730891
  0.0059116124164844  0.8389206402072689  0.8021351888652567
  0.7521027118981650  0.0249448785111849  0.9287620549251391
  0.2700368154380761  0.9880641268790440  0.6227111674671750
  0.6400097992854004  0.8318247256438877  0.6272413627305783
  0.1044599055493166  0.0602266612124947  0.4747160491356630
  0.6045595752267338  0.3932788845902838  0.9897855906351589
  0.3570817427318422  0.7187609962585868  0.4230394091251443
  0.9084656978333817  0.0875101162052051  0.3878769374262653
  0.9095205092326301  0.6617350051094473  0.3660166487823761
  0.3899889709758099  0.4849403906316792  0.1825224785497461
  0.9520098599377941  0.9487276591088184  0.0357884864226898
  0.3849260894947965  0.7811194952748765  0.9191641181097414
  0.1903309090837549  0.8191115795501205  0.2343210291135850
  0.2427805147012054  0.2599984209678033  0.9575830218236473
  0.4315565835203976  0.1161532484260706  0.7203145358307644
  0.2043840082356284  0.5980523578044906  0.2450991672712855
  0.7793036738928143  0.1453935701597944  0.0839326951718837
  0.4579922463989434  0.2165094771764871  0.9790188053661417
  0.7966700139338548  0.9059405523442712  0.7681955325782931
  0.5451307589421416  0.9695421938119317  0.9078440781687521
  0.6742361704423674  0.2094617541335111  0.8479584605451992
  0.5210831463406184  0.6405875535172463  0.0250453042322869
  0.7837185827782854  0.7891753454378577  0.4640944134179751
  0.0848449379456183  0.3867401324952539  0.8930768209813976
  0.4300122741819816  0.6781766663370677  0.7285093959560383
  0.7326886395395655  0.8396651803993243  0.0394206014205267
  0.7708499183800037  0.5906579815749183  0.8193983357104611
  0.8168468175328883  0.5523920199949506  0.5481668536910625
  0.0656164457565584  0.3974293968380832  0.6155799955199902
  0.2873409364736223  0.0512247210428032  0.2653011123609551
  0.8248979898196936  0.3981207332215915  0.9386942120521974
  0.8437991707754445  0.5694999016650745  0.1968509463249608
  0.6034111994528867  0.9525446863629168  0.2472677224249698
  0.2316330465970045  0.3150717852312634  0.4521123262901485
  0.4994111273113475  0.6674137111664491  0.2565787265891283
  0.0601505628636875  0.6348547991587080  0.7732144544296478
  0.5128696366388247  0.4096374831285653  0.3503219044409877
  0.8171304530367410  0.3315036477550317  0.3456441628235505
  0.9584061503632241  0.0570298271649246  0.8602424520128790
  0.0606825762960421  0.8423726312288113  0.5783699528908613
  0.1943492232403723  0.6456112273808885  0.9703091856599945
  0.3846991938512069  0.4382899130266831  0.9322385273378214
  0.9447710215815232  0.7321911267636149  0.9813566912327422
  0.2421184035822754  0.5710726356712887  0.5636733102012068
  0.6692879648096540  0.0469111221627774  0.6341191363731888
  0.8507339771260259  0.9627072541294716  0.2321271755687336
  0.4398287186205202  0.8801506834495670  0.5370821577001021
  0.2985667789609937  0.2702390529723830  0.1611506622168720
  0.2055951354403500  0.1664583894981718  0.7852594663062660
  0.5692851008352140  0.1961001691617275  0.4431807981567679
  0.5066561266582514  0.5823752504855064  0.4989474198312956
  0.0258401125824525  0.4932646253323979  0.3920014448549807
  0.2175922561877157  0.9045206439220163  0.8213419514483851
  0.0718967852269854  0.1919907189529212  0.2749785051159497
  0.3447863299099298  0.1228361453808120  0.4731283340612326
  0.5459592505739194  0.4156142820148350  0.7093893558524013
  0.1424395062757179  0.0804729289969229  0.0304130670682025
  0.3653236006898511  0.9187980024860898  0.0845435225268100
  0.9604823887815740  0.1623076762847749  0.5993559141836775
  0.5807746628947063  0.2748159034538206  0.1752785857703430
  0.0088762340424749  0.3917677996147139  0.1351830525892420
  0.8006700051494329  0.3325053272177622  0.6620486433245037
 
  0.00000000E+00  0.00000000E+00  0.00000000E+00
  0.00000000E+00  0.00000000E+00  0.00000000E+00
  0.00000000E+00  0.00000000E+00  0.00000000E+00
  0.00000000E+00  0.00000000E+00  0.00000000E+00
  0.00000000E+00  0.00000000E+00  0.00000000E+00
  0.00000000E+00  0.00000000E+00  0.00000000E+00
  0.00000000E+00  0.00000000E+00  0.00000000E+00
  0.00000000E+00  0.00000000E+00  0.00000000E+00
  0.00000000E+00  0.00000000E+00  0.00000000E+00
  0.00000000E+00  0.00000000E+00  0.00000000E+00
  0.00000000E+00  0.00000000E+00  0.00000000E+00
  0.00000000E+00  0.00000000E+00  0.00000000E+00
  0.00000000E+00  0.00000000E+00  0.00000000E+00
  0.00000000E+00  0.00000000E+00  0.00000000E+00
  0.00000000E+00  0.00000000E+00  0.00000000E+00
  0.00000000E+00  0.00000000E+00  0.00000000E+00
  0.00000000E+00  0.00000000E+00  0.00000000E+00
  0.00000000E+00  0.00000000E+00  0.00000000E+00
  0.00000000E+00  0.00000000E+00  0.00000000E+00
  0.00000000E+00  0.00000000E+00  0.00000000E+00
  0.00000000E+00  0.00000000E+00  0.00000000E+00
  0.00000000E+00  0.00000000E+00  0.00000000E+00
  0.00000000E+00  0.00000000E+00  0.00000000E+00
  0.00000000E+00  0.00000000E+00  0.00000000E+00
  0.00000000E+00  0.00000000E+00  0.00000000E+00
  0.00000000E+00  0.00000000E+00  0.00000000E+00
  0.00000000E+00  0.00000000E+00  0.00000000E+00
  0.00000000E+00  0.00000000E+00  0.00000000E+00
  0.00000000E+00  0.00000000E+00  0.00000000E+00
  0.00000000E+00  0.00000000E+00  0.00000000E+00
  0.00000000E+00  0.00000000E+00  0.00000000E+00
  0.00000000E+00  0.00000000E+00  0.00000000E+00
  0.00000000E+00  0.00000000E+00  0.00000000E+00
  0.00000000E+00  0.00000000E+00  0.00000000E+00
  0.00000000E+00  0.00000000E+00  0.00000000E+00
  0.00000000E+00  0.00000000E+00  0.00000000E+00
  0.00000000E+00  0.00000000E+00  0.00000000E+00
  0.00000000E+00  0.00000000E+00  0.00000000E+00
  0.00000000E+00  0.00000000E+00  0.00000000E+00
  0.00000000E+00  0.00000000E+00  0.00000000E+00
  0.00000000E+00  0.00000000E+00  0.00000000E+00
  0.00000000E+00  0.00000000E+00  0.00000000E+00
  0.00000000E+00  0.00000000E+00  0.00000000E+00
  0.00000000E+00  0.00000000E+00  0.00000000E+00
  0.00000000E+00  0.00000000E+00  0.00000000E+00
  0.00000000E+00  0.00000000E+00  0.00000000E+00
  0.00000000E+00  0.00000000E+00  0.00000000E+00
  0.00000000E+00  0.00000000E+00  0.00000000E+00
  0.00000000E+00  0.00000000E+00  0.00000000E+00
  0.00000000E+00  0.00000000E+00  0.00000000E+00
  0.00000000E+00  0.00000000E+00  0.00000000E+00
  0.00000000E+00  0.00000000E+00  0.00000000E+00
  0.00000000E+00  0.00000000E+00  0.00000000E+00
  0.00000000E+00  0.00000000E+00  0.00000000E+00
  0.00000000E+00  0.00000000E+00  0.00000000E+00
  0.00000000E+00  0.00000000E+00  0.00000000E+00
  0.00000000E+00  0.00000000E+00  0.00000000E+00
  0.00000000E+00  0.00000000E+00  0.00000000E+00
  0.00000000E+00  0.00000000E+00  0.00000000E+00
  0.00000000E+00  0.00000000E+00  0.00000000E+00
  0.00000000E+00  0.00000000E+00  0.00000000E+00
  0.00000000E+00  0.00000000E+00  0.00000000E+00
  0.00000000E+00  0.00000000E+00  0.00000000E+00
  0.00000000E+00  0.00000000E+00  0.00000000E+00
  0.00000000E+00  0.00000000E+00  0.00000000E+00
  0.00000000E+00  0.00000000E+00  0.00000000E+00
  0.00000000E+00  0.00000000E+00  0.00000000E+00
  0.00000000E+00  0.00000000E+00  0.00000000E+00
  0.00000000E+00  0.00000000E+00  0.00000000E+00
  0.00000000E+00  0.00000000E+00  0.00000000E+00
  0.00000000E+00  0.00000000E+00  0.00000000E+00
  0.00000000E+00  0.00000000E+00  0.00000000E+00
  0.00000000E+00  0.00000000E+00  0.00000000E+00
  0.00000000E+00  0.00000000E+00  0.00000000E+00
  0.00000000E+00  0.00000000E+00  0.00000000E+00
  0.00000000E+00  0.00000000E+00  0.00000000E+00
  0.00000000E+00  0.00000000E+00  0.00000000E+00
  0.00000000E+00  0.00000000E+00  0.00000000E+00
  0.00000000E+00  0.00000000E+00  0.00000000E+00
  0.00000000E+00  0.00000000E+00  0.00000000E+00
  0.00000000E+00  0.00000000E+00  0.00000000E+00
  0.00000000E+00  0.00000000E+00  0.00000000E+00
  0.00000000E+00  0.00000000E+00  0.00000000E+00
  0.00000000E+00  0.00000000E+00  0.00000000E+00
  0.00000000E+00  0.00000000E+00  0.00000000E+00
  0.00000000E+00  0.00000000E+00  0.00000000E+00
  0.00000000E+00  0.00000000E+00  0.00000000E+00
  0.00000000E+00  0.00000000E+00  0.00000000E+00
  0.00000000E+00  0.00000000E+00  0.00000000E+00
  0.00000000E+00  0.00000000E+00  0.00000000E+00
  0.00000000E+00  0.00000000E+00  0.00000000E+00
  0.00000000E+00  0.00000000E+00  0.00000000E+00
  0.00000000E+00  0.00000000E+00  0.00000000E+00
  0.00000000E+00  0.00000000E+00  0.00000000E+00
  0.00000000E+00  0.00000000E+00  0.00000000E+00
  0.00000000E+00  0.00000000E+00  0.00000000E+00
