  Built with Packmol                    
    1.000000000000000     
    11.1110477826859597    0.1305068537596077    0.2974897518745750
     0.1269575372753907   11.2395337214855839    0.1693100046241417
     0.2934814097219607    0.1678870240039004   11.3674659673348337
   Fe   Ge
    48    48
Direct
  0.1343183282526539  0.6312371842857516  0.4069825833867071
  0.9071068679318870  0.1412830715243487  0.6267050319055940
  0.9243510746299606  0.9082622976562575  0.6706453021083973
  0.4200866077736194  0.3872146827651832  0.7402842513295695
  0.5155088679583173  0.0326111088620209  0.0886154081537569
  0.1468974145324324  0.0849531191594295  0.7291892559634263
  0.0302360654049068  0.2944105777554782  0.2346591799607722
  0.7294717020914732  0.5439162066963164  0.0639056337524906
  0.7606339057773823  0.7979680064082544  0.5522253141872042
  0.6981031980040981  0.9123304505608942  0.1928177186408675
  0.5053358067625311  0.0102920156212321  0.8669222449234084
  0.7253681896565354  0.0437456753219152  0.7836009369890178
  0.9920866577236183  0.7837830944810875  0.4901441969702205
  0.9781144512169391  0.2751190519967821  0.7789546438704633
  0.7358946856800870  0.7697617785636055  0.0218465672108152
  0.7259133032483263  0.2230741318295841  0.5212868477000256
  0.7351890430494592  0.5219726341106750  0.7144694888908418
  0.5334576989480979  0.5799295298065772  0.3847262784033774
  0.7419922459778192  0.5381775216579925  0.3116433978585178
  0.1955348090891249  0.8893299650862119  0.5773439323715905
  0.5851851246124653  0.1624611825808273  0.3191707044536258
  0.0238286501922929  0.7767392955561121  0.2772254023076712
  0.3326216346122663  0.6980971670130742  0.4913791195820565
  0.8628003889457361  0.3744217525925251  0.3986587568417832
  0.3960344508613147  0.9224520601705706  0.4722684622534388
  0.7254782418906771  0.1293660756602506  0.1318496178163571
  0.6249927924164353  0.1769853701567570  0.9349242836532028
  0.9909065187038522  0.3228079483249715  0.0013710308173813
  0.3175677859961539  0.5158059014842564  0.1335214586260633
  0.5796627762561641  0.9156511410574311  0.6523339514524977
  0.9586183355897830  0.5462263764985309  0.0139966813665708
  0.9057865219895405  0.9247078859501059  0.1202470659730395
  0.8312096639657014  0.4236020777261658  0.8781122585453716
  0.4316933016669751  0.2452125240882523  0.9175619505185040
  0.2976221055114650  0.9991925190717623  0.2346540967710169
  0.5984179354535684  0.3866806241861980  0.8635291264830869
  0.4524805039167603  0.5894848420001892  0.7804227424197379
  0.3856916685491001  0.0107151854396506  0.6788350052780103
  0.5462542134886661  0.1760501298935608  0.7263870482024330
  0.8306560435415875  0.6387105975789140  0.8733257768313791
  0.8429186390503034  0.1800867441824394  0.9376676383436831
  0.8637749211942989  0.6787238926529753  0.1778848031747060
  0.1711946850778361  0.7989728069535289  0.9611134481912700
  0.3413127678955448  0.9127452423373725  0.0467294025211018
  0.4392821280700403  0.3665986527735470  0.2873936324897457
  0.0536448038793154  0.6633871264329301  0.8123103030884096
  0.7501824833416748  0.2621440457215058  0.7589303162787289
  0.9773586908781695  0.1968166231236168  0.4309757371271772
  0.1048688302464527  0.8648638918224165  0.7701949805319401
  0.0252808260841633  0.9968214544861809  0.4950746059350593
  0.7588966197667801  0.0102858996338568  0.5659628745609666
  0.2566352430172785  0.0889770649871053  0.5352838291804360
  0.5074607377156966  0.9559872776533140  0.2904441926433421
  0.6080058148326444  0.3717500615413130  0.6337705646815266
  0.8986584553697412  0.6728518736134603  0.6690377212669461
  0.8815456694879416  0.4393415948443575  0.1840781033845076
  0.1454447305474886  0.4290281497945827  0.0651966704623703
  0.8687481460747719  0.3776426550845784  0.6136333494990680
  0.0434445351873833  0.4616750073408511  0.8231565430862275
  0.9465765086063200  0.0480763759624594  0.8169160675738212
  0.8278681699508184  0.8571581137912432  0.3472357771352748
  0.3869369828954348  0.4516843943953575  0.9458732832968266
  0.9583728290100524  0.7655598141386619  0.9830602321858635
  0.3675790155921490  0.1668584359590852  0.3467183989102551
  0.3107475094671699  0.1233681049013384  0.0532019507632882
  0.6188380634211725  0.6140344273192682  0.8974236618048863
  0.3225933772372542  0.2063943866617066  0.7388561533486708
  0.7281062116219132  0.3315542558907936  0.0462100200828317
  0.6437771174704352  0.7083408543439162  0.2271997256379095
  0.1473522901020985  0.6770473955312184  0.6144281793575459
  0.5551882798258916  0.7766101843345297  0.4741985055775757
  0.1308499742641871  0.1849193015222141  0.9138074856161182
  0.0745651312346354  0.4157504771859379  0.4215821049127157
  0.5369878589509369  0.0910010184985524  0.5217371912868032
  0.5141005617289096  0.2463535807853603  0.1278566005274797
  0.9567666588596140  0.1358419771797656  0.1139857812439544
  0.4112537077456722  0.5204177740736000  0.5765764146420835
  0.6989179675355999  0.5891541295454914  0.5159207785031157
  0.5354944553628016  0.5062120609980880  0.1559296064964499
  0.2580343668689409  0.6459575709767975  0.8433337819255371
  0.1282726292673431  0.9120045194668833  0.1388703581187798
  0.3981744717630349  0.7911600491987372  0.6760978410925773
  0.5336433709695498  0.8324699046076987  0.9880716275423751
  0.9168123953333804  0.6149805546641431  0.3868286741280684
  0.3322130657245594  0.5663549506008820  0.3301516437430863
  0.6268784162665781  0.3676826809631066  0.3823237739975411
  0.2340384173419423  0.3520220667899565  0.2594538541832847
  0.2835885063712311  0.9582591997202030  0.8557872185537576
  0.7379678443356568  0.8259586949681861  0.7804421570038613
  0.3376732161842995  0.7054977399124454  0.0625356950583082
  0.2150395468953477  0.8397726653580406  0.3684876847457730
  0.1276187252440195  0.1161941532105217  0.2871263183430983
  0.7276272625244857  0.9813844971858501  0.9836291129628592
  0.8056923201019330  0.1760767897613604  0.3156320669457031
  0.1001964642575928  0.2633483402633132  0.5993674263074382
  0.1121396771924807  0.6462613565206468  0.1341247980957050
 
  0.00000000E+00  0.00000000E+00  0.00000000E+00
  0.00000000E+00  0.00000000E+00  0.00000000E+00
  0.00000000E+00  0.00000000E+00  0.00000000E+00
  0.00000000E+00  0.00000000E+00  0.00000000E+00
  0.00000000E+00  0.00000000E+00  0.00000000E+00
  0.00000000E+00  0.00000000E+00  0.00000000E+00
  0.00000000E+00  0.00000000E+00  0.00000000E+00
  0.00000000E+00  0.00000000E+00  0.00000000E+00
  0.00000000E+00  0.00000000E+00  0.00000000E+00
  0.00000000E+00  0.00000000E+00  0.00000000E+00
  0.00000000E+00  0.00000000E+00  0.00000000E+00
  0.00000000E+00  0.00000000E+00  0.00000000E+00
  0.00000000E+00  0.00000000E+00  0.00000000E+00
  0.00000000E+00  0.00000000E+00  0.00000000E+00
  0.00000000E+00  0.00000000E+00  0.00000000E+00
  0.00000000E+00  0.00000000E+00  0.00000000E+00
  0.00000000E+00  0.00000000E+00  0.00000000E+00
  0.00000000E+00  0.00000000E+00  0.00000000E+00
  0.00000000E+00  0.00000000E+00  0.00000000E+00
  0.00000000E+00  0.00000000E+00  0.00000000E+00
  0.00000000E+00  0.00000000E+00  0.00000000E+00
  0.00000000E+00  0.00000000E+00  0.00000000E+00
  0.00000000E+00  0.00000000E+00  0.00000000E+00
  0.00000000E+00  0.00000000E+00  0.00000000E+00
  0.00000000E+00  0.00000000E+00  0.00000000E+00
  0.00000000E+00  0.00000000E+00  0.00000000E+00
  0.00000000E+00  0.00000000E+00  0.00000000E+00
  0.00000000E+00  0.00000000E+00  0.00000000E+00
  0.00000000E+00  0.00000000E+00  0.00000000E+00
  0.00000000E+00  0.00000000E+00  0.00000000E+00
  0.00000000E+00  0.00000000E+00  0.00000000E+00
  0.00000000E+00  0.00000000E+00  0.00000000E+00
  0.00000000E+00  0.00000000E+00  0.00000000E+00
  0.00000000E+00  0.00000000E+00  0.00000000E+00
  0.00000000E+00  0.00000000E+00  0.00000000E+00
  0.00000000E+00  0.00000000E+00  0.00000000E+00
  0.00000000E+00  0.00000000E+00  0.00000000E+00
  0.00000000E+00  0.00000000E+00  0.00000000E+00
  0.00000000E+00  0.00000000E+00  0.00000000E+00
  0.00000000E+00  0.00000000E+00  0.00000000E+00
  0.00000000E+00  0.00000000E+00  0.00000000E+00
  0.00000000E+00  0.00000000E+00  0.00000000E+00
  0.00000000E+00  0.00000000E+00  0.00000000E+00
  0.00000000E+00  0.00000000E+00  0.00000000E+00
  0.00000000E+00  0.00000000E+00  0.00000000E+00
  0.00000000E+00  0.00000000E+00  0.00000000E+00
  0.00000000E+00  0.00000000E+00  0.00000000E+00
  0.00000000E+00  0.00000000E+00  0.00000000E+00
  0.00000000E+00  0.00000000E+00  0.00000000E+00
  0.00000000E+00  0.00000000E+00  0.00000000E+00
  0.00000000E+00  0.00000000E+00  0.00000000E+00
  0.00000000E+00  0.00000000E+00  0.00000000E+00
  0.00000000E+00  0.00000000E+00  0.00000000E+00
  0.00000000E+00  0.00000000E+00  0.00000000E+00
  0.00000000E+00  0.00000000E+00  0.00000000E+00
  0.00000000E+00  0.00000000E+00  0.00000000E+00
  0.00000000E+00  0.00000000E+00  0.00000000E+00
  0.00000000E+00  0.00000000E+00  0.00000000E+00
  0.00000000E+00  0.00000000E+00  0.00000000E+00
  0.00000000E+00  0.00000000E+00  0.00000000E+00
  0.00000000E+00  0.00000000E+00  0.00000000E+00
  0.00000000E+00  0.00000000E+00  0.00000000E+00
  0.00000000E+00  0.00000000E+00  0.00000000E+00
  0.00000000E+00  0.00000000E+00  0.00000000E+00
  0.00000000E+00  0.00000000E+00  0.00000000E+00
  0.00000000E+00  0.00000000E+00  0.00000000E+00
  0.00000000E+00  0.00000000E+00  0.00000000E+00
  0.00000000E+00  0.00000000E+00  0.00000000E+00
  0.00000000E+00  0.00000000E+00  0.00000000E+00
  0.00000000E+00  0.00000000E+00  0.00000000E+00
  0.00000000E+00  0.00000000E+00  0.00000000E+00
  0.00000000E+00  0.00000000E+00  0.00000000E+00
  0.00000000E+00  0.00000000E+00  0.00000000E+00
  0.00000000E+00  0.00000000E+00  0.00000000E+00
  0.00000000E+00  0.00000000E+00  0.00000000E+00
  0.00000000E+00  0.00000000E+00  0.00000000E+00
  0.00000000E+00  0.00000000E+00  0.00000000E+00
  0.00000000E+00  0.00000000E+00  0.00000000E+00
  0.00000000E+00  0.00000000E+00  0.00000000E+00
  0.00000000E+00  0.00000000E+00  0.00000000E+00
  0.00000000E+00  0.00000000E+00  0.00000000E+00
  0.00000000E+00  0.00000000E+00  0.00000000E+00
  0.00000000E+00  0.00000000E+00  0.00000000E+00
  0.00000000E+00  0.00000000E+00  0.00000000E+00
  0.00000000E+00  0.00000000E+00  0.00000000E+00
  0.00000000E+00  0.00000000E+00  0.00000000E+00
  0.00000000E+00  0.00000000E+00  0.00000000E+00
  0.00000000E+00  0.00000000E+00  0.00000000E+00
  0.00000000E+00  0.00000000E+00  0.00000000E+00
  0.00000000E+00  0.00000000E+00  0.00000000E+00
  0.00000000E+00  0.00000000E+00  0.00000000E+00
  0.00000000E+00  0.00000000E+00  0.00000000E+00
  0.00000000E+00  0.00000000E+00  0.00000000E+00
  0.00000000E+00  0.00000000E+00  0.00000000E+00
  0.00000000E+00  0.00000000E+00  0.00000000E+00
  0.00000000E+00  0.00000000E+00  0.00000000E+00
