  Built with Packmol                    
    1.000000000000000     
    11.1820801413497062    0.0892127496326490    0.1838189048956970
     0.0899812624178821   11.2277682222659614    0.1984837595579478
     0.1752056291405618    0.1916185335908130   11.3384116511302455
   Fe   Ge
    48    48
Direct
  0.1309930419545395  0.6290531082778514  0.4128453119620232
  0.9221255230206467  0.1477444803272263  0.6111209093204764
  0.9124004177529841  0.9111392000962510  0.6551933832368491
  0.4272647740473445  0.3843268612199964  0.7407122608226260
  0.5118971244818908  0.0483697646982222  0.1014342556869607
  0.1487707011422259  0.0919531724250291  0.7185653273800696
  0.0408241613382714  0.3027514068951405  0.2276533842113651
  0.7326497908409877  0.5456184528708903  0.0618710710198442
  0.7561249205551448  0.7962616594515666  0.5520398494534078
  0.6966706232265452  0.9541163174004197  0.2279150504035172
  0.4673510535950811  0.0407727973224326  0.8800011518290560
  0.6821333154196552  0.0000525568652918  0.8317547822997753
  0.9852154259603196  0.7877036511097657  0.4970477351542755
  0.9908748432436383  0.2709410487462449  0.7713178829071197
  0.7350909539533390  0.7789697270541822  0.9981086968068098
  0.7315178459265042  0.2306942638240557  0.5144064583334824
  0.7243875364473524  0.5370084827769617  0.7123171402632309
  0.5235391190972223  0.5742929474781349  0.3874312627135197
  0.7301650352141067  0.5454629946769458  0.3004641223042839
  0.1876069126518445  0.8899199508970526  0.5803752113893736
  0.5735671277889978  0.1540820246569226  0.3138342153822080
  0.0323767336706027  0.7668940884668345  0.2746631125317975
  0.3347922620556503  0.6946198098301721  0.4998020255744535
  0.8519884214083859  0.3844062059307944  0.4040520871552715
  0.3843765533822818  0.9134929989914085  0.4682899510948033
  0.7013895831219301  0.1593046655587003  0.1294030281493548
  0.6277366355897414  0.1801865548848056  0.9356270592826021
  0.9898300851584878  0.3207380413591139  0.0120763114164788
  0.3265866016676782  0.5230206343606980  0.1302426823493832
  0.5788243925175180  0.9099692964788701  0.6514583544390220
  0.9662737413478837  0.5351894744777184  0.0104676964597559
  0.9209899386675815  0.8997105144039566  0.1348062635455918
  0.8445529314219797  0.4027671955764660  0.8505264882461816
  0.4393205229920412  0.2524954379893458  0.9264381079241133
  0.2961835564046211  0.0027444622131156  0.2284796423391029
  0.6147691669558242  0.4009185948877132  0.8610387575081475
  0.4569251168870068  0.5942550231776949  0.7620416250725270
  0.3798817614364154  0.0075873126348114  0.6777195964470621
  0.5530592793324516  0.1564525838972770  0.7171381890491162
  0.8343542795779939  0.6239785197803300  0.8650234017142822
  0.8559153534395918  0.1671768954048432  0.9491074345183890
  0.8830814508551939  0.6655655833197116  0.1645912134454974
  0.1705310527691992  0.7974256622618938  0.9586746180933332
  0.3437505399128327  0.9157269048258527  0.0413630777817104
  0.4392169216101749  0.3720325952160692  0.2916435689047532
  0.0587090544659290  0.6519704564431379  0.8207015542100251
  0.7620087688022821  0.2173395969224714  0.7635654749943583
  0.9676107890445280  0.2018451790628291  0.4087893867969541
  0.0837704099085954  0.8619906615856507  0.7668238501286311
  0.0258783760747221  0.0029345371799891  0.4891756600987947
  0.7402904503368291  0.0389465678579484  0.6177069843842418
  0.2585057749990725  0.0893188113722303  0.5303881705320563
  0.4959923295392272  0.9461364228380020  0.2893024664380732
  0.6163125564130070  0.3562901149733619  0.6468707719619076
  0.9069613295403585  0.6686102359491528  0.6681293106444315
  0.8797522467291401  0.4390308515651071  0.1880115053156786
  0.1630221367086619  0.4215425717678301  0.0544803923296087
  0.8613163869227947  0.3761464566273247  0.6224660379533589
  0.0641038482673579  0.4495423633309343  0.8254662828628199
  0.9307060184002722  0.0492695380553769  0.8034284212328515
  0.8503310427712520  0.8749904105643509  0.3497262888229287
  0.4035122977216332  0.4604889155038094  0.9425116181964981
  0.9547893517923072  0.7591549190933691  0.9766162480657314
  0.3638480094269170  0.1706921313406013  0.3405871828443239
  0.3068170745116774  0.1298703578542941  0.0424321977874484
  0.6157611850976679  0.6215432220273911  0.9022519240833589
  0.3308777763301904  0.2003415944516931  0.7539790425164696
  0.7436426832094511  0.3388003931276984  0.0310099470226888
  0.6788917746461678  0.7383562253021907  0.2076793560905159
  0.1449445506757101  0.6752097066521046  0.6180568974168921
  0.5494567720590737  0.7762433041453036  0.4721314597466488
  0.1067937734613409  0.1642046133325508  0.9191629754112967
  0.0700609764448927  0.4188547734194259  0.4166366958520342
  0.5272514191495148  0.0898149945639801  0.5181142161362970
  0.5109910018283941  0.2659803496787561  0.1279844293708834
  0.9340426975076497  0.1332622410531030  0.1425490512864016
  0.4202602369887884  0.4980881739149652  0.5640610164631852
  0.6914955360181949  0.5878408297166899  0.5084334285533600
  0.5447353918907893  0.5177460855713818  0.1669790726536888
  0.2658845140418507  0.6461645656979300  0.8441231859272449
  0.1355673621173210  0.9069711209097804  0.1368558520720100
  0.3934384853249711  0.7965992918589109  0.6769321662182293
  0.5450165310546851  0.8659409277134600  0.9856201955747821
  0.9098550712401376  0.6204030953143445  0.3845053431006278
  0.3224364494935941  0.5732337774722751  0.3287040462719872
  0.6278069570075644  0.3640277922944790  0.3784242648177241
  0.2373883882508778  0.3607253208180552  0.2604264480687419
  0.2709629083197100  0.9512054738980211  0.8472201444031953
  0.7403162737367950  0.8042730803928819  0.7739987192961877
  0.3460484288552195  0.7133301916018979  0.0651027850652497
  0.2072445444563158  0.8389650849880113  0.3729688037008074
  0.1299520867126560  0.1189613592533689  0.2786247360391059
  0.7573936249501259  0.9886310672675904  0.0245759236911809
  0.7816717249594873  0.1274325851572229  0.3316610654801693
  0.1066993682146631  0.2690025036296433  0.5884792131228878
  0.1212478008507389  0.6390068532354007  0.1310474558911352
 
  0.00000000E+00  0.00000000E+00  0.00000000E+00
  0.00000000E+00  0.00000000E+00  0.00000000E+00
  0.00000000E+00  0.00000000E+00  0.00000000E+00
  0.00000000E+00  0.00000000E+00  0.00000000E+00
  0.00000000E+00  0.00000000E+00  0.00000000E+00
  0.00000000E+00  0.00000000E+00  0.00000000E+00
  0.00000000E+00  0.00000000E+00  0.00000000E+00
  0.00000000E+00  0.00000000E+00  0.00000000E+00
  0.00000000E+00  0.00000000E+00  0.00000000E+00
  0.00000000E+00  0.00000000E+00  0.00000000E+00
  0.00000000E+00  0.00000000E+00  0.00000000E+00
  0.00000000E+00  0.00000000E+00  0.00000000E+00
  0.00000000E+00  0.00000000E+00  0.00000000E+00
  0.00000000E+00  0.00000000E+00  0.00000000E+00
  0.00000000E+00  0.00000000E+00  0.00000000E+00
  0.00000000E+00  0.00000000E+00  0.00000000E+00
  0.00000000E+00  0.00000000E+00  0.00000000E+00
  0.00000000E+00  0.00000000E+00  0.00000000E+00
  0.00000000E+00  0.00000000E+00  0.00000000E+00
  0.00000000E+00  0.00000000E+00  0.00000000E+00
  0.00000000E+00  0.00000000E+00  0.00000000E+00
  0.00000000E+00  0.00000000E+00  0.00000000E+00
  0.00000000E+00  0.00000000E+00  0.00000000E+00
  0.00000000E+00  0.00000000E+00  0.00000000E+00
  0.00000000E+00  0.00000000E+00  0.00000000E+00
  0.00000000E+00  0.00000000E+00  0.00000000E+00
  0.00000000E+00  0.00000000E+00  0.00000000E+00
  0.00000000E+00  0.00000000E+00  0.00000000E+00
  0.00000000E+00  0.00000000E+00  0.00000000E+00
  0.00000000E+00  0.00000000E+00  0.00000000E+00
  0.00000000E+00  0.00000000E+00  0.00000000E+00
  0.00000000E+00  0.00000000E+00  0.00000000E+00
  0.00000000E+00  0.00000000E+00  0.00000000E+00
  0.00000000E+00  0.00000000E+00  0.00000000E+00
  0.00000000E+00  0.00000000E+00  0.00000000E+00
  0.00000000E+00  0.00000000E+00  0.00000000E+00
  0.00000000E+00  0.00000000E+00  0.00000000E+00
  0.00000000E+00  0.00000000E+00  0.00000000E+00
  0.00000000E+00  0.00000000E+00  0.00000000E+00
  0.00000000E+00  0.00000000E+00  0.00000000E+00
  0.00000000E+00  0.00000000E+00  0.00000000E+00
  0.00000000E+00  0.00000000E+00  0.00000000E+00
  0.00000000E+00  0.00000000E+00  0.00000000E+00
  0.00000000E+00  0.00000000E+00  0.00000000E+00
  0.00000000E+00  0.00000000E+00  0.00000000E+00
  0.00000000E+00  0.00000000E+00  0.00000000E+00
  0.00000000E+00  0.00000000E+00  0.00000000E+00
  0.00000000E+00  0.00000000E+00  0.00000000E+00
  0.00000000E+00  0.00000000E+00  0.00000000E+00
  0.00000000E+00  0.00000000E+00  0.00000000E+00
  0.00000000E+00  0.00000000E+00  0.00000000E+00
  0.00000000E+00  0.00000000E+00  0.00000000E+00
  0.00000000E+00  0.00000000E+00  0.00000000E+00
  0.00000000E+00  0.00000000E+00  0.00000000E+00
  0.00000000E+00  0.00000000E+00  0.00000000E+00
  0.00000000E+00  0.00000000E+00  0.00000000E+00
  0.00000000E+00  0.00000000E+00  0.00000000E+00
  0.00000000E+00  0.00000000E+00  0.00000000E+00
  0.00000000E+00  0.00000000E+00  0.00000000E+00
  0.00000000E+00  0.00000000E+00  0.00000000E+00
  0.00000000E+00  0.00000000E+00  0.00000000E+00
  0.00000000E+00  0.00000000E+00  0.00000000E+00
  0.00000000E+00  0.00000000E+00  0.00000000E+00
  0.00000000E+00  0.00000000E+00  0.00000000E+00
  0.00000000E+00  0.00000000E+00  0.00000000E+00
  0.00000000E+00  0.00000000E+00  0.00000000E+00
  0.00000000E+00  0.00000000E+00  0.00000000E+00
  0.00000000E+00  0.00000000E+00  0.00000000E+00
  0.00000000E+00  0.00000000E+00  0.00000000E+00
  0.00000000E+00  0.00000000E+00  0.00000000E+00
  0.00000000E+00  0.00000000E+00  0.00000000E+00
  0.00000000E+00  0.00000000E+00  0.00000000E+00
  0.00000000E+00  0.00000000E+00  0.00000000E+00
  0.00000000E+00  0.00000000E+00  0.00000000E+00
  0.00000000E+00  0.00000000E+00  0.00000000E+00
  0.00000000E+00  0.00000000E+00  0.00000000E+00
  0.00000000E+00  0.00000000E+00  0.00000000E+00
  0.00000000E+00  0.00000000E+00  0.00000000E+00
  0.00000000E+00  0.00000000E+00  0.00000000E+00
  0.00000000E+00  0.00000000E+00  0.00000000E+00
  0.00000000E+00  0.00000000E+00  0.00000000E+00
  0.00000000E+00  0.00000000E+00  0.00000000E+00
  0.00000000E+00  0.00000000E+00  0.00000000E+00
  0.00000000E+00  0.00000000E+00  0.00000000E+00
  0.00000000E+00  0.00000000E+00  0.00000000E+00
  0.00000000E+00  0.00000000E+00  0.00000000E+00
  0.00000000E+00  0.00000000E+00  0.00000000E+00
  0.00000000E+00  0.00000000E+00  0.00000000E+00
  0.00000000E+00  0.00000000E+00  0.00000000E+00
  0.00000000E+00  0.00000000E+00  0.00000000E+00
  0.00000000E+00  0.00000000E+00  0.00000000E+00
  0.00000000E+00  0.00000000E+00  0.00000000E+00
  0.00000000E+00  0.00000000E+00  0.00000000E+00
  0.00000000E+00  0.00000000E+00  0.00000000E+00
  0.00000000E+00  0.00000000E+00  0.00000000E+00
  0.00000000E+00  0.00000000E+00  0.00000000E+00
