  Built with Packmol                    
   1.00000000000000     
    11.1873695913534519    0.0819919900835755    0.2656982941434890
     0.0780995146808458   11.2291196836385261    0.2015393423222668
     0.2611949855294978    0.1900727508920590   11.3092103426476314
   Fe   Ge
    48    48
Direct
  0.1465838723209174  0.6229605969400822  0.4038501511321968
  0.9180475482501009  0.1487869103044730  0.6120863270474644
  0.9143118989258525  0.9071089830317050  0.6540491173240497
  0.4297064251920659  0.3857465474247945  0.7406580469132891
  0.5151348318025910  0.0562443193264244  0.0987469545592390
  0.1432322239178205  0.0897723391640852  0.7220925226703372
  0.0459078685961742  0.3036114216126222  0.2363334728866420
  0.7315579557689063  0.5451165631053598  0.0555605362411740
  0.7591852204198943  0.8074185709084887  0.5511315261597218
  0.6998002811517736  0.9487724444166261  0.2323431015038864
  0.4614340565431334  0.0407863071603458  0.8749039694811316
  0.6837493850409544  0.9972950137327103  0.8277294428544550
  0.9902571409790539  0.7871980946883639  0.4870537319411739
  0.9780770086304003  0.2693179089875386  0.7800274054528131
  0.7303130393010733  0.7668534892020844  0.0083957768957106
  0.7263077196642769  0.2265364780765609  0.5184520637186765
  0.7246459248256301  0.5424011964196254  0.7054356733506069
  0.5401796166310930  0.5847988870764027  0.3769240067073909
  0.7419938918682689  0.5429329729690409  0.2990528334092417
  0.1894223084779085  0.8903205966778032  0.5781608014197772
  0.5802423062110620  0.1680408199175574  0.3226817638544475
  0.0325640981344435  0.7691825269114503  0.2752300609973375
  0.3415867190098325  0.6981890244644902  0.4948951968406092
  0.8613200979855122  0.3815657029083184  0.4080061553900407
  0.3864779731749337  0.9141465480894411  0.4692079380774459
  0.7063329441077570  0.1480500147876853  0.1448020875360214
  0.6307274391523023  0.1615800657128332  0.9418380284889452
  0.9829996742612082  0.3302569080237205  0.0063973784209850
  0.3232724981807920  0.5228135996230634  0.1287058264158247
  0.5682270827713936  0.9106886506969190  0.6528208288046216
  0.9613824487690223  0.5444748118117531  0.0106417463192088
  0.9266954815353472  0.9109676203560682  0.1355647544035605
  0.8329857296942862  0.4253096870372843  0.8549099982912196
  0.4389294525554917  0.2500222656529587  0.9261788125567136
  0.2995766044002366  0.0047412320502787  0.2268011444261617
  0.6059320772636241  0.3799235716404255  0.8629708167106855
  0.4515214775649881  0.5989448145758161  0.7619299475462924
  0.3767779045960040  0.0093201017196378  0.6783646357496451
  0.5540991747440458  0.1642648776379048  0.7252368215869893
  0.8370680417545913  0.6339621042885497  0.8649254340218135
  0.8590629022852596  0.1547827960022659  0.9548374744822610
  0.8740836643831500  0.6703812550677668  0.1685833970372101
  0.1640369038558305  0.7938769046151961  0.9542522887572176
  0.3476261559540532  0.9143876827470123  0.0409195813322469
  0.4463650291644825  0.3730514498568667  0.2899816640738351
  0.0497236699469426  0.6522920382760660  0.8151635921420635
  0.7552351367289063  0.2260659729876053  0.7684587681622332
  0.9699481535913463  0.1988247731906156  0.4150877894439802
  0.0853612903735197  0.8614952025424785  0.7651498350388692
  0.0269943493908684  0.0015789460208566  0.4912083594938395
  0.7390429316967442  0.0314668273199956  0.6143378090852565
  0.2546826661729042  0.0908060016868220  0.5288230541658763
  0.4960283918939581  0.9511415275337356  0.2874105316486180
  0.6207305208176592  0.3639205697706913  0.6422027835738859
  0.9040548882190649  0.6696905632956813  0.6609411529363101
  0.8802060547898449  0.4303453742789571  0.1848856916863895
  0.1539982823623660  0.4202172177541215  0.0649381896478261
  0.8614406756795461  0.3793610433856003  0.6270967385450703
  0.0563601989831000  0.4489933364995338  0.8267970717905300
  0.9217025614611458  0.0453989651958935  0.8010941164422860
  0.8487371755619293  0.8619360105154499  0.3462769846042590
  0.3917882925486325  0.4584352607129389  0.9405132195538926
  0.9522826304441878  0.7660897572366139  0.9796291923220508
  0.3675463271617687  0.1722876083424723  0.3397212049788294
  0.3041393910572623  0.1280904060075514  0.0437021556726407
  0.6170781926977540  0.6099890198339395  0.8929895612279921
  0.3276905332386804  0.2041291316194958  0.7516451518020801
  0.7485221201229777  0.3291017530832221  0.0284152712724008
  0.6598477950067476  0.7281852384991296  0.2195623886989466
  0.1440812154318181  0.6746562260745179  0.6086011702364260
  0.5574076218768695  0.7840019926021071  0.4670156937060881
  0.0956491823849817  0.1619442462534195  0.9240650838132467
  0.0749584747852765  0.4159070257234774  0.4254089219617541
  0.5258453344826250  0.0879520887262473  0.5208948110942728
  0.5144709242369032  0.2698535046723123  0.1233295917912756
  0.9421168863052500  0.1415325149364790  0.1453822922209724
  0.4324427294488089  0.5071564992727957  0.5604788605672297
  0.7049437836069430  0.5961000842855100  0.5035285619362426
  0.5423697091646247  0.5171761944763560  0.1587890262418554
  0.2561825193469645  0.6434791503444117  0.8386295049395684
  0.1420577330765695  0.9041143147679449  0.1367668306076766
  0.3847871450702343  0.7957205771814913  0.6761258141363200
  0.5455092189928763  0.8654564928928679  0.9812655564119694
  0.9269747319156139  0.6095304190816080  0.3829056921171201
  0.3406283602917242  0.5802643358703534  0.3225548184431801
  0.6352786715919692  0.3688660309277410  0.3781462012823269
  0.2420826627420212  0.3658688170883337  0.2672088436111650
  0.2632452293009067  0.9542160266851170  0.8538974680221258
  0.7285708314316537  0.7969714253373184  0.7706649823044458
  0.3389402759908506  0.7118426989621653  0.0533251402948451
  0.2096013256819589  0.8390435142218280  0.3692903946191990
  0.1332526200912554  0.1189093005478199  0.2821585686124166
  0.7560186253145531  0.9804705466498902  0.0219108295209693
  0.7880997792625877  0.1171425195486933  0.3411262954444894
  0.1032385587320235  0.2700591909114891  0.6008180939531158
  0.1186131967895960  0.6401826622948406  0.1325525172520656
 
  0.00000000E+00  0.00000000E+00  0.00000000E+00
  0.00000000E+00  0.00000000E+00  0.00000000E+00
  0.00000000E+00  0.00000000E+00  0.00000000E+00
  0.00000000E+00  0.00000000E+00  0.00000000E+00
  0.00000000E+00  0.00000000E+00  0.00000000E+00
  0.00000000E+00  0.00000000E+00  0.00000000E+00
  0.00000000E+00  0.00000000E+00  0.00000000E+00
  0.00000000E+00  0.00000000E+00  0.00000000E+00
  0.00000000E+00  0.00000000E+00  0.00000000E+00
  0.00000000E+00  0.00000000E+00  0.00000000E+00
  0.00000000E+00  0.00000000E+00  0.00000000E+00
  0.00000000E+00  0.00000000E+00  0.00000000E+00
  0.00000000E+00  0.00000000E+00  0.00000000E+00
  0.00000000E+00  0.00000000E+00  0.00000000E+00
  0.00000000E+00  0.00000000E+00  0.00000000E+00
  0.00000000E+00  0.00000000E+00  0.00000000E+00
  0.00000000E+00  0.00000000E+00  0.00000000E+00
  0.00000000E+00  0.00000000E+00  0.00000000E+00
  0.00000000E+00  0.00000000E+00  0.00000000E+00
  0.00000000E+00  0.00000000E+00  0.00000000E+00
  0.00000000E+00  0.00000000E+00  0.00000000E+00
  0.00000000E+00  0.00000000E+00  0.00000000E+00
  0.00000000E+00  0.00000000E+00  0.00000000E+00
  0.00000000E+00  0.00000000E+00  0.00000000E+00
  0.00000000E+00  0.00000000E+00  0.00000000E+00
  0.00000000E+00  0.00000000E+00  0.00000000E+00
  0.00000000E+00  0.00000000E+00  0.00000000E+00
  0.00000000E+00  0.00000000E+00  0.00000000E+00
  0.00000000E+00  0.00000000E+00  0.00000000E+00
  0.00000000E+00  0.00000000E+00  0.00000000E+00
  0.00000000E+00  0.00000000E+00  0.00000000E+00
  0.00000000E+00  0.00000000E+00  0.00000000E+00
  0.00000000E+00  0.00000000E+00  0.00000000E+00
  0.00000000E+00  0.00000000E+00  0.00000000E+00
  0.00000000E+00  0.00000000E+00  0.00000000E+00
  0.00000000E+00  0.00000000E+00  0.00000000E+00
  0.00000000E+00  0.00000000E+00  0.00000000E+00
  0.00000000E+00  0.00000000E+00  0.00000000E+00
  0.00000000E+00  0.00000000E+00  0.00000000E+00
  0.00000000E+00  0.00000000E+00  0.00000000E+00
  0.00000000E+00  0.00000000E+00  0.00000000E+00
  0.00000000E+00  0.00000000E+00  0.00000000E+00
  0.00000000E+00  0.00000000E+00  0.00000000E+00
  0.00000000E+00  0.00000000E+00  0.00000000E+00
  0.00000000E+00  0.00000000E+00  0.00000000E+00
  0.00000000E+00  0.00000000E+00  0.00000000E+00
  0.00000000E+00  0.00000000E+00  0.00000000E+00
  0.00000000E+00  0.00000000E+00  0.00000000E+00
  0.00000000E+00  0.00000000E+00  0.00000000E+00
  0.00000000E+00  0.00000000E+00  0.00000000E+00
  0.00000000E+00  0.00000000E+00  0.00000000E+00
  0.00000000E+00  0.00000000E+00  0.00000000E+00
  0.00000000E+00  0.00000000E+00  0.00000000E+00
  0.00000000E+00  0.00000000E+00  0.00000000E+00
  0.00000000E+00  0.00000000E+00  0.00000000E+00
  0.00000000E+00  0.00000000E+00  0.00000000E+00
  0.00000000E+00  0.00000000E+00  0.00000000E+00
  0.00000000E+00  0.00000000E+00  0.00000000E+00
  0.00000000E+00  0.00000000E+00  0.00000000E+00
  0.00000000E+00  0.00000000E+00  0.00000000E+00
  0.00000000E+00  0.00000000E+00  0.00000000E+00
  0.00000000E+00  0.00000000E+00  0.00000000E+00
  0.00000000E+00  0.00000000E+00  0.00000000E+00
  0.00000000E+00  0.00000000E+00  0.00000000E+00
  0.00000000E+00  0.00000000E+00  0.00000000E+00
  0.00000000E+00  0.00000000E+00  0.00000000E+00
  0.00000000E+00  0.00000000E+00  0.00000000E+00
  0.00000000E+00  0.00000000E+00  0.00000000E+00
  0.00000000E+00  0.00000000E+00  0.00000000E+00
  0.00000000E+00  0.00000000E+00  0.00000000E+00
  0.00000000E+00  0.00000000E+00  0.00000000E+00
  0.00000000E+00  0.00000000E+00  0.00000000E+00
  0.00000000E+00  0.00000000E+00  0.00000000E+00
  0.00000000E+00  0.00000000E+00  0.00000000E+00
  0.00000000E+00  0.00000000E+00  0.00000000E+00
  0.00000000E+00  0.00000000E+00  0.00000000E+00
  0.00000000E+00  0.00000000E+00  0.00000000E+00
  0.00000000E+00  0.00000000E+00  0.00000000E+00
  0.00000000E+00  0.00000000E+00  0.00000000E+00
  0.00000000E+00  0.00000000E+00  0.00000000E+00
  0.00000000E+00  0.00000000E+00  0.00000000E+00
  0.00000000E+00  0.00000000E+00  0.00000000E+00
  0.00000000E+00  0.00000000E+00  0.00000000E+00
  0.00000000E+00  0.00000000E+00  0.00000000E+00
  0.00000000E+00  0.00000000E+00  0.00000000E+00
  0.00000000E+00  0.00000000E+00  0.00000000E+00
  0.00000000E+00  0.00000000E+00  0.00000000E+00
  0.00000000E+00  0.00000000E+00  0.00000000E+00
  0.00000000E+00  0.00000000E+00  0.00000000E+00
  0.00000000E+00  0.00000000E+00  0.00000000E+00
  0.00000000E+00  0.00000000E+00  0.00000000E+00
  0.00000000E+00  0.00000000E+00  0.00000000E+00
  0.00000000E+00  0.00000000E+00  0.00000000E+00
  0.00000000E+00  0.00000000E+00  0.00000000E+00
  0.00000000E+00  0.00000000E+00  0.00000000E+00
  0.00000000E+00  0.00000000E+00  0.00000000E+00
