  Built with Packmol                    
   1.00000000000000     
    11.1217631928560863    0.1812275822762684    0.3196598301330894
     0.1778214462348132   11.0879915556722413    0.1055441184651676
     0.3235569317221084    0.1102466987148489   11.4034262763870338
   Fe   Ge
    48    48
Direct
  0.1326940698889203  0.6384092911761599  0.4003407703790245
  0.9107705426408970  0.1404182634495683  0.6265458132578416
  0.9143764448298199  0.9056827787780790  0.6685415532448502
  0.4027864177860394  0.4160038905135153  0.7509366806059106
  0.5171021202675021  0.0423517868931924  0.0839717808367979
  0.1502785134990248  0.0965855701962681  0.7295360603052288
  0.0346247314338015  0.2981651628276936  0.2428252518755230
  0.7276294243106562  0.5404195111025203  0.0727414197184686
  0.7620314246783195  0.7954300893379056  0.5476989643853898
  0.6938534989658223  0.9128353791275217  0.1889449433020047
  0.4881099692129354  0.0199663376335479  0.8691720041376385
  0.7243761012499164  0.0391549277181937  0.7751560476787631
  0.9967733954137117  0.7847113835321906  0.4999402780595261
  0.9742092745791950  0.2760147366809775  0.7811009245958758
  0.7350318717141704  0.7578875489404524  0.0141205931322972
  0.7203342591052220  0.2223481236230356  0.5365204377596058
  0.7339959209731362  0.5288836569745783  0.7143496484945757
  0.5294949583060031  0.5865301729891641  0.3957646389291156
  0.7339737045476653  0.5344975188878962  0.3163793074550227
  0.2064982676421110  0.8937919375276806  0.5770890727151681
  0.5803238519992604  0.1421800912033930  0.3206829433996816
  0.0260571998540797  0.7950205067167033  0.2787506722440654
  0.3454032561273053  0.7026017123114130  0.4942407703766349
  0.8554427482613320  0.3745041130303051  0.4036284364155875
  0.4017517122025112  0.9413388167917418  0.4592952879149479
  0.7150267829472554  0.1281716835710114  0.1392868310149709
  0.6339096739670893  0.1665922237461359  0.9265308849281482
  0.9901220417701211  0.3302763961998565  0.0118693673851098
  0.3202957074092581  0.5168441381571185  0.1418724860849210
  0.5839919843772634  0.9138306579414603  0.6600066729420107
  0.9679176936572702  0.5535137254756819  0.0212311798155369
  0.9020279486521900  0.9342171752687349  0.1109978583904407
  0.8207333910167307  0.4203246895248469  0.8884881007495338
  0.4380249409797514  0.2365948511565179  0.9381508261028983
  0.2907367540556365  0.9922152360317327  0.2260519937089853
  0.5958130736414518  0.3842319624845132  0.8711902005633618
  0.4892314811313270  0.5989159024170476  0.6589772993409255
  0.3875578717177888  0.0225405936364425  0.6783731740029637
  0.5438261819588064  0.1778453070935910  0.7303422405100548
  0.8469338787733491  0.6357666789051137  0.8686321397112593
  0.8497181821088233  0.1729938143820959  0.9533690700507123
  0.8680683652354588  0.6877404544096564  0.1747459863965020
  0.1856832606146170  0.7776287908108941  0.9373502916087730
  0.3369329319372554  0.9066353599136150  0.0339675129513282
  0.4334576057179760  0.3677733271122250  0.3157070511277453
  0.0705561393706731  0.6614028715010178  0.8101055968410975
  0.7570608226621047  0.2578348098565613  0.7684051744623659
  0.9751861944760449  0.1967291428778353  0.4316518262472755
  0.0993855377875690  0.8682160285765832  0.7587032829804770
  0.0313976080558263  0.9976082268080830  0.4975642916592378
  0.7610876254068586  0.0088100810538805  0.5553944415491756
  0.2552739555786019  0.0988793002570532  0.5388204005552382
  0.4965368464391560  0.9371065627354866  0.2691461628160710
  0.5993696253781877  0.3762258416671287  0.6525434287158802
  0.9059078839306522  0.6669774718485186  0.6649084170293875
  0.8847404417512266  0.4438973333973166  0.1903338829785639
  0.1527928123204347  0.4225588262485189  0.0735587197084584
  0.8642682254461249  0.3770772673559222  0.6178530883163802
  0.0339465178424589  0.4610707043483089  0.8298163899799960
  0.9453992401436366  0.0484601746309750  0.8150721232757050
  0.8257910307613159  0.8720495087306048  0.3418258315634191
  0.3982320384217957  0.4427563710096791  0.9622800196864105
  0.9636475293514266  0.7728960268808223  0.9783334575308587
  0.3642823642861472  0.1576420516361878  0.3463324716708982
  0.3019972527600530  0.1206947478940847  0.0504514808956600
  0.6243298282586949  0.6016514611200350  0.8920438169194327
  0.3249006438399817  0.2196990661341545  0.7605596473110481
  0.7222755742601521  0.3266890324659215  0.0531002872132689
  0.6449345288154902  0.7081817716701195  0.2262978864638754
  0.1561981541656436  0.6742859107227019  0.6070952693931062
  0.5563990297562427  0.7865901254464731  0.4777115217518713
  0.1141451400116793  0.1818636810660550  0.9196688958031345
  0.0629832483707773  0.4260449066763883  0.4277476655042634
  0.5365931482644868  0.0958586264615846  0.5322128199556388
  0.5090038595342747  0.2496682200230396  0.1423154153800255
  0.9457619077972694  0.1454690812964685  0.1327680715395658
  0.3942252144293334  0.4454660936715129  0.5274526021281787
  0.6958598957211279  0.5873583276176646  0.5215188392460348
  0.5371035635757408  0.5017954133676312  0.1770399429603913
  0.2853916534976690  0.6023028962284016  0.8094359131397226
  0.1265705739660845  0.9043277492602044  0.1186439292653887
  0.3898525343145351  0.8067327074584512  0.6723377918043170
  0.5352902285414487  0.8365139216783817  0.9869613026132242
  0.9066714623436312  0.6326961519346028  0.3846945332695100
  0.3344483204913828  0.5936911032762211  0.3227087531450792
  0.6259304250008100  0.3570231717386818  0.3942468742003555
  0.2313045551304072  0.3643811770831249  0.2764975819713484
  0.2745756834112427  0.9638749267264259  0.8496545511196203
  0.7381174545646658  0.8164738829470863  0.7808374391682165
  0.3467159771148474  0.6948343513372635  0.0437195214135144
  0.2185460339539631  0.8456652459176652  0.3735223252050659
  0.1300422183303951  0.1161262623898196  0.2902782577186400
  0.7353032119874925  0.9777456259664277  0.9805423563096980
  0.7973542896051597  0.1607614124695900  0.3294598179482904
  0.0967744778017590  0.2730269625911959  0.6032976314342235
  0.1178557169274441  0.6490867310872517  0.1436762045044020
 
  0.00000000E+00  0.00000000E+00  0.00000000E+00
  0.00000000E+00  0.00000000E+00  0.00000000E+00
  0.00000000E+00  0.00000000E+00  0.00000000E+00
  0.00000000E+00  0.00000000E+00  0.00000000E+00
  0.00000000E+00  0.00000000E+00  0.00000000E+00
  0.00000000E+00  0.00000000E+00  0.00000000E+00
  0.00000000E+00  0.00000000E+00  0.00000000E+00
  0.00000000E+00  0.00000000E+00  0.00000000E+00
  0.00000000E+00  0.00000000E+00  0.00000000E+00
  0.00000000E+00  0.00000000E+00  0.00000000E+00
  0.00000000E+00  0.00000000E+00  0.00000000E+00
  0.00000000E+00  0.00000000E+00  0.00000000E+00
  0.00000000E+00  0.00000000E+00  0.00000000E+00
  0.00000000E+00  0.00000000E+00  0.00000000E+00
  0.00000000E+00  0.00000000E+00  0.00000000E+00
  0.00000000E+00  0.00000000E+00  0.00000000E+00
  0.00000000E+00  0.00000000E+00  0.00000000E+00
  0.00000000E+00  0.00000000E+00  0.00000000E+00
  0.00000000E+00  0.00000000E+00  0.00000000E+00
  0.00000000E+00  0.00000000E+00  0.00000000E+00
  0.00000000E+00  0.00000000E+00  0.00000000E+00
  0.00000000E+00  0.00000000E+00  0.00000000E+00
  0.00000000E+00  0.00000000E+00  0.00000000E+00
  0.00000000E+00  0.00000000E+00  0.00000000E+00
  0.00000000E+00  0.00000000E+00  0.00000000E+00
  0.00000000E+00  0.00000000E+00  0.00000000E+00
  0.00000000E+00  0.00000000E+00  0.00000000E+00
  0.00000000E+00  0.00000000E+00  0.00000000E+00
  0.00000000E+00  0.00000000E+00  0.00000000E+00
  0.00000000E+00  0.00000000E+00  0.00000000E+00
  0.00000000E+00  0.00000000E+00  0.00000000E+00
  0.00000000E+00  0.00000000E+00  0.00000000E+00
  0.00000000E+00  0.00000000E+00  0.00000000E+00
  0.00000000E+00  0.00000000E+00  0.00000000E+00
  0.00000000E+00  0.00000000E+00  0.00000000E+00
  0.00000000E+00  0.00000000E+00  0.00000000E+00
  0.00000000E+00  0.00000000E+00  0.00000000E+00
  0.00000000E+00  0.00000000E+00  0.00000000E+00
  0.00000000E+00  0.00000000E+00  0.00000000E+00
  0.00000000E+00  0.00000000E+00  0.00000000E+00
  0.00000000E+00  0.00000000E+00  0.00000000E+00
  0.00000000E+00  0.00000000E+00  0.00000000E+00
  0.00000000E+00  0.00000000E+00  0.00000000E+00
  0.00000000E+00  0.00000000E+00  0.00000000E+00
  0.00000000E+00  0.00000000E+00  0.00000000E+00
  0.00000000E+00  0.00000000E+00  0.00000000E+00
  0.00000000E+00  0.00000000E+00  0.00000000E+00
  0.00000000E+00  0.00000000E+00  0.00000000E+00
  0.00000000E+00  0.00000000E+00  0.00000000E+00
  0.00000000E+00  0.00000000E+00  0.00000000E+00
  0.00000000E+00  0.00000000E+00  0.00000000E+00
  0.00000000E+00  0.00000000E+00  0.00000000E+00
  0.00000000E+00  0.00000000E+00  0.00000000E+00
  0.00000000E+00  0.00000000E+00  0.00000000E+00
  0.00000000E+00  0.00000000E+00  0.00000000E+00
  0.00000000E+00  0.00000000E+00  0.00000000E+00
  0.00000000E+00  0.00000000E+00  0.00000000E+00
  0.00000000E+00  0.00000000E+00  0.00000000E+00
  0.00000000E+00  0.00000000E+00  0.00000000E+00
  0.00000000E+00  0.00000000E+00  0.00000000E+00
  0.00000000E+00  0.00000000E+00  0.00000000E+00
  0.00000000E+00  0.00000000E+00  0.00000000E+00
  0.00000000E+00  0.00000000E+00  0.00000000E+00
  0.00000000E+00  0.00000000E+00  0.00000000E+00
  0.00000000E+00  0.00000000E+00  0.00000000E+00
  0.00000000E+00  0.00000000E+00  0.00000000E+00
  0.00000000E+00  0.00000000E+00  0.00000000E+00
  0.00000000E+00  0.00000000E+00  0.00000000E+00
  0.00000000E+00  0.00000000E+00  0.00000000E+00
  0.00000000E+00  0.00000000E+00  0.00000000E+00
  0.00000000E+00  0.00000000E+00  0.00000000E+00
  0.00000000E+00  0.00000000E+00  0.00000000E+00
  0.00000000E+00  0.00000000E+00  0.00000000E+00
  0.00000000E+00  0.00000000E+00  0.00000000E+00
  0.00000000E+00  0.00000000E+00  0.00000000E+00
  0.00000000E+00  0.00000000E+00  0.00000000E+00
  0.00000000E+00  0.00000000E+00  0.00000000E+00
  0.00000000E+00  0.00000000E+00  0.00000000E+00
  0.00000000E+00  0.00000000E+00  0.00000000E+00
  0.00000000E+00  0.00000000E+00  0.00000000E+00
  0.00000000E+00  0.00000000E+00  0.00000000E+00
  0.00000000E+00  0.00000000E+00  0.00000000E+00
  0.00000000E+00  0.00000000E+00  0.00000000E+00
  0.00000000E+00  0.00000000E+00  0.00000000E+00
  0.00000000E+00  0.00000000E+00  0.00000000E+00
  0.00000000E+00  0.00000000E+00  0.00000000E+00
  0.00000000E+00  0.00000000E+00  0.00000000E+00
  0.00000000E+00  0.00000000E+00  0.00000000E+00
  0.00000000E+00  0.00000000E+00  0.00000000E+00
  0.00000000E+00  0.00000000E+00  0.00000000E+00
  0.00000000E+00  0.00000000E+00  0.00000000E+00
  0.00000000E+00  0.00000000E+00  0.00000000E+00
  0.00000000E+00  0.00000000E+00  0.00000000E+00
  0.00000000E+00  0.00000000E+00  0.00000000E+00
  0.00000000E+00  0.00000000E+00  0.00000000E+00
  0.00000000E+00  0.00000000E+00  0.00000000E+00
