  Built with Packmol                    
   1.00000000000000     
    11.1741092739988623    0.1705058947661298    0.1682971688587746
     0.1735581682081533   11.4128784940598909    0.0810764053589341
     0.1659387272995195    0.0790612346143735   11.2096751294925472
   Fe   Ge
    48    48
Direct
  0.1453871463195782  0.6324291652631047  0.4053665266782431
  0.9197326255626592  0.1471874712796506  0.5990546832770036
  0.9300076963292838  0.9225517469843822  0.6479046390251852
  0.4225963636682764  0.3692787431084525  0.7428205749167063
  0.5120487370068005  0.0504281133913906  0.1057032224438217
  0.1348289446330853  0.0898860055262389  0.7193310608063825
  0.0482311161442865  0.3127232106636058  0.2365906630248702
  0.7328423042719834  0.5452723814827678  0.0568342871141354
  0.7659514726176369  0.8053114735692759  0.5563007338224537
  0.6902749052164836  0.9332263948638655  0.2059907404807788
  0.4622067513259012  0.0332923044844620  0.8768893637991795
  0.6858039900837198  0.0127616068145855  0.8312613917779998
  0.9896998263260741  0.7876485385219141  0.4885272566695207
  0.9733285201631716  0.2715396199445692  0.7720579767484637
  0.7348499232929697  0.7750549195180483  0.0044020973809253
  0.7333407865520982  0.2172722906226738  0.5009082576558157
  0.7057888325509154  0.5313078564750171  0.7083983863471843
  0.5410246369075367  0.5843769984617921  0.3821377257897751
  0.7431143840242243  0.5391246001981926  0.3060062749413248
  0.1875589266970863  0.8890625517572914  0.5768180175565760
  0.5770537634320192  0.1710289669191241  0.3220668535684794
  0.0445803377784557  0.7689416935094684  0.2772023973362465
  0.3528757923664045  0.6971935609874009  0.5042854681136077
  0.8679701678770542  0.3810075443241416  0.4023251090224136
  0.3949708260459275  0.9067767762110748  0.4802429291158319
  0.7025053321375339  0.1499018870427022  0.1413793151396447
  0.6212796727884466  0.1765166094446471  0.9447958247780335
  0.9900243943213027  0.3339274471328650  0.0015300614118559
  0.3248402640648962  0.5270488033216623  0.1299899384222485
  0.5709645142930100  0.9223978282536933  0.6538417169012902
  0.9644010140923527  0.5421610281888718  0.0051548114212991
  0.9172545534950132  0.8765707480225942  0.1336012930786339
  0.8254556412170189  0.4077359354481587  0.8596188140215943
  0.4269219405659186  0.2485206752744986  0.9275435249695221
  0.3013474739157544  0.0058846003821387  0.2364814732111213
  0.6073476927878048  0.3787032358686275  0.8494966678697011
  0.4506362859162110  0.5921930776476287  0.7783747394400251
  0.3699277306996436  0.9988028428633058  0.6827787699028462
  0.5350049076686716  0.1626185193958065  0.7253438556001157
  0.8323948661924376  0.6214464539392921  0.8544642611167390
  0.8496391341157405  0.1767113832737692  0.9495963671848031
  0.8785837079729291  0.6752785924415718  0.1668537312911269
  0.1632010641017629  0.7982271272323089  0.9632349496664787
  0.3448632533750384  0.9171686943221502  0.0448650275673756
  0.4471578702559924  0.3769463547510838  0.2886395353845970
  0.0575161704839218  0.6477523210619367  0.8117746699852262
  0.7487214417654897  0.2136258663498367  0.7578271743575655
  0.9575581498065517  0.1874919606922205  0.3950901863884013
  0.0857988958212061  0.8536577714663665  0.7655129033944164
  0.0304478367374088  0.9987706965488314  0.4743629573452779
  0.7435703642727844  0.0279634015925438  0.6086382958992758
  0.2565320089398426  0.0828124870256488  0.5287036976894797
  0.5002018176491134  0.9555912302120220  0.3003560449169811
  0.6067876412709552  0.3385479531691900  0.6272350348846558
  0.9085023930698810  0.6897069739731023  0.6660167023113317
  0.8904538853917359  0.4463147853339109  0.1824896351283769
  0.1623583182443582  0.4187267655572739  0.0592275476176809
  0.8489550640532855  0.3739340594577456  0.6236584881984299
  0.0465244207718456  0.4498776352485052  0.8183531338192651
  0.9213882855113269  0.0567983492767610  0.7998014531221571
  0.8350260156459512  0.8537926507427116  0.3470235403178705
  0.3965127671847668  0.4596768031552259  0.9409158384338738
  0.9513646098608959  0.7545378802348495  0.9686647736679248
  0.3662209834294501  0.1829983860618327  0.3478579127473864
  0.3012243592755439  0.1262851433068235  0.0480302007035363
  0.6135846416688295  0.6183830526415193  0.8980138083203144
  0.3133951714793142  0.1929983981484042  0.7558385204527767
  0.7284637199843829  0.3385458467521403  0.0387610364403983
  0.6641997956202559  0.7178248282815076  0.2117835357765046
  0.1529581678263838  0.6748342271143173  0.6114477979869832
  0.5666824624393385  0.7837101926447474  0.4747785999254361
  0.0936594810097517  0.1631914761953013  0.9240125665622188
  0.0799419257181739  0.4249154130649160  0.4278617677025380
  0.5192848955400464  0.0867239406258093  0.5208148900760747
  0.5042674851714324  0.2644245325848047  0.1267397780339081
  0.9152334986510269  0.1854600715874639  0.1535900474730099
  0.4780053599956062  0.5265645998405688  0.5846701977883342
  0.7155570913606724  0.5977226490689276  0.5067963666660802
  0.5441222268590593  0.5161683555741874  0.1591748890366418
  0.2603288505767409  0.6451287974116084  0.8470555220221883
  0.1311039574727886  0.9187710918540830  0.1418934604398601
  0.4117254863952908  0.7898258285230284  0.6920635142065237
  0.5486621141033723  0.8708449743964763  0.9966981812926505
  0.9297818803290525  0.6138370225094505  0.3755538573473274
  0.3387916694802584  0.5712093773393647  0.3343749162250944
  0.6398243796494043  0.3682621338216308  0.3710637717270089
  0.2433877044635793  0.3691839975969131  0.2656891525900065
  0.2598499491829287  0.9507297716837471  0.8543202736862128
  0.7277987057182287  0.8097036126282617  0.7753544093952982
  0.3418620263341907  0.7171020501890055  0.0689876444360067
  0.2251880361098486  0.8377323140880293  0.3697189861425514
  0.1362986106695203  0.1284194975136330  0.2758249065238658
  0.7806939643309434  0.9872965823145137  0.0162369263427351
  0.7806377127391002  0.0869146085049479  0.3324835518120324
  0.0988484692523457  0.2670433737787619  0.5911145656750207
  0.1206267166234838  0.6393835054717627  0.1252944740420432
 
  0.00000000E+00  0.00000000E+00  0.00000000E+00
  0.00000000E+00  0.00000000E+00  0.00000000E+00
  0.00000000E+00  0.00000000E+00  0.00000000E+00
  0.00000000E+00  0.00000000E+00  0.00000000E+00
  0.00000000E+00  0.00000000E+00  0.00000000E+00
  0.00000000E+00  0.00000000E+00  0.00000000E+00
  0.00000000E+00  0.00000000E+00  0.00000000E+00
  0.00000000E+00  0.00000000E+00  0.00000000E+00
  0.00000000E+00  0.00000000E+00  0.00000000E+00
  0.00000000E+00  0.00000000E+00  0.00000000E+00
  0.00000000E+00  0.00000000E+00  0.00000000E+00
  0.00000000E+00  0.00000000E+00  0.00000000E+00
  0.00000000E+00  0.00000000E+00  0.00000000E+00
  0.00000000E+00  0.00000000E+00  0.00000000E+00
  0.00000000E+00  0.00000000E+00  0.00000000E+00
  0.00000000E+00  0.00000000E+00  0.00000000E+00
  0.00000000E+00  0.00000000E+00  0.00000000E+00
  0.00000000E+00  0.00000000E+00  0.00000000E+00
  0.00000000E+00  0.00000000E+00  0.00000000E+00
  0.00000000E+00  0.00000000E+00  0.00000000E+00
  0.00000000E+00  0.00000000E+00  0.00000000E+00
  0.00000000E+00  0.00000000E+00  0.00000000E+00
  0.00000000E+00  0.00000000E+00  0.00000000E+00
  0.00000000E+00  0.00000000E+00  0.00000000E+00
  0.00000000E+00  0.00000000E+00  0.00000000E+00
  0.00000000E+00  0.00000000E+00  0.00000000E+00
  0.00000000E+00  0.00000000E+00  0.00000000E+00
  0.00000000E+00  0.00000000E+00  0.00000000E+00
  0.00000000E+00  0.00000000E+00  0.00000000E+00
  0.00000000E+00  0.00000000E+00  0.00000000E+00
  0.00000000E+00  0.00000000E+00  0.00000000E+00
  0.00000000E+00  0.00000000E+00  0.00000000E+00
  0.00000000E+00  0.00000000E+00  0.00000000E+00
  0.00000000E+00  0.00000000E+00  0.00000000E+00
  0.00000000E+00  0.00000000E+00  0.00000000E+00
  0.00000000E+00  0.00000000E+00  0.00000000E+00
  0.00000000E+00  0.00000000E+00  0.00000000E+00
  0.00000000E+00  0.00000000E+00  0.00000000E+00
  0.00000000E+00  0.00000000E+00  0.00000000E+00
  0.00000000E+00  0.00000000E+00  0.00000000E+00
  0.00000000E+00  0.00000000E+00  0.00000000E+00
  0.00000000E+00  0.00000000E+00  0.00000000E+00
  0.00000000E+00  0.00000000E+00  0.00000000E+00
  0.00000000E+00  0.00000000E+00  0.00000000E+00
  0.00000000E+00  0.00000000E+00  0.00000000E+00
  0.00000000E+00  0.00000000E+00  0.00000000E+00
  0.00000000E+00  0.00000000E+00  0.00000000E+00
  0.00000000E+00  0.00000000E+00  0.00000000E+00
  0.00000000E+00  0.00000000E+00  0.00000000E+00
  0.00000000E+00  0.00000000E+00  0.00000000E+00
  0.00000000E+00  0.00000000E+00  0.00000000E+00
  0.00000000E+00  0.00000000E+00  0.00000000E+00
  0.00000000E+00  0.00000000E+00  0.00000000E+00
  0.00000000E+00  0.00000000E+00  0.00000000E+00
  0.00000000E+00  0.00000000E+00  0.00000000E+00
  0.00000000E+00  0.00000000E+00  0.00000000E+00
  0.00000000E+00  0.00000000E+00  0.00000000E+00
  0.00000000E+00  0.00000000E+00  0.00000000E+00
  0.00000000E+00  0.00000000E+00  0.00000000E+00
  0.00000000E+00  0.00000000E+00  0.00000000E+00
  0.00000000E+00  0.00000000E+00  0.00000000E+00
  0.00000000E+00  0.00000000E+00  0.00000000E+00
  0.00000000E+00  0.00000000E+00  0.00000000E+00
  0.00000000E+00  0.00000000E+00  0.00000000E+00
  0.00000000E+00  0.00000000E+00  0.00000000E+00
  0.00000000E+00  0.00000000E+00  0.00000000E+00
  0.00000000E+00  0.00000000E+00  0.00000000E+00
  0.00000000E+00  0.00000000E+00  0.00000000E+00
  0.00000000E+00  0.00000000E+00  0.00000000E+00
  0.00000000E+00  0.00000000E+00  0.00000000E+00
  0.00000000E+00  0.00000000E+00  0.00000000E+00
  0.00000000E+00  0.00000000E+00  0.00000000E+00
  0.00000000E+00  0.00000000E+00  0.00000000E+00
  0.00000000E+00  0.00000000E+00  0.00000000E+00
  0.00000000E+00  0.00000000E+00  0.00000000E+00
  0.00000000E+00  0.00000000E+00  0.00000000E+00
  0.00000000E+00  0.00000000E+00  0.00000000E+00
  0.00000000E+00  0.00000000E+00  0.00000000E+00
  0.00000000E+00  0.00000000E+00  0.00000000E+00
  0.00000000E+00  0.00000000E+00  0.00000000E+00
  0.00000000E+00  0.00000000E+00  0.00000000E+00
  0.00000000E+00  0.00000000E+00  0.00000000E+00
  0.00000000E+00  0.00000000E+00  0.00000000E+00
  0.00000000E+00  0.00000000E+00  0.00000000E+00
  0.00000000E+00  0.00000000E+00  0.00000000E+00
  0.00000000E+00  0.00000000E+00  0.00000000E+00
  0.00000000E+00  0.00000000E+00  0.00000000E+00
  0.00000000E+00  0.00000000E+00  0.00000000E+00
  0.00000000E+00  0.00000000E+00  0.00000000E+00
  0.00000000E+00  0.00000000E+00  0.00000000E+00
  0.00000000E+00  0.00000000E+00  0.00000000E+00
  0.00000000E+00  0.00000000E+00  0.00000000E+00
  0.00000000E+00  0.00000000E+00  0.00000000E+00
  0.00000000E+00  0.00000000E+00  0.00000000E+00
  0.00000000E+00  0.00000000E+00  0.00000000E+00
  0.00000000E+00  0.00000000E+00  0.00000000E+00
