  Built with Packmol                    
   1.00000000000000     
    11.1185447897165268    0.2062957316502771    0.2496535722674804
     0.2049368227123815   11.1861824945462374    0.2022078460031612
     0.2436578403123839    0.1988117732041847   11.4136832566413613
   Fe   Ge
    48    48
Direct
  0.1336258752858446  0.6346733271090373  0.4074601967654789
  0.9074491135960600  0.1476996580583753  0.6107718812167106
  0.9187921181330596  0.9093412611110718  0.6622997311449691
  0.4080719809753211  0.3888506763804565  0.7469589590784089
  0.5150632063591694  0.0366357085671229  0.0942689095328352
  0.1467072853104341  0.0880642432883210  0.7281687917528087
  0.0455892452685659  0.2992654495329394  0.2320564821992534
  0.7299305100658371  0.5347838181667921  0.0706437568518971
  0.7574315918040039  0.7962224000036386  0.5394164256171194
  0.6823848977236860  0.8985305353661901  0.1755518804971802
  0.4813646471680562  0.0311967656664908  0.8669950453418481
  0.7174968727110640  0.0445677961533990  0.7738697237606347
  0.9857242285530740  0.7854478015568860  0.4906667760446057
  0.9775170264770615  0.2798496355370692  0.7774505196364021
  0.7381792251129783  0.7620032871900900  0.0116647683720584
  0.7106460062801325  0.2195593721976777  0.5370818133180681
  0.7334200768786548  0.5348345650215681  0.7118192110354454
  0.5274312562464994  0.5728428903583037  0.3859711854700049
  0.7421171917416742  0.5336487468720719  0.3152685821451416
  0.1930264092131850  0.8854092357827279  0.5729848358862809
  0.5811123654858922  0.1659964767546533  0.3288200276351742
  0.0266607269805251  0.7793833605197866  0.2751116433797260
  0.3389102880319372  0.6996307832484493  0.4917230217426045
  0.8603563049124363  0.3724385329139416  0.4059884476510457
  0.3890280967333252  0.9314393563397350  0.4626819894141622
  0.7169899154788004  0.1182426404940880  0.1529643204232254
  0.6325586030388461  0.1729922099566720  0.9440818665395168
  0.9791119717631229  0.3307053714416290  0.0135369249712835
  0.3237302964664872  0.5164429671409957  0.1345317369323470
  0.5775828502793713  0.9132069057877246  0.6586277381530868
  0.9681366643788974  0.5533655198972987  0.0184633330540896
  0.9066859039802448  0.9303750012771113  0.1203184490243720
  0.8239306684633322  0.4289769072180837  0.8739337734899497
  0.4338182152855167  0.2451274229218977  0.9283897178713315
  0.3040339373808302  0.9930781541244494  0.2316001744395505
  0.6032571592105394  0.3833591842951151  0.8700692530437797
  0.4794639755722576  0.5874508221980680  0.7539422268380798
  0.3781497925530330  0.0065255624547481  0.6707223519429761
  0.5423908876260564  0.1835770952350096  0.7312999450271581
  0.8494581680366976  0.6434392263627720  0.8632956951754710
  0.8606501195504782  0.1618561004420588  0.9558662571207304
  0.8669363454985364  0.6792082016583583  0.1723842643769264
  0.1778027279824115  0.7906264568126262  0.9526416248870788
  0.3385041745146904  0.9099853871217027  0.0400363123977721
  0.4435700382295772  0.3642163972061080  0.2940854568539363
  0.0675177674802605  0.6671681108936632  0.8175969639623413
  0.7583592090234801  0.2516225011979126  0.7687871295993810
  0.9934169077629886  0.1977495460443872  0.4186026723865774
  0.0963739932383501  0.8709934050526670  0.7637291886601061
  0.0189210207655179  0.9937788349567832  0.4832406595935640
  0.7534428661233256  0.0071382086962066  0.5554588870915503
  0.2377653379585691  0.0915709326096597  0.5287238425797315
  0.5126283374888583  0.9512909565013661  0.2894962312742593
  0.6046253523345383  0.3794820902538819  0.6493573102822063
  0.9009341454660265  0.6738364192250530  0.6602186088640029
  0.8871549667005667  0.4406079097221094  0.1911567750158562
  0.1572872034831077  0.4207570999214902  0.0603476891842337
  0.8627069789210328  0.3828180058916503  0.6203532001716363
  0.0398336335825037  0.4635216949623431  0.8278783651617972
  0.9378822529980234  0.0570112923727876  0.8005258998758656
  0.8279364745775717  0.8668352434007012  0.3269328978136001
  0.3984339565524013  0.4586824386748589  0.9469232833458043
  0.9610474400933748  0.7746468903699183  0.9854873641865404
  0.3670670152055435  0.1622915628917234  0.3470059428517462
  0.3052294970353955  0.1210147362644305  0.0466927518252453
  0.6332185760876811  0.6064047047289579  0.8965577356452773
  0.3194849984621387  0.2013339832423974  0.7538674653163089
  0.7412203209971466  0.3214162546873990  0.0473452205832299
  0.6429178770758146  0.7001179141970646  0.2282222044097727
  0.1477052120833011  0.6720869946761407  0.6123264210414723
  0.5473447629244897  0.7775354886777428  0.4742560034465747
  0.1033174491854093  0.1749524747187788  0.9214694129733939
  0.0724139668289535  0.4205493990928754  0.4201973811936133
  0.5257891838234423  0.0978138485307617  0.5349040974166762
  0.5157439790200335  0.2491630123643341  0.1320426872129088
  0.9478930728156989  0.1364248568205368  0.1402664197354704
  0.3959520904607644  0.4955990379349076  0.5615620854774777
  0.6920211695389975  0.5875042735162640  0.5158964980271912
  0.5414322654783686  0.5000992435288388  0.1642779577376878
  0.2786998148501871  0.6387513440224447  0.8333999740015309
  0.1295157368622561  0.9066141122862751  0.1323430169663568
  0.3940762694309622  0.7910213910322044  0.6721466209507565
  0.5380795154720394  0.8456752235335405  0.9969002885598046
  0.9120291261510233  0.6224579120894379  0.3844082618726469
  0.3300571806286444  0.5803651876314340  0.3235362656162689
  0.6244681570634555  0.3700054244638937  0.3996756691429751
  0.2402416077936478  0.3589268314228386  0.2641461968406466
  0.2788392791544461  0.9542385583772501  0.8499937174624740
  0.7398427727358480  0.8237130288003931  0.7760562958201681
  0.3432682730449342  0.7047027501978036  0.0618404314636194
  0.2165908497268497  0.8388293180091483  0.3636529930891634
  0.1418556350032084  0.1166516581188685  0.2773275369619947
  0.7439045716623894  0.9820110218375147  0.9830662330815718
  0.8004094802989642  0.1781385461692255  0.3359291565820294
  0.0985578932932372  0.2737972744532592  0.6011508535966839
  0.1199972700287966  0.6403734565376022  0.1427966288644529
 
  0.00000000E+00  0.00000000E+00  0.00000000E+00
  0.00000000E+00  0.00000000E+00  0.00000000E+00
  0.00000000E+00  0.00000000E+00  0.00000000E+00
  0.00000000E+00  0.00000000E+00  0.00000000E+00
  0.00000000E+00  0.00000000E+00  0.00000000E+00
  0.00000000E+00  0.00000000E+00  0.00000000E+00
  0.00000000E+00  0.00000000E+00  0.00000000E+00
  0.00000000E+00  0.00000000E+00  0.00000000E+00
  0.00000000E+00  0.00000000E+00  0.00000000E+00
  0.00000000E+00  0.00000000E+00  0.00000000E+00
  0.00000000E+00  0.00000000E+00  0.00000000E+00
  0.00000000E+00  0.00000000E+00  0.00000000E+00
  0.00000000E+00  0.00000000E+00  0.00000000E+00
  0.00000000E+00  0.00000000E+00  0.00000000E+00
  0.00000000E+00  0.00000000E+00  0.00000000E+00
  0.00000000E+00  0.00000000E+00  0.00000000E+00
  0.00000000E+00  0.00000000E+00  0.00000000E+00
  0.00000000E+00  0.00000000E+00  0.00000000E+00
  0.00000000E+00  0.00000000E+00  0.00000000E+00
  0.00000000E+00  0.00000000E+00  0.00000000E+00
  0.00000000E+00  0.00000000E+00  0.00000000E+00
  0.00000000E+00  0.00000000E+00  0.00000000E+00
  0.00000000E+00  0.00000000E+00  0.00000000E+00
  0.00000000E+00  0.00000000E+00  0.00000000E+00
  0.00000000E+00  0.00000000E+00  0.00000000E+00
  0.00000000E+00  0.00000000E+00  0.00000000E+00
  0.00000000E+00  0.00000000E+00  0.00000000E+00
  0.00000000E+00  0.00000000E+00  0.00000000E+00
  0.00000000E+00  0.00000000E+00  0.00000000E+00
  0.00000000E+00  0.00000000E+00  0.00000000E+00
  0.00000000E+00  0.00000000E+00  0.00000000E+00
  0.00000000E+00  0.00000000E+00  0.00000000E+00
  0.00000000E+00  0.00000000E+00  0.00000000E+00
  0.00000000E+00  0.00000000E+00  0.00000000E+00
  0.00000000E+00  0.00000000E+00  0.00000000E+00
  0.00000000E+00  0.00000000E+00  0.00000000E+00
  0.00000000E+00  0.00000000E+00  0.00000000E+00
  0.00000000E+00  0.00000000E+00  0.00000000E+00
  0.00000000E+00  0.00000000E+00  0.00000000E+00
  0.00000000E+00  0.00000000E+00  0.00000000E+00
  0.00000000E+00  0.00000000E+00  0.00000000E+00
  0.00000000E+00  0.00000000E+00  0.00000000E+00
  0.00000000E+00  0.00000000E+00  0.00000000E+00
  0.00000000E+00  0.00000000E+00  0.00000000E+00
  0.00000000E+00  0.00000000E+00  0.00000000E+00
  0.00000000E+00  0.00000000E+00  0.00000000E+00
  0.00000000E+00  0.00000000E+00  0.00000000E+00
  0.00000000E+00  0.00000000E+00  0.00000000E+00
  0.00000000E+00  0.00000000E+00  0.00000000E+00
  0.00000000E+00  0.00000000E+00  0.00000000E+00
  0.00000000E+00  0.00000000E+00  0.00000000E+00
  0.00000000E+00  0.00000000E+00  0.00000000E+00
  0.00000000E+00  0.00000000E+00  0.00000000E+00
  0.00000000E+00  0.00000000E+00  0.00000000E+00
  0.00000000E+00  0.00000000E+00  0.00000000E+00
  0.00000000E+00  0.00000000E+00  0.00000000E+00
  0.00000000E+00  0.00000000E+00  0.00000000E+00
  0.00000000E+00  0.00000000E+00  0.00000000E+00
  0.00000000E+00  0.00000000E+00  0.00000000E+00
  0.00000000E+00  0.00000000E+00  0.00000000E+00
  0.00000000E+00  0.00000000E+00  0.00000000E+00
  0.00000000E+00  0.00000000E+00  0.00000000E+00
  0.00000000E+00  0.00000000E+00  0.00000000E+00
  0.00000000E+00  0.00000000E+00  0.00000000E+00
  0.00000000E+00  0.00000000E+00  0.00000000E+00
  0.00000000E+00  0.00000000E+00  0.00000000E+00
  0.00000000E+00  0.00000000E+00  0.00000000E+00
  0.00000000E+00  0.00000000E+00  0.00000000E+00
  0.00000000E+00  0.00000000E+00  0.00000000E+00
  0.00000000E+00  0.00000000E+00  0.00000000E+00
  0.00000000E+00  0.00000000E+00  0.00000000E+00
  0.00000000E+00  0.00000000E+00  0.00000000E+00
  0.00000000E+00  0.00000000E+00  0.00000000E+00
  0.00000000E+00  0.00000000E+00  0.00000000E+00
  0.00000000E+00  0.00000000E+00  0.00000000E+00
  0.00000000E+00  0.00000000E+00  0.00000000E+00
  0.00000000E+00  0.00000000E+00  0.00000000E+00
  0.00000000E+00  0.00000000E+00  0.00000000E+00
  0.00000000E+00  0.00000000E+00  0.00000000E+00
  0.00000000E+00  0.00000000E+00  0.00000000E+00
  0.00000000E+00  0.00000000E+00  0.00000000E+00
  0.00000000E+00  0.00000000E+00  0.00000000E+00
  0.00000000E+00  0.00000000E+00  0.00000000E+00
  0.00000000E+00  0.00000000E+00  0.00000000E+00
  0.00000000E+00  0.00000000E+00  0.00000000E+00
  0.00000000E+00  0.00000000E+00  0.00000000E+00
  0.00000000E+00  0.00000000E+00  0.00000000E+00
  0.00000000E+00  0.00000000E+00  0.00000000E+00
  0.00000000E+00  0.00000000E+00  0.00000000E+00
  0.00000000E+00  0.00000000E+00  0.00000000E+00
  0.00000000E+00  0.00000000E+00  0.00000000E+00
  0.00000000E+00  0.00000000E+00  0.00000000E+00
  0.00000000E+00  0.00000000E+00  0.00000000E+00
  0.00000000E+00  0.00000000E+00  0.00000000E+00
  0.00000000E+00  0.00000000E+00  0.00000000E+00
  0.00000000E+00  0.00000000E+00  0.00000000E+00
