  Built with Packmol                    
    1.000000000000000     
    10.9617501150522738   -0.3438063626824541   -0.0202528341389347
    -0.3587661697881885   11.0986731949316493    0.2473052451286868
    -0.0400183927414508    0.2367769630200031   11.6752921362343436
   Fe   Ge
    48    48
Direct
  0.6436448725143435  0.4114702524910001  0.5202820993005872
  0.3502497702339724  0.7063808293024607  0.1218600787054385
  0.7389837381419539  0.7591406888475731  0.2347409345343650
  0.5720351186080777  0.7856175795761189  0.4164451642015692
  0.6188179706219472  0.5019960684874363  0.1739032153436568
  0.6336981329532136  0.6269450052297003  0.6438213852224948
  0.0264388518510970  0.6128133162824270  0.5773786917524717
  0.0772900537413435  0.0265252509854790  0.6938880934835012
  0.7120581730942348  0.1336906692961151  0.2779068333817278
  0.9424812070710402  0.4573210185697221  0.7687068062699112
  0.7995829824372223  0.3586871091969570  0.1362863930202707
  0.7415339236620326  0.6148554005796996  0.0166528521254747
  0.6009184183490532  0.2369641207425772  0.6574926081254588
  0.8688494330837315  0.9554092998708867  0.5664158709767406
  0.6896359836147141  0.5816136364857911  0.3730493688917846
  0.2336426735078021  0.7519113937611621  0.6755138948483150
  0.9702358938890256  0.7686018217457047  0.1921777980719597
  0.1577077435096328  0.8569843889517728  0.0216068633522184
  0.0749843345471604  0.9960440656748517  0.2196890613748081
  0.3200560206979617  0.4826957330448636  0.4023633858701885
  0.1274511669041303  0.6977402624516884  0.4076920767153922
  0.5480859580980564  0.5583027706465984  0.8460736406584530
  0.8662458502235708  0.7259165554544325  0.6656998602656543
  0.4379505822408518  0.9006396630079863  0.7351665756686572
  0.9840712583636986  0.8713859040114471  0.3770709262779803
  0.2251961623615415  0.8992891844988335  0.4261195911241842
  0.1678340137298377  0.3914380138885036  0.2772860847994849
  0.6129352555636842  0.7764655206512288  0.8498931009959136
  0.6844153545297473  0.9917112693785128  0.4462771647383121
  0.7754445694049323  0.1963686630019765  0.5103383760205418
  0.4058955493628673  0.8882627454226508  0.2911415080934390
  0.3499933916792628  0.0424565117894531  0.9227536154884461
  0.2109649913401910  0.4625692828034076  0.0622379025320114
  0.0120029701413387  0.2839108064532496  0.4436339197921910
  0.0070328004436320  0.8431731974381123  0.8014817345238470
  0.7534408972392583  0.0241337047228853  0.9243590739702299
  0.2697801894754406  0.9856828282329175  0.6192876753048893
  0.6252114489198632  0.8362961951667742  0.6277655954252594
  0.1077421229649858  0.0664066489809230  0.4727709051646229
  0.6104439402169390  0.3893221469494605  0.9790538875954695
  0.3467646023397819  0.6984432034130990  0.3732853684388431
  0.9031385970679509  0.0858914876372125  0.3890851234194059
  0.9036517552034198  0.6536501102321708  0.3757553754488114
  0.3876911418793156  0.4967985152827978  0.1967410669813461
  0.9577165516175796  0.9429073881760104  0.0384036533314429
  0.3918470246788814  0.7885915883711618  0.9225477385426544
  0.1915714843670671  0.8229321015340858  0.2308600608628240
  0.2457960969608948  0.2616062970970887  0.9558113389729286
  0.4271617564795775  0.1204075360563337  0.7161987492949535
  0.1899790185567625  0.6011428369979797  0.2300953670642087
  0.7787979012440545  0.1467780525154438  0.0791075466459503
  0.4569900678953474  0.2186853749136404  0.9784817969603452
  0.7931492520997523  0.8901443836435163  0.7723738398900082
  0.5445851361421461  0.9742421711191227  0.9085863338451929
  0.6668515831884676  0.2096970022447593  0.8528255163126346
  0.5192360049369285  0.6348326187167359  0.0248641954722046
  0.7768846245157377  0.7866157759243535  0.4682506134563127
  0.0906217042000748  0.3877585415127527  0.8955029035776150
  0.4349223090699113  0.6832138767654357  0.7252128557213666
  0.7366093053164917  0.8364458973296891  0.0364313479049017
  0.7707137097781853  0.5962194025992673  0.8145145432973138
  0.8168562644547990  0.5476354552515446  0.5514742641530717
  0.0653884655490202  0.3971063080924750  0.6179052407658787
  0.2830122428980886  0.0606401889766914  0.2629881792344406
  0.8299672776387936  0.4033462925261588  0.9374699853476969
  0.8345499531260216  0.5625060564851978  0.2053165766943792
  0.6111371914986492  0.9401522635582751  0.2489567700561821
  0.2259487212071818  0.2931695560694507  0.4601142000324145
  0.5264830084667338  0.6857420926292050  0.2452684243949648
  0.0592448653577335  0.6393695760356408  0.7784654719691630
  0.5202346706438092  0.4125548684366223  0.3472151433378841
  0.8293540843703937  0.3127274607434529  0.3397100734616174
  0.9569564444401237  0.0527328420280071  0.8571900508196038
  0.0591167018202725  0.8439672757912788  0.5759007077548475
  0.2087461808496371  0.6507587509408239  0.9651236508189029
  0.3813285801248583  0.4391473864224977  0.9273614205902234
  0.9501863799928287  0.7320327166302718  0.9781263256730099
  0.2438997557449767  0.5770015747761477  0.5650545116810122
  0.6663889154236671  0.0462866577400050  0.6462756709847994
  0.8534138529980311  0.9653250427664588  0.2262288748142538
  0.4175914287940188  0.8621581831819967  0.5260870113924696
  0.2991252882184980  0.2824062273064456  0.1598435277031243
  0.2098959214180951  0.1686174447271043  0.7831853465451246
  0.5705488810129893  0.2004663496452253  0.4438989067651846
  0.4942051022043330  0.5854983731557226  0.4958272825448589
  0.0253738673189901  0.4894068815918118  0.3968421374803057
  0.2207288310012387  0.9078878782688093  0.8206923487546689
  0.0659225995592863  0.1963741855707113  0.2728905402638517
  0.3524932485663470  0.1127892826832237  0.4691763335653505
  0.5487863603642253  0.4158890222877503  0.7141008615181335
  0.1442629416093340  0.0833203782817264  0.0309292078843342
  0.3698611226987367  0.9224589241754586  0.0922762470752119
  0.9593070905973988  0.1591741016351449  0.6018093373206739
  0.5820471866052159  0.2762912993304312  0.1701171379118236
  0.0110567932270129  0.3919326855730461  0.1318911921659733
  0.8014950208240705  0.3314924150850729  0.6663446965530468
 
  0.00000000E+00  0.00000000E+00  0.00000000E+00
  0.00000000E+00  0.00000000E+00  0.00000000E+00
  0.00000000E+00  0.00000000E+00  0.00000000E+00
  0.00000000E+00  0.00000000E+00  0.00000000E+00
  0.00000000E+00  0.00000000E+00  0.00000000E+00
  0.00000000E+00  0.00000000E+00  0.00000000E+00
  0.00000000E+00  0.00000000E+00  0.00000000E+00
  0.00000000E+00  0.00000000E+00  0.00000000E+00
  0.00000000E+00  0.00000000E+00  0.00000000E+00
  0.00000000E+00  0.00000000E+00  0.00000000E+00
  0.00000000E+00  0.00000000E+00  0.00000000E+00
  0.00000000E+00  0.00000000E+00  0.00000000E+00
  0.00000000E+00  0.00000000E+00  0.00000000E+00
  0.00000000E+00  0.00000000E+00  0.00000000E+00
  0.00000000E+00  0.00000000E+00  0.00000000E+00
  0.00000000E+00  0.00000000E+00  0.00000000E+00
  0.00000000E+00  0.00000000E+00  0.00000000E+00
  0.00000000E+00  0.00000000E+00  0.00000000E+00
  0.00000000E+00  0.00000000E+00  0.00000000E+00
  0.00000000E+00  0.00000000E+00  0.00000000E+00
  0.00000000E+00  0.00000000E+00  0.00000000E+00
  0.00000000E+00  0.00000000E+00  0.00000000E+00
  0.00000000E+00  0.00000000E+00  0.00000000E+00
  0.00000000E+00  0.00000000E+00  0.00000000E+00
  0.00000000E+00  0.00000000E+00  0.00000000E+00
  0.00000000E+00  0.00000000E+00  0.00000000E+00
  0.00000000E+00  0.00000000E+00  0.00000000E+00
  0.00000000E+00  0.00000000E+00  0.00000000E+00
  0.00000000E+00  0.00000000E+00  0.00000000E+00
  0.00000000E+00  0.00000000E+00  0.00000000E+00
  0.00000000E+00  0.00000000E+00  0.00000000E+00
  0.00000000E+00  0.00000000E+00  0.00000000E+00
  0.00000000E+00  0.00000000E+00  0.00000000E+00
  0.00000000E+00  0.00000000E+00  0.00000000E+00
  0.00000000E+00  0.00000000E+00  0.00000000E+00
  0.00000000E+00  0.00000000E+00  0.00000000E+00
  0.00000000E+00  0.00000000E+00  0.00000000E+00
  0.00000000E+00  0.00000000E+00  0.00000000E+00
  0.00000000E+00  0.00000000E+00  0.00000000E+00
  0.00000000E+00  0.00000000E+00  0.00000000E+00
  0.00000000E+00  0.00000000E+00  0.00000000E+00
  0.00000000E+00  0.00000000E+00  0.00000000E+00
  0.00000000E+00  0.00000000E+00  0.00000000E+00
  0.00000000E+00  0.00000000E+00  0.00000000E+00
  0.00000000E+00  0.00000000E+00  0.00000000E+00
  0.00000000E+00  0.00000000E+00  0.00000000E+00
  0.00000000E+00  0.00000000E+00  0.00000000E+00
  0.00000000E+00  0.00000000E+00  0.00000000E+00
  0.00000000E+00  0.00000000E+00  0.00000000E+00
  0.00000000E+00  0.00000000E+00  0.00000000E+00
  0.00000000E+00  0.00000000E+00  0.00000000E+00
  0.00000000E+00  0.00000000E+00  0.00000000E+00
  0.00000000E+00  0.00000000E+00  0.00000000E+00
  0.00000000E+00  0.00000000E+00  0.00000000E+00
  0.00000000E+00  0.00000000E+00  0.00000000E+00
  0.00000000E+00  0.00000000E+00  0.00000000E+00
  0.00000000E+00  0.00000000E+00  0.00000000E+00
  0.00000000E+00  0.00000000E+00  0.00000000E+00
  0.00000000E+00  0.00000000E+00  0.00000000E+00
  0.00000000E+00  0.00000000E+00  0.00000000E+00
  0.00000000E+00  0.00000000E+00  0.00000000E+00
  0.00000000E+00  0.00000000E+00  0.00000000E+00
  0.00000000E+00  0.00000000E+00  0.00000000E+00
  0.00000000E+00  0.00000000E+00  0.00000000E+00
  0.00000000E+00  0.00000000E+00  0.00000000E+00
  0.00000000E+00  0.00000000E+00  0.00000000E+00
  0.00000000E+00  0.00000000E+00  0.00000000E+00
  0.00000000E+00  0.00000000E+00  0.00000000E+00
  0.00000000E+00  0.00000000E+00  0.00000000E+00
  0.00000000E+00  0.00000000E+00  0.00000000E+00
  0.00000000E+00  0.00000000E+00  0.00000000E+00
  0.00000000E+00  0.00000000E+00  0.00000000E+00
  0.00000000E+00  0.00000000E+00  0.00000000E+00
  0.00000000E+00  0.00000000E+00  0.00000000E+00
  0.00000000E+00  0.00000000E+00  0.00000000E+00
  0.00000000E+00  0.00000000E+00  0.00000000E+00
  0.00000000E+00  0.00000000E+00  0.00000000E+00
  0.00000000E+00  0.00000000E+00  0.00000000E+00
  0.00000000E+00  0.00000000E+00  0.00000000E+00
  0.00000000E+00  0.00000000E+00  0.00000000E+00
  0.00000000E+00  0.00000000E+00  0.00000000E+00
  0.00000000E+00  0.00000000E+00  0.00000000E+00
  0.00000000E+00  0.00000000E+00  0.00000000E+00
  0.00000000E+00  0.00000000E+00  0.00000000E+00
  0.00000000E+00  0.00000000E+00  0.00000000E+00
  0.00000000E+00  0.00000000E+00  0.00000000E+00
  0.00000000E+00  0.00000000E+00  0.00000000E+00
  0.00000000E+00  0.00000000E+00  0.00000000E+00
  0.00000000E+00  0.00000000E+00  0.00000000E+00
  0.00000000E+00  0.00000000E+00  0.00000000E+00
  0.00000000E+00  0.00000000E+00  0.00000000E+00
  0.00000000E+00  0.00000000E+00  0.00000000E+00
  0.00000000E+00  0.00000000E+00  0.00000000E+00
  0.00000000E+00  0.00000000E+00  0.00000000E+00
  0.00000000E+00  0.00000000E+00  0.00000000E+00
  0.00000000E+00  0.00000000E+00  0.00000000E+00
