  Built with Packmol                    
   1.00000000000000     
    11.1260056587673581    0.1154895273896971    0.2019468942099272
     0.1109315707498692   11.2878147173472332    0.1357659064491421
     0.2033051545214819    0.1268447714001820   11.2524613395254658
   Fe   Ge
    48    48
Direct
  0.1398961334321172  0.6316036935574090  0.4033912831652771
  0.9103290357872993  0.1442720033921034  0.6191101768087677
  0.9089024924303928  0.9126055197462222  0.6693768333893075
  0.4133363145150213  0.3844200563615772  0.7397107525484117
  0.5123857562696301  0.0457847245632053  0.0913728411213768
  0.1481641405799508  0.0880845641331476  0.7268539744803206
  0.0386906312937541  0.2983994521911697  0.2316587948996727
  0.7303487897953644  0.5378978835471742  0.0614971199287524
  0.7584671459626406  0.8096549439240519  0.5455172457804593
  0.6899023425660928  0.9081208070971840  0.1828536113221091
  0.4978731346530836  0.0178868349353252  0.8738171681244111
  0.7251289513689940  0.0377968384520670  0.7825493445851279
  0.9807873568112697  0.7895016018222591  0.4967477712229424
  0.9758874842749350  0.2795823248343154  0.7793857574012932
  0.7340837454971734  0.7685335346884017  0.0193119232251462
  0.7017016148184609  0.2195891934990328  0.5225979537567085
  0.7297842837129025  0.5197563715438278  0.7206792495903613
  0.5338910828801389  0.5779934186153284  0.3848219410189060
  0.7476451087999081  0.5371629545804950  0.3158911576591095
  0.1968500996218054  0.8889924697190352  0.5757996441003002
  0.5849187258228170  0.1639176591358691  0.3173004182606078
  0.0260839070047396  0.7782520747660939  0.2790657218718451
  0.3472723364018435  0.6984517581663283  0.4992987330975183
  0.8635047474089177  0.3783091668879024  0.3984933139303379
  0.3961694702332395  0.9180075418410070  0.4689590814661031
  0.7216798612690667  0.1294212577624450  0.1442894414288745
  0.6275927538528094  0.1711692732724330  0.9334869896247113
  0.9858639543560201  0.3201974938936090  0.0140178132887456
  0.3184729141544480  0.5195615713879533  0.1303173762880050
  0.5828980478912413  0.9239210214056115  0.6628204093271037
  0.9617757452513302  0.5494853815151686  0.0122404324986789
  0.9078105573614934  0.9182941909382620  0.1277933882170501
  0.8363163830822131  0.4168811234672347  0.8856983355058219
  0.4369476280289533  0.2422950443405085  0.9244695575567121
  0.3000660260684640  0.9972208754529390  0.2319464280457382
  0.6061897298488717  0.3886098528939570  0.8632637266898726
  0.4549681721723147  0.5887722249123968  0.7616550437112792
  0.3830032736268976  0.0115221760554434  0.6723148710043461
  0.5465599933111918  0.1670737941366696  0.7296946268081825
  0.8309270424796438  0.6335174115182411  0.8666284214718161
  0.8473704708051173  0.1710420477030112  0.9492355357780937
  0.8712720213080090  0.6755441201385608  0.1733558005697518
  0.1732928992465332  0.7979464324600798  0.9583771596928443
  0.3353513048808239  0.9103080393098750  0.0406829910008639
  0.4414443399607038  0.3713069336416552  0.2878756454539868
  0.0537922882788635  0.6638197327490829  0.8136645673622027
  0.7536731593063095  0.2532751508385473  0.7657791017925319
  0.9977238471046164  0.1910820289961563  0.4310022773564555
  0.0953132689873684  0.8669130371603728  0.7633351316706651
  0.0252627232430385  0.9931825560201801  0.4935911127814734
  0.7539348802701724  0.0177506557356253  0.5575210032258369
  0.2499016578789437  0.0899272181238686  0.5292857383362701
  0.5062508400921146  0.9511954539007235  0.2860953863680606
  0.6036131986153492  0.3658449216586419  0.6424139380032372
  0.8943735350379356  0.6767554448734430  0.6664573179941371
  0.8854330763970211  0.4407921976311684  0.1835332047591436
  0.1481331934024794  0.4292303686818499  0.0610316922778864
  0.8600059872906058  0.3688139824427239  0.6115425158791936
  0.0423097126032275  0.4631171307865216  0.8219799301073039
  0.9460198552302401  0.0549426177583641  0.8109752969628374
  0.8289155296059363  0.8620675220355949  0.3387248218411258
  0.3885975912041530  0.4497878517329923  0.9432301908409073
  0.9550598538175308  0.7659336714702505  0.9806543928648139
  0.3679848667741794  0.1718765310342363  0.3453149440897008
  0.3083634909137487  0.1203806247527268  0.0457031921068776
  0.6160599097462409  0.6145486481478883  0.8982497614856442
  0.3240479313451203  0.2008028778944322  0.7508178837627852
  0.7284397914231207  0.3269525725169586  0.0458917540797117
  0.6480215180676652  0.7026364264278797  0.2261172140349998
  0.1409810206972182  0.6785934897233972  0.6082588444660928
  0.5575091990998331  0.7777175217453234  0.4726948429836639
  0.1169256246436987  0.1806328110224840  0.9166922181267338
  0.0761593340301303  0.4197949723617356  0.4200309795267572
  0.5261085209437013  0.0928180234795803  0.5233932028696913
  0.5095805755239127  0.2538904861063145  0.1273816647483557
  0.9522447711515980  0.1309096248751942  0.1299828842727067
  0.4079879906481949  0.4969197129378102  0.5602397628264981
  0.6995885865574323  0.5885736729449320  0.5199562949300542
  0.5377875544937396  0.5069425294385965  0.1557441804043833
  0.2615310481636044  0.6428477480597294  0.8368506619773726
  0.1291796849845284  0.9104938388540518  0.1389845840860531
  0.4052850499663450  0.7964866721945256  0.6810365322294913
  0.5357813796515316  0.8471714268669359  0.9978562144366947
  0.9241699122074039  0.6151477053824195  0.3897626861793100
  0.3310891157435307  0.5718145882820238  0.3290653698102375
  0.6267819384326430  0.3711829160542450  0.3878476228088061
  0.2377171414433121  0.3562972187969109  0.2598218456557646
  0.2822361635784105  0.9566388406492621  0.8473355969517939
  0.7315449779023169  0.8210869816951103  0.7819344466106699
  0.3441539524014416  0.7061030186959982  0.0609596931740555
  0.2186242937044014  0.8379409482592237  0.3686118635445084
  0.1363325450184689  0.1194213020138903  0.2838778460794060
  0.7400977459074483  0.9838014779905819  0.9846451393088174
  0.8092235893893616  0.1853858473626104  0.3301946943487550
  0.1021023272091455  0.2708789757226171  0.6056267827135144
  0.1164879760847981  0.6453763902546399  0.1386387910971223
 
  0.00000000E+00  0.00000000E+00  0.00000000E+00
  0.00000000E+00  0.00000000E+00  0.00000000E+00
  0.00000000E+00  0.00000000E+00  0.00000000E+00
  0.00000000E+00  0.00000000E+00  0.00000000E+00
  0.00000000E+00  0.00000000E+00  0.00000000E+00
  0.00000000E+00  0.00000000E+00  0.00000000E+00
  0.00000000E+00  0.00000000E+00  0.00000000E+00
  0.00000000E+00  0.00000000E+00  0.00000000E+00
  0.00000000E+00  0.00000000E+00  0.00000000E+00
  0.00000000E+00  0.00000000E+00  0.00000000E+00
  0.00000000E+00  0.00000000E+00  0.00000000E+00
  0.00000000E+00  0.00000000E+00  0.00000000E+00
  0.00000000E+00  0.00000000E+00  0.00000000E+00
  0.00000000E+00  0.00000000E+00  0.00000000E+00
  0.00000000E+00  0.00000000E+00  0.00000000E+00
  0.00000000E+00  0.00000000E+00  0.00000000E+00
  0.00000000E+00  0.00000000E+00  0.00000000E+00
  0.00000000E+00  0.00000000E+00  0.00000000E+00
  0.00000000E+00  0.00000000E+00  0.00000000E+00
  0.00000000E+00  0.00000000E+00  0.00000000E+00
  0.00000000E+00  0.00000000E+00  0.00000000E+00
  0.00000000E+00  0.00000000E+00  0.00000000E+00
  0.00000000E+00  0.00000000E+00  0.00000000E+00
  0.00000000E+00  0.00000000E+00  0.00000000E+00
  0.00000000E+00  0.00000000E+00  0.00000000E+00
  0.00000000E+00  0.00000000E+00  0.00000000E+00
  0.00000000E+00  0.00000000E+00  0.00000000E+00
  0.00000000E+00  0.00000000E+00  0.00000000E+00
  0.00000000E+00  0.00000000E+00  0.00000000E+00
  0.00000000E+00  0.00000000E+00  0.00000000E+00
  0.00000000E+00  0.00000000E+00  0.00000000E+00
  0.00000000E+00  0.00000000E+00  0.00000000E+00
  0.00000000E+00  0.00000000E+00  0.00000000E+00
  0.00000000E+00  0.00000000E+00  0.00000000E+00
  0.00000000E+00  0.00000000E+00  0.00000000E+00
  0.00000000E+00  0.00000000E+00  0.00000000E+00
  0.00000000E+00  0.00000000E+00  0.00000000E+00
  0.00000000E+00  0.00000000E+00  0.00000000E+00
  0.00000000E+00  0.00000000E+00  0.00000000E+00
  0.00000000E+00  0.00000000E+00  0.00000000E+00
  0.00000000E+00  0.00000000E+00  0.00000000E+00
  0.00000000E+00  0.00000000E+00  0.00000000E+00
  0.00000000E+00  0.00000000E+00  0.00000000E+00
  0.00000000E+00  0.00000000E+00  0.00000000E+00
  0.00000000E+00  0.00000000E+00  0.00000000E+00
  0.00000000E+00  0.00000000E+00  0.00000000E+00
  0.00000000E+00  0.00000000E+00  0.00000000E+00
  0.00000000E+00  0.00000000E+00  0.00000000E+00
  0.00000000E+00  0.00000000E+00  0.00000000E+00
  0.00000000E+00  0.00000000E+00  0.00000000E+00
  0.00000000E+00  0.00000000E+00  0.00000000E+00
  0.00000000E+00  0.00000000E+00  0.00000000E+00
  0.00000000E+00  0.00000000E+00  0.00000000E+00
  0.00000000E+00  0.00000000E+00  0.00000000E+00
  0.00000000E+00  0.00000000E+00  0.00000000E+00
  0.00000000E+00  0.00000000E+00  0.00000000E+00
  0.00000000E+00  0.00000000E+00  0.00000000E+00
  0.00000000E+00  0.00000000E+00  0.00000000E+00
  0.00000000E+00  0.00000000E+00  0.00000000E+00
  0.00000000E+00  0.00000000E+00  0.00000000E+00
  0.00000000E+00  0.00000000E+00  0.00000000E+00
  0.00000000E+00  0.00000000E+00  0.00000000E+00
  0.00000000E+00  0.00000000E+00  0.00000000E+00
  0.00000000E+00  0.00000000E+00  0.00000000E+00
  0.00000000E+00  0.00000000E+00  0.00000000E+00
  0.00000000E+00  0.00000000E+00  0.00000000E+00
  0.00000000E+00  0.00000000E+00  0.00000000E+00
  0.00000000E+00  0.00000000E+00  0.00000000E+00
  0.00000000E+00  0.00000000E+00  0.00000000E+00
  0.00000000E+00  0.00000000E+00  0.00000000E+00
  0.00000000E+00  0.00000000E+00  0.00000000E+00
  0.00000000E+00  0.00000000E+00  0.00000000E+00
  0.00000000E+00  0.00000000E+00  0.00000000E+00
  0.00000000E+00  0.00000000E+00  0.00000000E+00
  0.00000000E+00  0.00000000E+00  0.00000000E+00
  0.00000000E+00  0.00000000E+00  0.00000000E+00
  0.00000000E+00  0.00000000E+00  0.00000000E+00
  0.00000000E+00  0.00000000E+00  0.00000000E+00
  0.00000000E+00  0.00000000E+00  0.00000000E+00
  0.00000000E+00  0.00000000E+00  0.00000000E+00
  0.00000000E+00  0.00000000E+00  0.00000000E+00
  0.00000000E+00  0.00000000E+00  0.00000000E+00
  0.00000000E+00  0.00000000E+00  0.00000000E+00
  0.00000000E+00  0.00000000E+00  0.00000000E+00
  0.00000000E+00  0.00000000E+00  0.00000000E+00
  0.00000000E+00  0.00000000E+00  0.00000000E+00
  0.00000000E+00  0.00000000E+00  0.00000000E+00
  0.00000000E+00  0.00000000E+00  0.00000000E+00
  0.00000000E+00  0.00000000E+00  0.00000000E+00
  0.00000000E+00  0.00000000E+00  0.00000000E+00
  0.00000000E+00  0.00000000E+00  0.00000000E+00
  0.00000000E+00  0.00000000E+00  0.00000000E+00
  0.00000000E+00  0.00000000E+00  0.00000000E+00
  0.00000000E+00  0.00000000E+00  0.00000000E+00
  0.00000000E+00  0.00000000E+00  0.00000000E+00
  0.00000000E+00  0.00000000E+00  0.00000000E+00
