  Built with Packmol                    
   1.00000000000000     
    11.1170660443327503    0.2061256291616556    0.1015166238199197
     0.1958940141201949   11.1960127661220721    0.2273415284384991
     0.0946763087850858    0.2290652833798272   11.3214892735359989
   Fe   Ge
    48    48
Direct
  0.1384479349729943  0.6364432300960132  0.4098224468028704
  0.9033315029643205  0.1587058234346230  0.6026535854927033
  0.9084173397140916  0.9177713085138564  0.6620521219592774
  0.3970696475856244  0.4083992886911290  0.7542392528439805
  0.5193688477071987  0.0377597091110360  0.0882597040174957
  0.1392547489151141  0.0960456251476458  0.7245157875244104
  0.0402340796873375  0.2947050131948146  0.2420564013501476
  0.7264140255943445  0.5343329453813013  0.0696815182904729
  0.7538065890129602  0.8017057131839351  0.5466646830274229
  0.6875576476710989  0.8991298699212038  0.1745609658716845
  0.4854356902694050  0.0164417543278930  0.8664787394418312
  0.7121079679794491  0.0496170355217913  0.7672609924288665
  0.9857034355456733  0.7845418963419206  0.4936869740205267
  0.9702533297645886  0.2780398415150529  0.7799784560944403
  0.7400659845530626  0.7605465360082135  0.0085525951187009
  0.6954176214889642  0.2238481002986816  0.5527329164224426
  0.7284346460099513  0.5400806172971855  0.7120464963047297
  0.5308410069737093  0.5718892566348330  0.3810256272243535
  0.7533894556994127  0.5315207238171595  0.3187602186361147
  0.2013179285685496  0.8807090114127618  0.5710024306417836
  0.6009539773775145  0.1687783144636157  0.3289434184217654
  0.0238506743364937  0.7861129852676356  0.2755105872458259
  0.3403198707156392  0.6927264076091006  0.5011062978355412
  0.8696170214331147  0.3715845303482936  0.4145667882734188
  0.3903202992712380  0.9430468726955752  0.4585603055287208
  0.7226516211725738  0.1191078888433381  0.1553898408805665
  0.6274499303277565  0.1681735197235170  0.9372850861617295
  0.9848564265416684  0.3247352860283286  0.0143218240002483
  0.3174226649718150  0.5199368830218205  0.1426843258993244
  0.5762856644413290  0.9139291853811713  0.6537853951640287
  0.9673837136844057  0.5508499861311904  0.0232263221624578
  0.9103702934809448  0.9202866347056187  0.1261198093624927
  0.8162891622403095  0.4277317427468859  0.8811883665011706
  0.4317087784952207  0.2379632472363369  0.9258793812672508
  0.3061996425559457  0.9915215923631422  0.2232658678432671
  0.5916325336517474  0.3875892871401945  0.8766868776840155
  0.4876116261754362  0.6000444805312171  0.7102644171316115
  0.3727179255148911  0.0202007704579970  0.6663978602440821
  0.5328480349053279  0.1825940554118688  0.7279014936733290
  0.8452662236851864  0.6379165406526894  0.8650744176330036
  0.8524676392541011  0.1644145078680594  0.9553337215512840
  0.8714604647497595  0.6759377084158942  0.1699630596186879
  0.1805806365153870  0.7826570836800002  0.9420334844475349
  0.3391647399397755  0.9057804389992157  0.0331943805023158
  0.4445641387071930  0.3642295262643600  0.3081623455797668
  0.0684252670763925  0.6602226644963665  0.8156124224513022
  0.7510676915232750  0.2583556790858381  0.7730444176796354
  0.0399266100571012  0.1885184775079054  0.4400057428372008
  0.0921369066929429  0.8658606441580972  0.7547023082187536
  0.0166110019632342  0.9880401163111188  0.4834655148978158
  0.7461328848338979  0.0138466540576800  0.5479763815971239
  0.2282624413993730  0.0928016149470068  0.5208097091837658
  0.5106961312446288  0.9382081496341712  0.2808694763161341
  0.5938376377383534  0.3872683825976964  0.6548848186923664
  0.9016312359260255  0.6790720796242979  0.6647790451901372
  0.8878638347688792  0.4375858341107559  0.1912275257007039
  0.1488627405069565  0.4199671409605585  0.0767496013275704
  0.8559280267255005  0.3880222645041655  0.6268740663099379
  0.0299232295362444  0.4608983633805650  0.8354568487846166
  0.9344149226007232  0.0609265426337515  0.7995300021610561
  0.8223552655498025  0.8630260635169620  0.3374280191205301
  0.3780664129665610  0.4318654337948971  0.9668733905519886
  0.9632115929598015  0.7712032426332982  0.9799884382749084
  0.3826634200370336  0.1540650560533976  0.3345349888673255
  0.3058623590705665  0.1178175531768275  0.0429540102978834
  0.6227613624310706  0.6091324918794072  0.8929299523663516
  0.3140506964037399  0.2121702671405856  0.7504264810731556
  0.7365805500820102  0.3192807247932166  0.0520171424204605
  0.6482841496212899  0.6965835562926159  0.2284012883737319
  0.1480189057962988  0.6688749423413114  0.6139053468053106
  0.5415412970155913  0.7760777205168097  0.4763469857651188
  0.1049217498723678  0.1738452511083679  0.9225425265921032
  0.0766738748703588  0.4235954799656767  0.4273777821373130
  0.5206926226045496  0.1002968612990784  0.5310627609216780
  0.5190465346779618  0.2492149794745018  0.1326547576160237
  0.9500482182029870  0.1334645267699059  0.1391211279477531
  0.3874032954084399  0.4721440569703645  0.5337105559697264
  0.6972043911207422  0.5928095163178853  0.5116519414481218
  0.5377826941932042  0.4995147311863164  0.1686524426288898
  0.2850330062988817  0.6133077027658089  0.8216413032715977
  0.1366999758577592  0.8985455787267540  0.1272097330686890
  0.3894367859339738  0.8029460440565614  0.6739904094850218
  0.5392648929250967  0.8403711907418838  0.9910347066866265
  0.9215669524183028  0.6198685661463301  0.3864449287155125
  0.3348596475750441  0.6073840658580423  0.3173757437882756
  0.6375444627420421  0.3695548898021315  0.3995824739720391
  0.2385433967292769  0.3643041295856975  0.2799540109937055
  0.2716237691816801  0.9628086172645922  0.8446801432321607
  0.7376721596259159  0.8271491050460256  0.7805094616259680
  0.3520202317827099  0.6956872239814658  0.0422662209714275
  0.2205936990099531  0.8421934968869564  0.3633534988409366
  0.1491234717763561  0.1181391939671386  0.2727978780635709
  0.7446436974908650  0.9810979542815161  0.9812694541277409
  0.8300205588376883  0.1780231740560936  0.3504554684191135
  0.1064167851467914  0.2936996076656229  0.6190913903613549
  0.1214350934798745  0.6454252434349925  0.1434611885907913
 
  0.00000000E+00  0.00000000E+00  0.00000000E+00
  0.00000000E+00  0.00000000E+00  0.00000000E+00
  0.00000000E+00  0.00000000E+00  0.00000000E+00
  0.00000000E+00  0.00000000E+00  0.00000000E+00
  0.00000000E+00  0.00000000E+00  0.00000000E+00
  0.00000000E+00  0.00000000E+00  0.00000000E+00
  0.00000000E+00  0.00000000E+00  0.00000000E+00
  0.00000000E+00  0.00000000E+00  0.00000000E+00
  0.00000000E+00  0.00000000E+00  0.00000000E+00
  0.00000000E+00  0.00000000E+00  0.00000000E+00
  0.00000000E+00  0.00000000E+00  0.00000000E+00
  0.00000000E+00  0.00000000E+00  0.00000000E+00
  0.00000000E+00  0.00000000E+00  0.00000000E+00
  0.00000000E+00  0.00000000E+00  0.00000000E+00
  0.00000000E+00  0.00000000E+00  0.00000000E+00
  0.00000000E+00  0.00000000E+00  0.00000000E+00
  0.00000000E+00  0.00000000E+00  0.00000000E+00
  0.00000000E+00  0.00000000E+00  0.00000000E+00
  0.00000000E+00  0.00000000E+00  0.00000000E+00
  0.00000000E+00  0.00000000E+00  0.00000000E+00
  0.00000000E+00  0.00000000E+00  0.00000000E+00
  0.00000000E+00  0.00000000E+00  0.00000000E+00
  0.00000000E+00  0.00000000E+00  0.00000000E+00
  0.00000000E+00  0.00000000E+00  0.00000000E+00
  0.00000000E+00  0.00000000E+00  0.00000000E+00
  0.00000000E+00  0.00000000E+00  0.00000000E+00
  0.00000000E+00  0.00000000E+00  0.00000000E+00
  0.00000000E+00  0.00000000E+00  0.00000000E+00
  0.00000000E+00  0.00000000E+00  0.00000000E+00
  0.00000000E+00  0.00000000E+00  0.00000000E+00
  0.00000000E+00  0.00000000E+00  0.00000000E+00
  0.00000000E+00  0.00000000E+00  0.00000000E+00
  0.00000000E+00  0.00000000E+00  0.00000000E+00
  0.00000000E+00  0.00000000E+00  0.00000000E+00
  0.00000000E+00  0.00000000E+00  0.00000000E+00
  0.00000000E+00  0.00000000E+00  0.00000000E+00
  0.00000000E+00  0.00000000E+00  0.00000000E+00
  0.00000000E+00  0.00000000E+00  0.00000000E+00
  0.00000000E+00  0.00000000E+00  0.00000000E+00
  0.00000000E+00  0.00000000E+00  0.00000000E+00
  0.00000000E+00  0.00000000E+00  0.00000000E+00
  0.00000000E+00  0.00000000E+00  0.00000000E+00
  0.00000000E+00  0.00000000E+00  0.00000000E+00
  0.00000000E+00  0.00000000E+00  0.00000000E+00
  0.00000000E+00  0.00000000E+00  0.00000000E+00
  0.00000000E+00  0.00000000E+00  0.00000000E+00
  0.00000000E+00  0.00000000E+00  0.00000000E+00
  0.00000000E+00  0.00000000E+00  0.00000000E+00
  0.00000000E+00  0.00000000E+00  0.00000000E+00
  0.00000000E+00  0.00000000E+00  0.00000000E+00
  0.00000000E+00  0.00000000E+00  0.00000000E+00
  0.00000000E+00  0.00000000E+00  0.00000000E+00
  0.00000000E+00  0.00000000E+00  0.00000000E+00
  0.00000000E+00  0.00000000E+00  0.00000000E+00
  0.00000000E+00  0.00000000E+00  0.00000000E+00
  0.00000000E+00  0.00000000E+00  0.00000000E+00
  0.00000000E+00  0.00000000E+00  0.00000000E+00
  0.00000000E+00  0.00000000E+00  0.00000000E+00
  0.00000000E+00  0.00000000E+00  0.00000000E+00
  0.00000000E+00  0.00000000E+00  0.00000000E+00
  0.00000000E+00  0.00000000E+00  0.00000000E+00
  0.00000000E+00  0.00000000E+00  0.00000000E+00
  0.00000000E+00  0.00000000E+00  0.00000000E+00
  0.00000000E+00  0.00000000E+00  0.00000000E+00
  0.00000000E+00  0.00000000E+00  0.00000000E+00
  0.00000000E+00  0.00000000E+00  0.00000000E+00
  0.00000000E+00  0.00000000E+00  0.00000000E+00
  0.00000000E+00  0.00000000E+00  0.00000000E+00
  0.00000000E+00  0.00000000E+00  0.00000000E+00
  0.00000000E+00  0.00000000E+00  0.00000000E+00
  0.00000000E+00  0.00000000E+00  0.00000000E+00
  0.00000000E+00  0.00000000E+00  0.00000000E+00
  0.00000000E+00  0.00000000E+00  0.00000000E+00
  0.00000000E+00  0.00000000E+00  0.00000000E+00
  0.00000000E+00  0.00000000E+00  0.00000000E+00
  0.00000000E+00  0.00000000E+00  0.00000000E+00
  0.00000000E+00  0.00000000E+00  0.00000000E+00
  0.00000000E+00  0.00000000E+00  0.00000000E+00
  0.00000000E+00  0.00000000E+00  0.00000000E+00
  0.00000000E+00  0.00000000E+00  0.00000000E+00
  0.00000000E+00  0.00000000E+00  0.00000000E+00
  0.00000000E+00  0.00000000E+00  0.00000000E+00
  0.00000000E+00  0.00000000E+00  0.00000000E+00
  0.00000000E+00  0.00000000E+00  0.00000000E+00
  0.00000000E+00  0.00000000E+00  0.00000000E+00
  0.00000000E+00  0.00000000E+00  0.00000000E+00
  0.00000000E+00  0.00000000E+00  0.00000000E+00
  0.00000000E+00  0.00000000E+00  0.00000000E+00
  0.00000000E+00  0.00000000E+00  0.00000000E+00
  0.00000000E+00  0.00000000E+00  0.00000000E+00
  0.00000000E+00  0.00000000E+00  0.00000000E+00
  0.00000000E+00  0.00000000E+00  0.00000000E+00
  0.00000000E+00  0.00000000E+00  0.00000000E+00
  0.00000000E+00  0.00000000E+00  0.00000000E+00
  0.00000000E+00  0.00000000E+00  0.00000000E+00
  0.00000000E+00  0.00000000E+00  0.00000000E+00
