  Built with Packmol                    
   1.00000000000000     
    11.1226779515627214    0.1171458084008646    0.1019659990284386
     0.1151143087492489   11.4206413279854715    0.0891921216408384
     0.1005354358737931    0.0861640151850000   11.1848955402655896
   Fe   Ge
    48    48
Direct
  0.1460179546271192  0.6355238515446899  0.4061183366554246
  0.9260821020124368  0.1587074844574587  0.5988666857866178
  0.9313887508127436  0.9292936004910359  0.6458588816309074
  0.4274925167745423  0.3789243430472382  0.7390761663861056
  0.5060551905232984  0.0526039194675718  0.1029131417972593
  0.1366595437049867  0.0971749443057845  0.7113140690790729
  0.0506161902710289  0.3162799057839507  0.2401934684715741
  0.7408235598620934  0.5338390696643671  0.0516075957193891
  0.7623943195468286  0.8236225021300783  0.5610193066854947
  0.6918003668613366  0.9306474270906548  0.2073559630852060
  0.4572491429911452  0.0325607997269728  0.8851049510217592
  0.6870798751017020  0.0085895615024612  0.8136059181122590
  0.0023164613018380  0.7918605166232240  0.4873440354973013
  0.9746462591011849  0.2702929585462144  0.7764570957343508
  0.7297185606594567  0.7673270714641518  0.0084059727837555
  0.7456761295696239  0.2249942351298202  0.4977877682584761
  0.6821496731230852  0.5108704101056887  0.7126419733849190
  0.5473712626423506  0.5877482289475608  0.3780666414660203
  0.7504073079520239  0.5441593839886352  0.3075715775574110
  0.1878363023243423  0.8872191393751478  0.5790902397857138
  0.5790489903466778  0.1703528322849266  0.3177384202195626
  0.0311126909928277  0.7734336581644996  0.2728566404452550
  0.3467761567457615  0.7019646438550069  0.5116482836905689
  0.8806591140699496  0.3697902008794429  0.4026514628922442
  0.3937727557104793  0.9100670819128496  0.4763727956433925
  0.7003468207833379  0.1436497622139896  0.1386702818059646
  0.6292243950100698  0.1644978794429903  0.9323032181958553
  0.9882798505085120  0.3303785421882992  0.0069504961045013
  0.3249608944230573  0.5301636390615698  0.1350851269236060
  0.5782829706384547  0.9173924172276244  0.6475974107356350
  0.9620717313075318  0.5424890350332987  0.0053370994777069
  0.9173378717509451  0.8950640366359863  0.1322942166566889
  0.8279615738180155  0.4095792420997668  0.8591026527586934
  0.4325408517480724  0.2468280943234120  0.9268880778151285
  0.3006569411229663  0.0102420481727847  0.2274161470879079
  0.5980687041250548  0.3778512581100060  0.8595990349291469
  0.4507500577665837  0.5867075737435670  0.7785637569261041
  0.3683028871611711  0.0039090360790581  0.6797316750029907
  0.5326315511090129  0.1515649837532749  0.7239313266977447
  0.8286871888220944  0.6193903566090526  0.8504619353387071
  0.8598632874628649  0.1585656117694896  0.9607848126665601
  0.8771201549849721  0.6696129217710265  0.1654785553557687
  0.1634790791483454  0.7984173250350537  0.9589536931761629
  0.3415543997917183  0.9175172676993597  0.0428652376684369
  0.4504052946157984  0.3803516600005850  0.2904949367290115
  0.0531931714835778  0.6477775160328818  0.8109108967164289
  0.7518909280840518  0.2236073734363941  0.7631447103213418
  0.9556235127047827  0.1757976070251672  0.3821126707608258
  0.0799144302694472  0.8515803227621248  0.7657116656366014
  0.0268333842731892  0.0032992325548946  0.4725758341018675
  0.7469294440012888  0.0383673803327227  0.6034306935290061
  0.2540160243825937  0.0864030508547344  0.5239985669080340
  0.4995512473266430  0.9554224752922238  0.2966904416535527
  0.6040876585322223  0.3286618995749748  0.6232173121584310
  0.9054142900546083  0.6996851741499981  0.6652017166643631
  0.8898788243366269  0.4427513226664814  0.1854627797288870
  0.1574604600004861  0.4251118329665715  0.0666397420715725
  0.8490420908897889  0.3807868394653937  0.6249437443951535
  0.0483670131569554  0.4498590187023908  0.8209582885093809
  0.9195027668426761  0.0572475117088231  0.7976922636821726
  0.8346754427927436  0.8547829517644416  0.3509206550132049
  0.3888847915490672  0.4531629124600016  0.9471486994004508
  0.9496116191994304  0.7554087328254013  0.9719857258912654
  0.3685393814823854  0.1817963602773887  0.3417182832141918
  0.2982869021634826  0.1297273188884347  0.0425205452633080
  0.6140503899840439  0.6121781469848742  0.9029953389874805
  0.3163249793862448  0.1985867897140139  0.7542289668529349
  0.7397658114155021  0.3256589868051591  0.0348109043818710
  0.6613906515337504  0.7206056937564895  0.2224995325901205
  0.1505604064835708  0.6673821027412998  0.6136324688313977
  0.5622765326046917  0.7803538969307411  0.4717931613951976
  0.0923807896318820  0.1599524902396183  0.9241422268509751
  0.0875139694694624  0.4310626804514541  0.4307438305178053
  0.5209805393687788  0.0870064743911598  0.5155109605494772
  0.5097499779045265  0.2675290857456858  0.1249688801430722
  0.9234472382557115  0.1717572569031560  0.1609514161353829
  0.4724865690063353  0.5264712432195680  0.5748779640788158
  0.7153088714536082  0.5984077108997994  0.5144919568996045
  0.5504932985049180  0.5156500260164520  0.1606370769350107
  0.2581869143933631  0.6433477511235210  0.8467707938440725
  0.1333126699743801  0.9139870577670308  0.1397227427094236
  0.4108895969337070  0.7926940158093529  0.6936870552433234
  0.5442785895256534  0.8649620023635762  0.0073416071089483
  0.9332054796577367  0.6133801637207696  0.3843686563174273
  0.3417729133109475  0.5768466068076847  0.3391077101771245
  0.6498891814562455  0.3676181521541366  0.3661727851420267
  0.2458553698955015  0.3702763462184535  0.2710442164529070
  0.2548522309939258  0.9542305880229165  0.8492104091183279
  0.7175676048958195  0.8003362682848660  0.7806121006971267
  0.3393252704292777  0.7169663957444641  0.0648887185106517
  0.2209173003805418  0.8393218503321762  0.3658852560991122
  0.1375132597867506  0.1300612143268296  0.2781720495393571
  0.7618917108448642  0.9802250429712274  0.0097276765834948
  0.7760406147625574  0.0869319977645517  0.3352957374115917
  0.1084094937973745  0.2840553300703661  0.6058527807150256
  0.1202323838176298  0.6440649598646431  0.1312561225872813
 
  0.00000000E+00  0.00000000E+00  0.00000000E+00
  0.00000000E+00  0.00000000E+00  0.00000000E+00
  0.00000000E+00  0.00000000E+00  0.00000000E+00
  0.00000000E+00  0.00000000E+00  0.00000000E+00
  0.00000000E+00  0.00000000E+00  0.00000000E+00
  0.00000000E+00  0.00000000E+00  0.00000000E+00
  0.00000000E+00  0.00000000E+00  0.00000000E+00
  0.00000000E+00  0.00000000E+00  0.00000000E+00
  0.00000000E+00  0.00000000E+00  0.00000000E+00
  0.00000000E+00  0.00000000E+00  0.00000000E+00
  0.00000000E+00  0.00000000E+00  0.00000000E+00
  0.00000000E+00  0.00000000E+00  0.00000000E+00
  0.00000000E+00  0.00000000E+00  0.00000000E+00
  0.00000000E+00  0.00000000E+00  0.00000000E+00
  0.00000000E+00  0.00000000E+00  0.00000000E+00
  0.00000000E+00  0.00000000E+00  0.00000000E+00
  0.00000000E+00  0.00000000E+00  0.00000000E+00
  0.00000000E+00  0.00000000E+00  0.00000000E+00
  0.00000000E+00  0.00000000E+00  0.00000000E+00
  0.00000000E+00  0.00000000E+00  0.00000000E+00
  0.00000000E+00  0.00000000E+00  0.00000000E+00
  0.00000000E+00  0.00000000E+00  0.00000000E+00
  0.00000000E+00  0.00000000E+00  0.00000000E+00
  0.00000000E+00  0.00000000E+00  0.00000000E+00
  0.00000000E+00  0.00000000E+00  0.00000000E+00
  0.00000000E+00  0.00000000E+00  0.00000000E+00
  0.00000000E+00  0.00000000E+00  0.00000000E+00
  0.00000000E+00  0.00000000E+00  0.00000000E+00
  0.00000000E+00  0.00000000E+00  0.00000000E+00
  0.00000000E+00  0.00000000E+00  0.00000000E+00
  0.00000000E+00  0.00000000E+00  0.00000000E+00
  0.00000000E+00  0.00000000E+00  0.00000000E+00
  0.00000000E+00  0.00000000E+00  0.00000000E+00
  0.00000000E+00  0.00000000E+00  0.00000000E+00
  0.00000000E+00  0.00000000E+00  0.00000000E+00
  0.00000000E+00  0.00000000E+00  0.00000000E+00
  0.00000000E+00  0.00000000E+00  0.00000000E+00
  0.00000000E+00  0.00000000E+00  0.00000000E+00
  0.00000000E+00  0.00000000E+00  0.00000000E+00
  0.00000000E+00  0.00000000E+00  0.00000000E+00
  0.00000000E+00  0.00000000E+00  0.00000000E+00
  0.00000000E+00  0.00000000E+00  0.00000000E+00
  0.00000000E+00  0.00000000E+00  0.00000000E+00
  0.00000000E+00  0.00000000E+00  0.00000000E+00
  0.00000000E+00  0.00000000E+00  0.00000000E+00
  0.00000000E+00  0.00000000E+00  0.00000000E+00
  0.00000000E+00  0.00000000E+00  0.00000000E+00
  0.00000000E+00  0.00000000E+00  0.00000000E+00
  0.00000000E+00  0.00000000E+00  0.00000000E+00
  0.00000000E+00  0.00000000E+00  0.00000000E+00
  0.00000000E+00  0.00000000E+00  0.00000000E+00
  0.00000000E+00  0.00000000E+00  0.00000000E+00
  0.00000000E+00  0.00000000E+00  0.00000000E+00
  0.00000000E+00  0.00000000E+00  0.00000000E+00
  0.00000000E+00  0.00000000E+00  0.00000000E+00
  0.00000000E+00  0.00000000E+00  0.00000000E+00
  0.00000000E+00  0.00000000E+00  0.00000000E+00
  0.00000000E+00  0.00000000E+00  0.00000000E+00
  0.00000000E+00  0.00000000E+00  0.00000000E+00
  0.00000000E+00  0.00000000E+00  0.00000000E+00
  0.00000000E+00  0.00000000E+00  0.00000000E+00
  0.00000000E+00  0.00000000E+00  0.00000000E+00
  0.00000000E+00  0.00000000E+00  0.00000000E+00
  0.00000000E+00  0.00000000E+00  0.00000000E+00
  0.00000000E+00  0.00000000E+00  0.00000000E+00
  0.00000000E+00  0.00000000E+00  0.00000000E+00
  0.00000000E+00  0.00000000E+00  0.00000000E+00
  0.00000000E+00  0.00000000E+00  0.00000000E+00
  0.00000000E+00  0.00000000E+00  0.00000000E+00
  0.00000000E+00  0.00000000E+00  0.00000000E+00
  0.00000000E+00  0.00000000E+00  0.00000000E+00
  0.00000000E+00  0.00000000E+00  0.00000000E+00
  0.00000000E+00  0.00000000E+00  0.00000000E+00
  0.00000000E+00  0.00000000E+00  0.00000000E+00
  0.00000000E+00  0.00000000E+00  0.00000000E+00
  0.00000000E+00  0.00000000E+00  0.00000000E+00
  0.00000000E+00  0.00000000E+00  0.00000000E+00
  0.00000000E+00  0.00000000E+00  0.00000000E+00
  0.00000000E+00  0.00000000E+00  0.00000000E+00
  0.00000000E+00  0.00000000E+00  0.00000000E+00
  0.00000000E+00  0.00000000E+00  0.00000000E+00
  0.00000000E+00  0.00000000E+00  0.00000000E+00
  0.00000000E+00  0.00000000E+00  0.00000000E+00
  0.00000000E+00  0.00000000E+00  0.00000000E+00
  0.00000000E+00  0.00000000E+00  0.00000000E+00
  0.00000000E+00  0.00000000E+00  0.00000000E+00
  0.00000000E+00  0.00000000E+00  0.00000000E+00
  0.00000000E+00  0.00000000E+00  0.00000000E+00
  0.00000000E+00  0.00000000E+00  0.00000000E+00
  0.00000000E+00  0.00000000E+00  0.00000000E+00
  0.00000000E+00  0.00000000E+00  0.00000000E+00
  0.00000000E+00  0.00000000E+00  0.00000000E+00
  0.00000000E+00  0.00000000E+00  0.00000000E+00
  0.00000000E+00  0.00000000E+00  0.00000000E+00
  0.00000000E+00  0.00000000E+00  0.00000000E+00
  0.00000000E+00  0.00000000E+00  0.00000000E+00
