FeGe                                    
    1.000000000000000     
    10.8323425998088751   -0.3060832240294984    0.0020652582561156
    -0.3112558462550363   11.1724497832760257    0.0173225549542555
    -0.0166535703621368   -0.0072622441013835   11.7219529111935188
   Fe   Ge
    48    48
Direct
  0.6449714657953023  0.4182106115480043  0.5260038898731776
  0.3448958076706061  0.7161507746018406  0.1240976917839880
  0.7424967846681886  0.7726122338241043  0.2524948707504918
  0.5694405412287824  0.7981982288279528  0.3975513936557796
  0.6271610763632394  0.4984405726322609  0.1573963244256371
  0.6163736039357192  0.6040336735628075  0.6673462483995587
  0.0189544520276028  0.6242789680002044  0.5936626759683339
  0.0784297130355460  0.0285182132527356  0.6948321430386802
  0.7115467354165388  0.1451369583214493  0.2788329550228548
  0.9387218758279984  0.4546048484786059  0.7813775605097791
  0.7981704565628673  0.3537473868734748  0.1425810329739775
  0.7418419065165531  0.6499794488651286  0.0244615151422017
  0.5975538802792590  0.2245574742494596  0.6498824873617520
  0.8814985646856052  0.9498928841869911  0.5661359342964932
  0.7054368436609940  0.5729203174501973  0.3526133185399651
  0.2300200616993639  0.7476863100712993  0.6760450268925070
  0.9630662819017328  0.7785582974762091  0.1560503136221326
  0.1599341119734984  0.8657096487982333  0.0451505498800040
  0.0893596728394942  0.9884595872649987  0.2296714873366705
  0.3195277943638488  0.4982603033286152  0.4068147336511944
  0.1510815270553200  0.6873984774360891  0.4357240139868228
  0.5461746891867459  0.5496064130380578  0.8588383566831130
  0.8161317318895347  0.7178458312044874  0.6724174379569819
  0.4330254439044278  0.8825826617190925  0.7337661212362715
  0.9765221312984996  0.8703844221331336  0.3737641160457180
  0.2279963810293855  0.9006622466530373  0.4074610483550420
  0.1724529475366772  0.3848535095344757  0.2841555319898202
  0.6162472298666490  0.7725206569295346  0.8242541477340550
  0.7275897219462923  0.9736968276643165  0.4104873358311338
  0.7793050705562498  0.2016704057881079  0.5089209571827590
  0.3956871637282580  0.8864143662086706  0.2727908686818100
  0.3416812767056581  0.0375881365733423  0.9099327986027310
  0.2049380627905054  0.4541321989245190  0.0672501040579414
  0.0182943535074883  0.2873801744526398  0.4526284657002169
  0.9913282865149396  0.8256074968912170  0.7441926095120296
  0.7471229031846479  0.0232447960481249  0.9221492618013608
  0.2719701261958784  0.9846958103925806  0.6245666987712903
  0.6153187302779256  0.8180175510034067  0.6101386245396421
  0.1161278701463923  0.0657414182301993  0.4788306798461674
  0.6098001732530088  0.3748330702720775  0.9727962341354532
  0.3546025959109200  0.6997468779858872  0.3522641942362191
  0.9151953623249109  0.0963950205207410  0.3962324320002277
  0.9218956970864813  0.6578805689961567  0.3642301111534828
  0.3892244067732002  0.4927002557423185  0.2006584766745577
  0.9476832426440271  0.9700569264612880  0.0484409864647491
  0.3696807346304485  0.7884920727852228  0.9199838763315156
  0.1646033924881436  0.7914265087508714  0.2374106090125901
  0.2422664216464002  0.2584259053150846  0.9672444054235320
  0.4363967983948977  0.1012739243263888  0.7217631593562017
  0.1869884089031087  0.5878617686403876  0.2348953988714044
  0.7920870243717617  0.1444710175269150  0.0793858790542509
  0.4517210314392148  0.2138574349290418  0.9682222668343478
  0.7818308404193873  0.9080585674029734  0.7554287324546728
  0.5414500889602554  0.9627083165013942  0.9034718465868820
  0.6697023965407474  0.1983135338291249  0.8459832338521774
  0.5281572014783665  0.6821508006741405  0.0113050856787211
  0.7797783546017383  0.7746971228214313  0.4673720386225491
  0.0912940988136083  0.3901888495226352  0.9022808256525641
  0.4189720063509204  0.6651975021987137  0.7398193607109963
  0.7371378458382526  0.8603519774595443  0.0489270257286671
  0.7722292185984688  0.5880500004771009  0.8318697308781555
  0.8160337516866545  0.5526620006138241  0.5405636701312000
  0.0596124730648577  0.4037917494883094  0.6255037679930830
  0.2983876014903885  0.0734061942171794  0.2782418239540226
  0.8297985770468953  0.3876582884523164  0.9438583615453596
  0.8508940612201367  0.5720762450005202  0.1853981567277679
  0.5982991077462577  0.9603834329262814  0.2393854926465949
  0.2358579529090270  0.3037180467988286  0.4658211531811963
  0.5317284085793602  0.6749725009555565  0.2327117326123908
  0.0665570242297942  0.6333111195077538  0.7937657797178420
  0.5244720390928145  0.4219033426284921  0.3473553034225343
  0.8308151285987513  0.3230474957268612  0.3464364853190289
  0.9554428669677526  0.0333702978569247  0.8583481886358162
  0.0779306138927512  0.8497562243815927  0.5593628683779704
  0.1829271622860860  0.6521973125209847  0.9886921872176815
  0.3935592693707956  0.4495943184622148  0.9709564880226292
  0.9569658161451892  0.7798606788970786  0.9457761687618381
  0.2430768698525691  0.5592778776168592  0.5862665297692232
  0.6628329837934951  0.0343257816382809  0.6027391124660968
  0.8605663723011582  0.9816524403623781  0.2316938214135954
  0.3992447144081313  0.8428310453543378  0.5266603082170839
  0.3084597425825294  0.2795954723750541  0.1667627070200023
  0.2003591064209866  0.1675831808715767  0.7939270141690239
  0.5759967581995076  0.2111775438747087  0.4325961662000898
  0.5075133211693876  0.6022219873463740  0.4934874194439145
  0.0328638600045820  0.4901288243683634  0.4070369902631131
  0.1955442669204295  0.8913255761437788  0.8272725481331930
  0.0790391702773380  0.1913909804776804  0.2814341507400982
  0.3603940363181244  0.1235595546966110  0.4899408822969039
  0.5428247217429811  0.4007769576281837  0.7219838195189539
  0.1386054355429979  0.0863405345297517  0.0399245236973471
  0.3707133543307992  0.9337405152206055  0.0828227931170548
  0.9613794003077910  0.1612455633867678  0.6055714205228371
  0.5784329791822795  0.2726756517908383  0.1653363974770666
  0.0112586201416359  0.3831637326278655  0.1422822242673700
  0.7950964529333086  0.3366490856762436  0.6681039116460760
 
  0.00000000E+00  0.00000000E+00  0.00000000E+00
  0.00000000E+00  0.00000000E+00  0.00000000E+00
  0.00000000E+00  0.00000000E+00  0.00000000E+00
  0.00000000E+00  0.00000000E+00  0.00000000E+00
  0.00000000E+00  0.00000000E+00  0.00000000E+00
  0.00000000E+00  0.00000000E+00  0.00000000E+00
  0.00000000E+00  0.00000000E+00  0.00000000E+00
  0.00000000E+00  0.00000000E+00  0.00000000E+00
  0.00000000E+00  0.00000000E+00  0.00000000E+00
  0.00000000E+00  0.00000000E+00  0.00000000E+00
  0.00000000E+00  0.00000000E+00  0.00000000E+00
  0.00000000E+00  0.00000000E+00  0.00000000E+00
  0.00000000E+00  0.00000000E+00  0.00000000E+00
  0.00000000E+00  0.00000000E+00  0.00000000E+00
  0.00000000E+00  0.00000000E+00  0.00000000E+00
  0.00000000E+00  0.00000000E+00  0.00000000E+00
  0.00000000E+00  0.00000000E+00  0.00000000E+00
  0.00000000E+00  0.00000000E+00  0.00000000E+00
  0.00000000E+00  0.00000000E+00  0.00000000E+00
  0.00000000E+00  0.00000000E+00  0.00000000E+00
  0.00000000E+00  0.00000000E+00  0.00000000E+00
  0.00000000E+00  0.00000000E+00  0.00000000E+00
  0.00000000E+00  0.00000000E+00  0.00000000E+00
  0.00000000E+00  0.00000000E+00  0.00000000E+00
  0.00000000E+00  0.00000000E+00  0.00000000E+00
  0.00000000E+00  0.00000000E+00  0.00000000E+00
  0.00000000E+00  0.00000000E+00  0.00000000E+00
  0.00000000E+00  0.00000000E+00  0.00000000E+00
  0.00000000E+00  0.00000000E+00  0.00000000E+00
  0.00000000E+00  0.00000000E+00  0.00000000E+00
  0.00000000E+00  0.00000000E+00  0.00000000E+00
  0.00000000E+00  0.00000000E+00  0.00000000E+00
  0.00000000E+00  0.00000000E+00  0.00000000E+00
  0.00000000E+00  0.00000000E+00  0.00000000E+00
  0.00000000E+00  0.00000000E+00  0.00000000E+00
  0.00000000E+00  0.00000000E+00  0.00000000E+00
  0.00000000E+00  0.00000000E+00  0.00000000E+00
  0.00000000E+00  0.00000000E+00  0.00000000E+00
  0.00000000E+00  0.00000000E+00  0.00000000E+00
  0.00000000E+00  0.00000000E+00  0.00000000E+00
  0.00000000E+00  0.00000000E+00  0.00000000E+00
  0.00000000E+00  0.00000000E+00  0.00000000E+00
  0.00000000E+00  0.00000000E+00  0.00000000E+00
  0.00000000E+00  0.00000000E+00  0.00000000E+00
  0.00000000E+00  0.00000000E+00  0.00000000E+00
  0.00000000E+00  0.00000000E+00  0.00000000E+00
  0.00000000E+00  0.00000000E+00  0.00000000E+00
  0.00000000E+00  0.00000000E+00  0.00000000E+00
  0.00000000E+00  0.00000000E+00  0.00000000E+00
  0.00000000E+00  0.00000000E+00  0.00000000E+00
  0.00000000E+00  0.00000000E+00  0.00000000E+00
  0.00000000E+00  0.00000000E+00  0.00000000E+00
  0.00000000E+00  0.00000000E+00  0.00000000E+00
  0.00000000E+00  0.00000000E+00  0.00000000E+00
  0.00000000E+00  0.00000000E+00  0.00000000E+00
  0.00000000E+00  0.00000000E+00  0.00000000E+00
  0.00000000E+00  0.00000000E+00  0.00000000E+00
  0.00000000E+00  0.00000000E+00  0.00000000E+00
  0.00000000E+00  0.00000000E+00  0.00000000E+00
  0.00000000E+00  0.00000000E+00  0.00000000E+00
  0.00000000E+00  0.00000000E+00  0.00000000E+00
  0.00000000E+00  0.00000000E+00  0.00000000E+00
  0.00000000E+00  0.00000000E+00  0.00000000E+00
  0.00000000E+00  0.00000000E+00  0.00000000E+00
  0.00000000E+00  0.00000000E+00  0.00000000E+00
  0.00000000E+00  0.00000000E+00  0.00000000E+00
  0.00000000E+00  0.00000000E+00  0.00000000E+00
  0.00000000E+00  0.00000000E+00  0.00000000E+00
  0.00000000E+00  0.00000000E+00  0.00000000E+00
  0.00000000E+00  0.00000000E+00  0.00000000E+00
  0.00000000E+00  0.00000000E+00  0.00000000E+00
  0.00000000E+00  0.00000000E+00  0.00000000E+00
  0.00000000E+00  0.00000000E+00  0.00000000E+00
  0.00000000E+00  0.00000000E+00  0.00000000E+00
  0.00000000E+00  0.00000000E+00  0.00000000E+00
  0.00000000E+00  0.00000000E+00  0.00000000E+00
  0.00000000E+00  0.00000000E+00  0.00000000E+00
  0.00000000E+00  0.00000000E+00  0.00000000E+00
  0.00000000E+00  0.00000000E+00  0.00000000E+00
  0.00000000E+00  0.00000000E+00  0.00000000E+00
  0.00000000E+00  0.00000000E+00  0.00000000E+00
  0.00000000E+00  0.00000000E+00  0.00000000E+00
  0.00000000E+00  0.00000000E+00  0.00000000E+00
  0.00000000E+00  0.00000000E+00  0.00000000E+00
  0.00000000E+00  0.00000000E+00  0.00000000E+00
  0.00000000E+00  0.00000000E+00  0.00000000E+00
  0.00000000E+00  0.00000000E+00  0.00000000E+00
  0.00000000E+00  0.00000000E+00  0.00000000E+00
  0.00000000E+00  0.00000000E+00  0.00000000E+00
  0.00000000E+00  0.00000000E+00  0.00000000E+00
  0.00000000E+00  0.00000000E+00  0.00000000E+00
  0.00000000E+00  0.00000000E+00  0.00000000E+00
  0.00000000E+00  0.00000000E+00  0.00000000E+00
  0.00000000E+00  0.00000000E+00  0.00000000E+00
  0.00000000E+00  0.00000000E+00  0.00000000E+00
  0.00000000E+00  0.00000000E+00  0.00000000E+00
