  Built with Packmol                    
   1.00000000000000     
    11.0858058644925830   -0.1595725824640070   -0.0131822572924790
    -0.1609086490903943   11.2545508822758080    0.1430639568178594
    -0.0159528869466478    0.1454510806741558   11.3936730203914571
   Fe   Ge
    48    48
Direct
  0.1704033393833555  0.0672571962497983  0.5315060835472067
  0.9496199576850444  0.9159588478619014  0.9568660984364854
  0.9509823369585177  0.1195027705503904  0.5787428361777458
  0.3435452202830334  0.5022093854468324  0.8582846693802324
  0.4864591980115236  0.3812364827046864  0.5613995164875973
  0.2708278745339001  0.2111975489423372  0.3817610391698594
  0.5973075370834522  0.2098169572230120  0.6610389131617538
  0.2164133279482101  0.6560092810427349  0.5333185508511420
  0.4514728481437089  0.7245793620221690  0.2333066029645536
  0.1519099951918719  0.6390137794319202  0.9089962084009429
  0.3361447846474022  0.3250581357907407  0.1936158729781425
  0.5522107734264452  0.3276862922690214  0.1501151728903665
  0.6733177548662184  0.8228530045624041  0.2463910261646731
  0.1013539990816810  0.2790757323437063  0.2400699677405171
  0.2741607936042598  0.6323732785363205  0.0985748665166213
  0.8822270444578848  0.4095747358565376  0.5102161452238434
  0.6642458623839360  0.1949806592722823  0.2958172400399022
  0.4409015930036162  0.1466510444230167  0.2664683489204620
  0.1050141058849050  0.4647680473351699  0.4059973593478006
  0.4003309371498744  0.3288944876819855  0.7510258036910571
  0.3518977910538794  0.8285493662972883  0.0670178049325401
  0.8313435781660203  0.0090027422944061  0.2126735232265560
  0.9052595936046686  0.8102640255266067  0.3560114364430831
  0.7377861440378268  0.3134575036081273  0.8580032269220936
  0.4280594475587307  0.5140093960055623  0.2442080939035094
  0.5270594761877661  0.3744340565230146  0.3488093806144761
  0.3647237980158238  0.0174611926296251  0.4512252672266541
  0.5345889873678047  0.9975025606224932  0.9643159122093934
  0.4409048463459229  0.1777626613132739  0.0540735802751016
  0.2772072564428925  0.6242897357328161  0.3346544385621470
  0.2228305025118686  0.7923638998877962  0.2304898593416596
  0.6729185969322344  0.5042457925405941  0.4453581626516083
  0.7355181106835644  0.9258156536590221  0.0246017979261808
  0.7365650290815680  0.3933801185240711  0.2546219863524186
  0.5440170589671283  0.3699562450859588  0.9332533343276594
  0.6662778690027977  0.1981436873477165  0.0325075537169539
  0.0934890468474592  0.9469765101008889  0.7044880654769727
  0.4522767339395344  0.5904147533081883  0.4656937788693796
  0.7191769286731571  0.0171522808285545  0.6273296613234791
  0.9976021389698388  0.0859529110140116  0.3480198908490451
  0.5779379701820773  0.9816921764838611  0.3705450860856985
  0.7204428710797615  0.0935428689522482  0.8365826192547559
  0.2124196657991178  0.8724506463437720  0.8690702958085978
  0.1740504495870567  0.4420763601291497  0.0136202902004570
  0.5130547818952493  0.1800703639836527  0.4612851440497892
  0.9789186085757109  0.7402218357580637  0.6052026790592535
  0.8271244629490866  0.5822982616317489  0.1431152818376020
  0.0278440474063544  0.1035357266762702  0.1179349263135236
  0.8180407632371001  0.2322999541128610  0.6768620839725585
  0.9930494265322025  0.9309799891212194  0.5060774463120055
  0.3126006971124653  0.3033198794487504  0.9493550653133909
  0.7650686514461853  0.6933950633121313  0.9595005148400944
  0.9668627526071916  0.7331096947649129  0.8285674266906682
  0.6340465679942042  0.5989995734842850  0.2593376815332391
  0.4578179427349696  0.7972837050305372  0.4298325369451632
  0.3369206243382763  0.2008329495297048  0.5955834138584066
  0.0756121281954591  0.6890445277896902  0.3774982683383215
  0.5611671179363213  0.7969541691572957  0.0622083112282397
  0.3168201234176138  0.4216875723000513  0.4235225640135454
  0.3645110975796655  0.7061654224029326  0.8948575561167544
  0.0463300524914985  0.5311476232380343  0.5928021719685503
  0.6515356747304466  0.8888996072874278  0.8197924625967588
  0.4402119875355126  0.5019384052305966  0.0460205214918332
  0.3540295923792414  0.5432450326198079  0.6521708389593286
  0.7245158121327790  0.8625546726175841  0.4559629189880567
  0.1106731262409966  0.1861015068710969  0.7119969047829571
  0.1174616649186433  0.7984098735739948  0.0449976274131814
  0.8584861526320253  0.4517602586756624  0.7302542090144186
  0.6026020145049458  0.0327277173629952  0.1650398503355390
  0.8582600760544921  0.1098840655304443  0.9976691497983197
  0.1310304127996957  0.4553959983380196  0.8039185220387211
  0.1711012000848626  0.7311232114312318  0.7172811310956604
  0.8407036162799031  0.6331921414773305  0.4774727062704116
  0.8796151409126836  0.2316110778460541  0.2266884594367156
  0.8948868939568371  0.0003658270458118  0.7542250272514224
  0.1825968816697880  0.4763763790202731  0.2151495194167268
  0.7317209215178977  0.4250390095805230  0.0393079043639091
  0.2375003327354719  0.1322232745082914  0.1723477375548939
  0.0678510397274650  0.9286702330588454  0.2442102066622098
  0.7948535571775821  0.0895322400852621  0.4293643718785418
  0.0564269892878428  0.2620273505327475  0.4558530792154656
  0.8712656589063883  0.7947978557839903  0.1437811898443755
  0.1098839284874202  0.0584343205824425  0.9085561832522373
  0.4120538656502006  0.9163636892970004  0.7925601023300857
  0.6938171044625037  0.3032407615036021  0.4835509454378482
  0.9308563410779982  0.4762839022520069  0.2952470876735021
  0.3741221139355773  0.9430917409489510  0.2540401907570597
  0.5976215099749140  0.4417584071384297  0.7428034785961302
  0.5080697353195589  0.0079033068224419  0.6050180060090682
  0.2351687070288051  0.8648151299866242  0.5274174059059504
  0.7699716630806890  0.7816369944409161  0.6615518633655171
  0.6093507339632964  0.6226657774218864  0.6032879912522944
  0.3215265211392477  0.0173311022090132  0.9834037740840742
  0.5211684880421501  0.1736227615719912  0.8518935302594954
  0.0044717061744706  0.5637420372223900  0.0422424091620002
  0.0497749198291615  0.2832309651222573  0.0183952850445053
 
  0.00000000E+00  0.00000000E+00  0.00000000E+00
  0.00000000E+00  0.00000000E+00  0.00000000E+00
  0.00000000E+00  0.00000000E+00  0.00000000E+00
  0.00000000E+00  0.00000000E+00  0.00000000E+00
  0.00000000E+00  0.00000000E+00  0.00000000E+00
  0.00000000E+00  0.00000000E+00  0.00000000E+00
  0.00000000E+00  0.00000000E+00  0.00000000E+00
  0.00000000E+00  0.00000000E+00  0.00000000E+00
  0.00000000E+00  0.00000000E+00  0.00000000E+00
  0.00000000E+00  0.00000000E+00  0.00000000E+00
  0.00000000E+00  0.00000000E+00  0.00000000E+00
  0.00000000E+00  0.00000000E+00  0.00000000E+00
  0.00000000E+00  0.00000000E+00  0.00000000E+00
  0.00000000E+00  0.00000000E+00  0.00000000E+00
  0.00000000E+00  0.00000000E+00  0.00000000E+00
  0.00000000E+00  0.00000000E+00  0.00000000E+00
  0.00000000E+00  0.00000000E+00  0.00000000E+00
  0.00000000E+00  0.00000000E+00  0.00000000E+00
  0.00000000E+00  0.00000000E+00  0.00000000E+00
  0.00000000E+00  0.00000000E+00  0.00000000E+00
  0.00000000E+00  0.00000000E+00  0.00000000E+00
  0.00000000E+00  0.00000000E+00  0.00000000E+00
  0.00000000E+00  0.00000000E+00  0.00000000E+00
  0.00000000E+00  0.00000000E+00  0.00000000E+00
  0.00000000E+00  0.00000000E+00  0.00000000E+00
  0.00000000E+00  0.00000000E+00  0.00000000E+00
  0.00000000E+00  0.00000000E+00  0.00000000E+00
  0.00000000E+00  0.00000000E+00  0.00000000E+00
  0.00000000E+00  0.00000000E+00  0.00000000E+00
  0.00000000E+00  0.00000000E+00  0.00000000E+00
  0.00000000E+00  0.00000000E+00  0.00000000E+00
  0.00000000E+00  0.00000000E+00  0.00000000E+00
  0.00000000E+00  0.00000000E+00  0.00000000E+00
  0.00000000E+00  0.00000000E+00  0.00000000E+00
  0.00000000E+00  0.00000000E+00  0.00000000E+00
  0.00000000E+00  0.00000000E+00  0.00000000E+00
  0.00000000E+00  0.00000000E+00  0.00000000E+00
  0.00000000E+00  0.00000000E+00  0.00000000E+00
  0.00000000E+00  0.00000000E+00  0.00000000E+00
  0.00000000E+00  0.00000000E+00  0.00000000E+00
  0.00000000E+00  0.00000000E+00  0.00000000E+00
  0.00000000E+00  0.00000000E+00  0.00000000E+00
  0.00000000E+00  0.00000000E+00  0.00000000E+00
  0.00000000E+00  0.00000000E+00  0.00000000E+00
  0.00000000E+00  0.00000000E+00  0.00000000E+00
  0.00000000E+00  0.00000000E+00  0.00000000E+00
  0.00000000E+00  0.00000000E+00  0.00000000E+00
  0.00000000E+00  0.00000000E+00  0.00000000E+00
  0.00000000E+00  0.00000000E+00  0.00000000E+00
  0.00000000E+00  0.00000000E+00  0.00000000E+00
  0.00000000E+00  0.00000000E+00  0.00000000E+00
  0.00000000E+00  0.00000000E+00  0.00000000E+00
  0.00000000E+00  0.00000000E+00  0.00000000E+00
  0.00000000E+00  0.00000000E+00  0.00000000E+00
  0.00000000E+00  0.00000000E+00  0.00000000E+00
  0.00000000E+00  0.00000000E+00  0.00000000E+00
  0.00000000E+00  0.00000000E+00  0.00000000E+00
  0.00000000E+00  0.00000000E+00  0.00000000E+00
  0.00000000E+00  0.00000000E+00  0.00000000E+00
  0.00000000E+00  0.00000000E+00  0.00000000E+00
  0.00000000E+00  0.00000000E+00  0.00000000E+00
  0.00000000E+00  0.00000000E+00  0.00000000E+00
  0.00000000E+00  0.00000000E+00  0.00000000E+00
  0.00000000E+00  0.00000000E+00  0.00000000E+00
  0.00000000E+00  0.00000000E+00  0.00000000E+00
  0.00000000E+00  0.00000000E+00  0.00000000E+00
  0.00000000E+00  0.00000000E+00  0.00000000E+00
  0.00000000E+00  0.00000000E+00  0.00000000E+00
  0.00000000E+00  0.00000000E+00  0.00000000E+00
  0.00000000E+00  0.00000000E+00  0.00000000E+00
  0.00000000E+00  0.00000000E+00  0.00000000E+00
  0.00000000E+00  0.00000000E+00  0.00000000E+00
  0.00000000E+00  0.00000000E+00  0.00000000E+00
  0.00000000E+00  0.00000000E+00  0.00000000E+00
  0.00000000E+00  0.00000000E+00  0.00000000E+00
  0.00000000E+00  0.00000000E+00  0.00000000E+00
  0.00000000E+00  0.00000000E+00  0.00000000E+00
  0.00000000E+00  0.00000000E+00  0.00000000E+00
  0.00000000E+00  0.00000000E+00  0.00000000E+00
  0.00000000E+00  0.00000000E+00  0.00000000E+00
  0.00000000E+00  0.00000000E+00  0.00000000E+00
  0.00000000E+00  0.00000000E+00  0.00000000E+00
  0.00000000E+00  0.00000000E+00  0.00000000E+00
  0.00000000E+00  0.00000000E+00  0.00000000E+00
  0.00000000E+00  0.00000000E+00  0.00000000E+00
  0.00000000E+00  0.00000000E+00  0.00000000E+00
  0.00000000E+00  0.00000000E+00  0.00000000E+00
  0.00000000E+00  0.00000000E+00  0.00000000E+00
  0.00000000E+00  0.00000000E+00  0.00000000E+00
  0.00000000E+00  0.00000000E+00  0.00000000E+00
  0.00000000E+00  0.00000000E+00  0.00000000E+00
  0.00000000E+00  0.00000000E+00  0.00000000E+00
  0.00000000E+00  0.00000000E+00  0.00000000E+00
  0.00000000E+00  0.00000000E+00  0.00000000E+00
  0.00000000E+00  0.00000000E+00  0.00000000E+00
  0.00000000E+00  0.00000000E+00  0.00000000E+00
