  Built with Packmol                    
   1.00000000000000     
    11.5240808295467367   -0.6664632123121640   -0.6241896831054565
    -0.7047106196301209   10.8174080512484654   -0.2913516030973405
    -0.6413519153480319   -0.3070733685159101   11.0295376939965699
   Fe   Ge
    48    48
Direct
  0.1751693348554292  0.0478624074337231  0.5607783138904604
  0.9918619781162649  0.9102273788534881  0.9476467944259139
  0.9571057861033376  0.1085867476821259  0.5824617570914784
  0.3352954982219165  0.5513156517966260  0.8339219848909619
  0.4936546808272983  0.3833089048185975  0.5672696961150751
  0.2828927326485711  0.1662295779138899  0.3905839805359428
  0.6437074632843975  0.2827563468540781  0.6830567867891084
  0.2078401753782444  0.6240818472884698  0.5629582357732150
  0.4329441649519309  0.7817848380275596  0.3230163258113334
  0.1286317323280699  0.6758120129205413  0.9181144542496127
  0.3581696660915198  0.3736900381692889  0.1309495733510982
  0.5831925653357302  0.3590343103745141  0.1453874481929003
  0.7171986971116618  0.7556458621768339  0.1513974761278762
  0.0554825463465645  0.2637610790566655  0.2522062302596689
  0.2908265997586171  0.6563267613343452  0.1210704667551997
  0.9090787471970261  0.2814856102507891  0.4531504308510019
  0.6477345439083818  0.1949874441975252  0.2886584564235726
  0.4356111512855528  0.1925503292414575  0.2126768076072826
  0.1605306860458036  0.4297927781692827  0.4233108835358937
  0.4260655486250269  0.3352667345514694  0.7672423636033410
  0.3690373317637158  0.8838307026817402  0.1014169909029622
  0.7404617309447372  0.9774958907183113  0.2286447119873952
  0.8576392411856656  0.7874036252110126  0.3308976656004212
  0.8016930732659167  0.2772323124597383  0.8967073278589348
  0.4474804910600715  0.5579053831184081  0.2366152472595488
  0.5617115583949306  0.4037073009586158  0.3553127843451802
  0.3782887022425396  0.9733517495101930  0.5181926925366726
  0.4809074635871367  0.9760148122513661  0.9065691250982749
  0.4560240106625751  0.2586953824558159  0.9909604736946416
  0.2824511219794201  0.6211716603135899  0.3636684239832482
  0.2298331478024797  0.8141862395169507  0.2703581582363124
  0.6734665472782623  0.5211652269288668  0.5913064360521985
  0.6793884107708522  0.9110421809698558  0.0108406269692535
  0.7703879059702482  0.4012954173049541  0.2975259968334622
  0.6252364180611336  0.4097949552821199  0.9154244053273872
  0.6675228696518504  0.1789691779090570  0.0446115553100578
  0.0868914282144974  0.9747468466375033  0.7243466237301088
  0.4900004515710277  0.5896271341333139  0.4541883494639294
  0.7523702240035895  0.9081788711508172  0.5772385934038222
  0.9442575706325288  0.0450005971948561  0.3248712337328125
  0.5783571109509710  0.0018163171778133  0.3814373346442812
  0.6971749601742095  0.0557463759473662  0.7998051803040312
  0.2261312177222684  0.9053354834373231  0.8808904922887246
  0.1695087513980986  0.4730930756854724  0.9981733047425869
  0.5057132233513663  0.1904828826289527  0.4506655422288103
  0.0110799256515435  0.7020130873960538  0.5229186641025033
  0.8745522486418452  0.5964866837170498  0.1885989172187586
  0.0256710016867312  0.0929340619104830  0.1063474419167235
  0.8368412599934606  0.2101285191429574  0.6981308483789843
  0.9625490748919215  0.9074461037825503  0.5045431395653120
  0.2772155606837113  0.3325472331539118  0.9063371695924833
  0.7346371219237049  0.6222619548708522  0.9834931594010764
  0.9193146514764059  0.6984827043698154  0.8697256506232771
  0.6609644416441115  0.5649898910040250  0.2305105013447780
  0.3972755922268567  0.7574323049656373  0.5432851512018591
  0.3612840556919699  0.1862268851833394  0.6035575667886909
  0.0428304362422747  0.7157278206262988  0.2987897159880832
  0.5145860278200158  0.7513377834901285  0.1326325138005251
  0.3591115747461515  0.3817627661654936  0.3727861002073822
  0.3649060081490834  0.7595183121773952  0.9057978576227425
  0.0165420683632809  0.4799185960378204  0.5645605415911185
  0.5953459203632908  0.8468050026361079  0.8040821601303836
  0.4700163033924560  0.5029444339210323  0.0033750114430496
  0.3148141435853297  0.4635592826265211  0.6251802226848120
  0.6525206634080405  0.8060521986073527  0.3714735596026883
  0.1174142026032039  0.2104681696395785  0.7187160796819642
  0.1531636087317279  0.8435347223467944  0.0729110283072358
  0.7816865740976311  0.4608745003935859  0.7802993301084469
  0.5498053252592805  0.0198306945979059  0.1399896700957982
  0.8392754906268411  0.0694381451826135  0.9752753282025796
  0.1220667801514466  0.4903400077140745  0.7839856751739854
  0.1180257111466257  0.7506249892884992  0.7241349597166629
  0.8224990697844407  0.5842953784509927  0.4351140527264058
  0.8471463656157513  0.2018670929323937  0.2210131317586200
  0.8753609785130201  0.9564969088201507  0.7596232510039608
  0.1930830727650512  0.4561442516964817  0.2080861123494666
  0.7842120589246417  0.4026871722665762  0.0758454053024574
  0.2245054364483791  0.2005724646273132  0.1765902878892794
  0.1344340950053079  0.9982636656983556  0.3025042176532571
  0.7795486766694553  0.0739936657169034  0.4399880610638517
  0.1012556977595353  0.2158835010613016  0.4632017842895706
  0.8998511908038043  0.8832296950256150  0.1340539985298167
  0.1224875435357299  0.0881803780733453  0.9233805663856338
  0.3355249463978327  0.9664513255985948  0.7221203775914354
  0.7099933664733710  0.3225438710746940  0.4920186196180728
  0.9734594606691656  0.4474847336727685  0.2998909628415278
  0.3736775456560903  0.9962617410015844  0.3015505023504622
  0.5403054925679722  0.5361050749738001  0.7589077966661365
  0.5854689777538674  0.0359421237465763  0.6004447015662163
  0.1921807719295706  0.8304795901103728  0.4851056945619708
  0.8435159682522394  0.7099472276872757  0.6451065565458968
  0.6197039188227603  0.7275174699887937  0.6068255983087876
  0.3380930682022373  0.0737836904980777  0.0104724913141648
  0.5517334023565286  0.1813187023931866  0.8364038145844945
  0.0192189163441626  0.5807496990330840  0.0604559051454474
  0.0084940500572365  0.3052545792547414  0.0110334351669138
 
  0.00000000E+00  0.00000000E+00  0.00000000E+00
  0.00000000E+00  0.00000000E+00  0.00000000E+00
  0.00000000E+00  0.00000000E+00  0.00000000E+00
  0.00000000E+00  0.00000000E+00  0.00000000E+00
  0.00000000E+00  0.00000000E+00  0.00000000E+00
  0.00000000E+00  0.00000000E+00  0.00000000E+00
  0.00000000E+00  0.00000000E+00  0.00000000E+00
  0.00000000E+00  0.00000000E+00  0.00000000E+00
  0.00000000E+00  0.00000000E+00  0.00000000E+00
  0.00000000E+00  0.00000000E+00  0.00000000E+00
  0.00000000E+00  0.00000000E+00  0.00000000E+00
  0.00000000E+00  0.00000000E+00  0.00000000E+00
  0.00000000E+00  0.00000000E+00  0.00000000E+00
  0.00000000E+00  0.00000000E+00  0.00000000E+00
  0.00000000E+00  0.00000000E+00  0.00000000E+00
  0.00000000E+00  0.00000000E+00  0.00000000E+00
  0.00000000E+00  0.00000000E+00  0.00000000E+00
  0.00000000E+00  0.00000000E+00  0.00000000E+00
  0.00000000E+00  0.00000000E+00  0.00000000E+00
  0.00000000E+00  0.00000000E+00  0.00000000E+00
  0.00000000E+00  0.00000000E+00  0.00000000E+00
  0.00000000E+00  0.00000000E+00  0.00000000E+00
  0.00000000E+00  0.00000000E+00  0.00000000E+00
  0.00000000E+00  0.00000000E+00  0.00000000E+00
  0.00000000E+00  0.00000000E+00  0.00000000E+00
  0.00000000E+00  0.00000000E+00  0.00000000E+00
  0.00000000E+00  0.00000000E+00  0.00000000E+00
  0.00000000E+00  0.00000000E+00  0.00000000E+00
  0.00000000E+00  0.00000000E+00  0.00000000E+00
  0.00000000E+00  0.00000000E+00  0.00000000E+00
  0.00000000E+00  0.00000000E+00  0.00000000E+00
  0.00000000E+00  0.00000000E+00  0.00000000E+00
  0.00000000E+00  0.00000000E+00  0.00000000E+00
  0.00000000E+00  0.00000000E+00  0.00000000E+00
  0.00000000E+00  0.00000000E+00  0.00000000E+00
  0.00000000E+00  0.00000000E+00  0.00000000E+00
  0.00000000E+00  0.00000000E+00  0.00000000E+00
  0.00000000E+00  0.00000000E+00  0.00000000E+00
  0.00000000E+00  0.00000000E+00  0.00000000E+00
  0.00000000E+00  0.00000000E+00  0.00000000E+00
  0.00000000E+00  0.00000000E+00  0.00000000E+00
  0.00000000E+00  0.00000000E+00  0.00000000E+00
  0.00000000E+00  0.00000000E+00  0.00000000E+00
  0.00000000E+00  0.00000000E+00  0.00000000E+00
  0.00000000E+00  0.00000000E+00  0.00000000E+00
  0.00000000E+00  0.00000000E+00  0.00000000E+00
  0.00000000E+00  0.00000000E+00  0.00000000E+00
  0.00000000E+00  0.00000000E+00  0.00000000E+00
  0.00000000E+00  0.00000000E+00  0.00000000E+00
  0.00000000E+00  0.00000000E+00  0.00000000E+00
  0.00000000E+00  0.00000000E+00  0.00000000E+00
  0.00000000E+00  0.00000000E+00  0.00000000E+00
  0.00000000E+00  0.00000000E+00  0.00000000E+00
  0.00000000E+00  0.00000000E+00  0.00000000E+00
  0.00000000E+00  0.00000000E+00  0.00000000E+00
  0.00000000E+00  0.00000000E+00  0.00000000E+00
  0.00000000E+00  0.00000000E+00  0.00000000E+00
  0.00000000E+00  0.00000000E+00  0.00000000E+00
  0.00000000E+00  0.00000000E+00  0.00000000E+00
  0.00000000E+00  0.00000000E+00  0.00000000E+00
  0.00000000E+00  0.00000000E+00  0.00000000E+00
  0.00000000E+00  0.00000000E+00  0.00000000E+00
  0.00000000E+00  0.00000000E+00  0.00000000E+00
  0.00000000E+00  0.00000000E+00  0.00000000E+00
  0.00000000E+00  0.00000000E+00  0.00000000E+00
  0.00000000E+00  0.00000000E+00  0.00000000E+00
  0.00000000E+00  0.00000000E+00  0.00000000E+00
  0.00000000E+00  0.00000000E+00  0.00000000E+00
  0.00000000E+00  0.00000000E+00  0.00000000E+00
  0.00000000E+00  0.00000000E+00  0.00000000E+00
  0.00000000E+00  0.00000000E+00  0.00000000E+00
  0.00000000E+00  0.00000000E+00  0.00000000E+00
  0.00000000E+00  0.00000000E+00  0.00000000E+00
  0.00000000E+00  0.00000000E+00  0.00000000E+00
  0.00000000E+00  0.00000000E+00  0.00000000E+00
  0.00000000E+00  0.00000000E+00  0.00000000E+00
  0.00000000E+00  0.00000000E+00  0.00000000E+00
  0.00000000E+00  0.00000000E+00  0.00000000E+00
  0.00000000E+00  0.00000000E+00  0.00000000E+00
  0.00000000E+00  0.00000000E+00  0.00000000E+00
  0.00000000E+00  0.00000000E+00  0.00000000E+00
  0.00000000E+00  0.00000000E+00  0.00000000E+00
  0.00000000E+00  0.00000000E+00  0.00000000E+00
  0.00000000E+00  0.00000000E+00  0.00000000E+00
  0.00000000E+00  0.00000000E+00  0.00000000E+00
  0.00000000E+00  0.00000000E+00  0.00000000E+00
  0.00000000E+00  0.00000000E+00  0.00000000E+00
  0.00000000E+00  0.00000000E+00  0.00000000E+00
  0.00000000E+00  0.00000000E+00  0.00000000E+00
  0.00000000E+00  0.00000000E+00  0.00000000E+00
  0.00000000E+00  0.00000000E+00  0.00000000E+00
  0.00000000E+00  0.00000000E+00  0.00000000E+00
  0.00000000E+00  0.00000000E+00  0.00000000E+00
  0.00000000E+00  0.00000000E+00  0.00000000E+00
  0.00000000E+00  0.00000000E+00  0.00000000E+00
  0.00000000E+00  0.00000000E+00  0.00000000E+00
