  Built with Packmol                    
    1.000000000000000     
    10.8367543123450982   -0.2950130819867666    0.0060924418974082
    -0.3051398818615218   11.1681965776233536    0.0196746421229503
    -0.0134245901215654   -0.0048706221420111   11.7096616401468712
   Fe   Ge
    48    48
Direct
  0.6435412699044960  0.4130086447629466  0.5236144443917468
  0.3377682749798794  0.7251104695896657  0.1301738245262456
  0.7434714744005788  0.7706021209510112  0.2525732343847409
  0.5717685243793724  0.7969681662780914  0.3999470694466751
  0.6080697897698428  0.4883260562285372  0.1533672521303444
  0.6227055918728013  0.6025248717960636  0.6696967104995579
  0.0153196105295024  0.6245352460935365  0.5913624874344592
  0.0792432113384649  0.0327776309168826  0.6946848940884252
  0.7193207947369658  0.1433153875385074  0.2781471185186177
  0.9375069113574881  0.4568001257015126  0.7793071216611196
  0.7979293847831457  0.3533246272937376  0.1412961380492561
  0.7252087140360572  0.6427396723116772  0.0247516680926338
  0.5991185020983210  0.2240093536061423  0.6494503400614775
  0.8850683851532111  0.9473875775093532  0.5669133143901490
  0.7057872747291043  0.5643336666341341  0.3512883367599002
  0.2306492506413136  0.7444956432904348  0.6826442907272678
  0.9445674004475606  0.7772805664964082  0.1524994864978240
  0.1588817809384722  0.8715391805742456  0.0424963251593340
  0.0839603003125262  0.9931184630417889  0.2252866374704183
  0.3180550687917503  0.4983335049734237  0.4101090253669497
  0.1569085445557974  0.6874542715900915  0.4394954041137566
  0.5482958361598804  0.5474147886945673  0.8632452822342458
  0.8232493619136960  0.7136687266791952  0.6700002670013134
  0.4300398550466795  0.8805365618846537  0.7350028522892629
  0.9848938639382183  0.8770081901404794  0.3794766825047589
  0.2340093410387283  0.9005182318675367  0.4080800314554764
  0.1705638260175135  0.3867061221569017  0.2848718655567382
  0.6133974062889251  0.7699812447672656  0.8310156971239522
  0.7286757333469964  0.9729735029210786  0.4194531702781603
  0.7791537953810419  0.1978956855079375  0.5046547898456240
  0.3999446184228432  0.8837997652289573  0.2710033253997324
  0.3410532293471178  0.0413901903956244  0.9072596222952853
  0.2017855092230647  0.4565088264374850  0.0669656380027988
  0.0157086371765871  0.2884315731643881  0.4505199499963766
  0.9942185106046182  0.8291504344833953  0.7424330071769560
  0.7458588061851188  0.0185747944199832  0.9223103735665248
  0.2731329145502528  0.9834452044805673  0.6230906822949791
  0.6218837777795088  0.8166377865486893  0.6088206535313532
  0.1184044558265427  0.0665311295161146  0.4746758969426708
  0.6120540014357942  0.3685374834397948  0.9654652882292609
  0.3582043617911594  0.6983843218438537  0.3560452627876032
  0.9143017362848198  0.1004211500321119  0.3886661867153975
  0.9370927398226883  0.6665628045401206  0.3441494188293248
  0.3829633937855235  0.5022287863911927  0.2056511219429922
  0.9483177819796467  0.9762512381547452  0.0474318693327973
  0.3620749037413304  0.7932135020944244  0.9206342781280128
  0.1517648087109720  0.7943108283338915  0.2438897767513595
  0.2447715340963583  0.2645420439064878  0.9686497338822377
  0.4366083863725123  0.1012266461067171  0.7185773592678686
  0.1840234133345575  0.5901542192193148  0.2389444246579728
  0.8014626847899038  0.1425567394820746  0.0791668105012917
  0.4523454011080403  0.2133260073471419  0.9677718357730072
  0.7810145432695208  0.9016711170463267  0.7574944638496390
  0.5393361947990059  0.9639250084836561  0.9011277433808829
  0.6720999568528612  0.1947030512870498  0.8436550979937323
  0.5151997189066719  0.6845115761498093  0.0121114153811348
  0.7874297542782571  0.7704143626963926  0.4648831066253081
  0.0909578531134514  0.3946879534418741  0.9012343911763168
  0.4196686494509976  0.6626346401535699  0.7452955025134784
  0.7401958781745961  0.8546716728498325  0.0472429894103286
  0.7721976286253494  0.5892091846522902  0.8345365540892260
  0.8142811881643723  0.5483204888517079  0.5392128052137224
  0.0628020507461216  0.4022395935691421  0.6279811470630179
  0.2929384022366008  0.0690646022222552  0.2731336326224607
  0.8314506723153983  0.3844356643016127  0.9414052683965082
  0.8369423332287056  0.5680165533826482  0.1817649918870501
  0.6013044650252937  0.9627171506307732  0.2468012353464530
  0.2346470795636435  0.3019686037574800  0.4653023090533992
  0.5348100114715990  0.6752953069011909  0.2328563348474688
  0.0648427063263881  0.6336490007899584  0.7905491849077677
  0.5186340568180725  0.4184940296511144  0.3453582997829869
  0.8262952557480787  0.3278046456564780  0.3471583630132216
  0.9534445572120802  0.0380124836377931  0.8556215378054617
  0.0848301994250775  0.8505000192191119  0.5615884117562544
  0.1837249181141232  0.6548278822368871  0.9895186363380120
  0.4041719309163270  0.4516564469536988  0.9912768864426837
  0.9700990078501306  0.7862886878112434  0.9441633323354068
  0.2438676938400377  0.5571531155926763  0.5913745209735310
  0.6661353397301397  0.0334798529894087  0.6085269939260627
  0.8592736231209059  0.9748596981931001  0.2329015971562356
  0.4048270255271049  0.8421014574478463  0.5293863074984841
  0.3106747202455438  0.2839200810439380  0.1703472074493817
  0.2001917758102110  0.1752060664225965  0.7937712930733625
  0.5750189735263049  0.2084481283871327  0.4301737400269658
  0.5106953742339826  0.5995319206759433  0.4953143787206216
  0.0309129697326185  0.4928045403140118  0.4110088491247765
  0.1939204462233022  0.8960282164534235  0.8263894420154472
  0.0788116182238241  0.1942760450484542  0.2791803085351390
  0.3588034120255728  0.1188740459870132  0.4845605468494654
  0.5433210115741716  0.3992305939512804  0.7244580626574972
  0.1379636481073447  0.0916635926156033  0.0362918379336250
  0.3685046906120562  0.9400308905259891  0.0818395182317815
  0.9611066115610711  0.1597296269938653  0.6012025800765457
  0.5851549474752318  0.2648798593402333  0.1617846924096469
  0.0104472703523513  0.3852526252836057  0.1408595742651713
  0.7965237876856079  0.3344458235909542  0.6656042372558488
 
  0.00000000E+00  0.00000000E+00  0.00000000E+00
  0.00000000E+00  0.00000000E+00  0.00000000E+00
  0.00000000E+00  0.00000000E+00  0.00000000E+00
  0.00000000E+00  0.00000000E+00  0.00000000E+00
  0.00000000E+00  0.00000000E+00  0.00000000E+00
  0.00000000E+00  0.00000000E+00  0.00000000E+00
  0.00000000E+00  0.00000000E+00  0.00000000E+00
  0.00000000E+00  0.00000000E+00  0.00000000E+00
  0.00000000E+00  0.00000000E+00  0.00000000E+00
  0.00000000E+00  0.00000000E+00  0.00000000E+00
  0.00000000E+00  0.00000000E+00  0.00000000E+00
  0.00000000E+00  0.00000000E+00  0.00000000E+00
  0.00000000E+00  0.00000000E+00  0.00000000E+00
  0.00000000E+00  0.00000000E+00  0.00000000E+00
  0.00000000E+00  0.00000000E+00  0.00000000E+00
  0.00000000E+00  0.00000000E+00  0.00000000E+00
  0.00000000E+00  0.00000000E+00  0.00000000E+00
  0.00000000E+00  0.00000000E+00  0.00000000E+00
  0.00000000E+00  0.00000000E+00  0.00000000E+00
  0.00000000E+00  0.00000000E+00  0.00000000E+00
  0.00000000E+00  0.00000000E+00  0.00000000E+00
  0.00000000E+00  0.00000000E+00  0.00000000E+00
  0.00000000E+00  0.00000000E+00  0.00000000E+00
  0.00000000E+00  0.00000000E+00  0.00000000E+00
  0.00000000E+00  0.00000000E+00  0.00000000E+00
  0.00000000E+00  0.00000000E+00  0.00000000E+00
  0.00000000E+00  0.00000000E+00  0.00000000E+00
  0.00000000E+00  0.00000000E+00  0.00000000E+00
  0.00000000E+00  0.00000000E+00  0.00000000E+00
  0.00000000E+00  0.00000000E+00  0.00000000E+00
  0.00000000E+00  0.00000000E+00  0.00000000E+00
  0.00000000E+00  0.00000000E+00  0.00000000E+00
  0.00000000E+00  0.00000000E+00  0.00000000E+00
  0.00000000E+00  0.00000000E+00  0.00000000E+00
  0.00000000E+00  0.00000000E+00  0.00000000E+00
  0.00000000E+00  0.00000000E+00  0.00000000E+00
  0.00000000E+00  0.00000000E+00  0.00000000E+00
  0.00000000E+00  0.00000000E+00  0.00000000E+00
  0.00000000E+00  0.00000000E+00  0.00000000E+00
  0.00000000E+00  0.00000000E+00  0.00000000E+00
  0.00000000E+00  0.00000000E+00  0.00000000E+00
  0.00000000E+00  0.00000000E+00  0.00000000E+00
  0.00000000E+00  0.00000000E+00  0.00000000E+00
  0.00000000E+00  0.00000000E+00  0.00000000E+00
  0.00000000E+00  0.00000000E+00  0.00000000E+00
  0.00000000E+00  0.00000000E+00  0.00000000E+00
  0.00000000E+00  0.00000000E+00  0.00000000E+00
  0.00000000E+00  0.00000000E+00  0.00000000E+00
  0.00000000E+00  0.00000000E+00  0.00000000E+00
  0.00000000E+00  0.00000000E+00  0.00000000E+00
  0.00000000E+00  0.00000000E+00  0.00000000E+00
  0.00000000E+00  0.00000000E+00  0.00000000E+00
  0.00000000E+00  0.00000000E+00  0.00000000E+00
  0.00000000E+00  0.00000000E+00  0.00000000E+00
  0.00000000E+00  0.00000000E+00  0.00000000E+00
  0.00000000E+00  0.00000000E+00  0.00000000E+00
  0.00000000E+00  0.00000000E+00  0.00000000E+00
  0.00000000E+00  0.00000000E+00  0.00000000E+00
  0.00000000E+00  0.00000000E+00  0.00000000E+00
  0.00000000E+00  0.00000000E+00  0.00000000E+00
  0.00000000E+00  0.00000000E+00  0.00000000E+00
  0.00000000E+00  0.00000000E+00  0.00000000E+00
  0.00000000E+00  0.00000000E+00  0.00000000E+00
  0.00000000E+00  0.00000000E+00  0.00000000E+00
  0.00000000E+00  0.00000000E+00  0.00000000E+00
  0.00000000E+00  0.00000000E+00  0.00000000E+00
  0.00000000E+00  0.00000000E+00  0.00000000E+00
  0.00000000E+00  0.00000000E+00  0.00000000E+00
  0.00000000E+00  0.00000000E+00  0.00000000E+00
  0.00000000E+00  0.00000000E+00  0.00000000E+00
  0.00000000E+00  0.00000000E+00  0.00000000E+00
  0.00000000E+00  0.00000000E+00  0.00000000E+00
  0.00000000E+00  0.00000000E+00  0.00000000E+00
  0.00000000E+00  0.00000000E+00  0.00000000E+00
  0.00000000E+00  0.00000000E+00  0.00000000E+00
  0.00000000E+00  0.00000000E+00  0.00000000E+00
  0.00000000E+00  0.00000000E+00  0.00000000E+00
  0.00000000E+00  0.00000000E+00  0.00000000E+00
  0.00000000E+00  0.00000000E+00  0.00000000E+00
  0.00000000E+00  0.00000000E+00  0.00000000E+00
  0.00000000E+00  0.00000000E+00  0.00000000E+00
  0.00000000E+00  0.00000000E+00  0.00000000E+00
  0.00000000E+00  0.00000000E+00  0.00000000E+00
  0.00000000E+00  0.00000000E+00  0.00000000E+00
  0.00000000E+00  0.00000000E+00  0.00000000E+00
  0.00000000E+00  0.00000000E+00  0.00000000E+00
  0.00000000E+00  0.00000000E+00  0.00000000E+00
  0.00000000E+00  0.00000000E+00  0.00000000E+00
  0.00000000E+00  0.00000000E+00  0.00000000E+00
  0.00000000E+00  0.00000000E+00  0.00000000E+00
  0.00000000E+00  0.00000000E+00  0.00000000E+00
  0.00000000E+00  0.00000000E+00  0.00000000E+00
  0.00000000E+00  0.00000000E+00  0.00000000E+00
  0.00000000E+00  0.00000000E+00  0.00000000E+00
  0.00000000E+00  0.00000000E+00  0.00000000E+00
  0.00000000E+00  0.00000000E+00  0.00000000E+00
