  Built with Packmol                    
    1.000000000000000     
    10.7068049034180977   -0.3965846566387709    0.0051649059369847
    -0.4008425965502976   10.9262523203939654    0.2031284873400156
    -0.0036056679024116    0.1884260719888023   11.9379186815513645
   Fe   Ge
    48    48
Direct
  0.6357635894788700  0.4244571130593613  0.5238590005639594
  0.3363703894294261  0.6818358510140072  0.0975307946216049
  0.7024449743847541  0.7446487153559573  0.2131332171873623
  0.5753489332399369  0.7947056444406115  0.4013397076374190
  0.6130146255874820  0.5047041075633771  0.1813683161120991
  0.6351669706148684  0.6186946997912344  0.6467169777115700
  0.0278874233214594  0.6315824045704446  0.5606621850781934
  0.0350046801729462  0.0156826359313769  0.7159702797744103
  0.6833110373815998  0.1384069759377766  0.2790953414147452
  0.9435655605164470  0.4666281046446201  0.7615497854394064
  0.7917011970324808  0.3549447995593411  0.1346981395846569
  0.7455955279038946  0.6028068792915846  0.0143470750605346
  0.5968570481275393  0.2410566954666749  0.6534596227249097
  0.8737171722731247  0.9702224707014864  0.5537649701301248
  0.6849432797252248  0.5979623256887407  0.3730842731027266
  0.2522635958425354  0.7620237344761875  0.6519539442927638
  0.0227879376538311  0.7583160105569817  0.2071056546744998
  0.1620893694263827  0.8273527815978099  0.0216359124259853
  0.0830151979131060  0.9780642101107944  0.2386121373035621
  0.3074856438567792  0.5205766197691091  0.3666948651432520
  0.1342538131362971  0.6979992814853446  0.3883594843299534
  0.5431566498306353  0.5531923752140031  0.8509070390590097
  0.8521273190951462  0.7387585484202290  0.6734630829113328
  0.4408968139524916  0.8941871211255688  0.7388140822911993
  0.9965206775545354  0.8670202687526327  0.3974914059813841
  0.2236392135916532  0.9054737430575202  0.4321476438331828
  0.1652213520721233  0.3828653785807319  0.2674337450578292
  0.6370520203898238  0.7748405769731832  0.8286704847189199
  0.6797663597603290  0.9932932704749433  0.4365601918095408
  0.7743889293152790  0.2062582583524915  0.4986663274532575
  0.4679297036168037  0.0116809663645014  0.3788601262325670
  0.3516628907090649  0.0214837389272233  0.9170896676184128
  0.2012470938662574  0.4563837552835324  0.0521718423867625
  0.0088215759758228  0.2817145237328802  0.4397407947502714
  0.9830420649419693  0.8536660989947862  0.8582320236256820
  0.7723305421817912  0.0232643101733174  0.9321222351072080
  0.2502251824510537  0.9934294509330712  0.6376416095009461
  0.6337568270339631  0.8465819697976471  0.6274302776754439
  0.0894471436620634  0.0704330554298167  0.4806472447395720
  0.6014078616248426  0.3861003984442917  0.9819455909020789
  0.3579382549333090  0.7444598387900285  0.4057489363253026
  0.8918266299443189  0.0800588719024447  0.3739072191121480
  0.9007656752695397  0.6604785887450717  0.3648391625004166
  0.3880403122295277  0.4743194752025914  0.1825503991810393
  0.9683967380496057  0.9285857097612151  0.0566365608045913
  0.4002312126899525  0.7729839603813957  0.9113139395581129
  0.2478654492068486  0.8152095237531114  0.2338136156777821
  0.2289400046664767  0.2365973745434786  0.9501029484466414
  0.4319598517103600  0.1101664714203707  0.7187138392220191
  0.1642322259110216  0.5943311397371644  0.2036470880742058
  0.7720679489554456  0.1356105858353658  0.0943422667622258
  0.4529563301282806  0.2056784254752131  0.9704260808774734
  0.8081509346185598  0.9295742884629803  0.7556827667776531
  0.5598027952514997  0.9655821395949502  0.9027608764274291
  0.6831086525152230  0.2125077511004392  0.8488387209206252
  0.5293208914361642  0.6306775129060611  0.0291547861695349
  0.7816372265686979  0.7882688795055017  0.4760315943194584
  0.0838414474129578  0.3803436623038934  0.8896458436995331
  0.4358217040370675  0.6757507180385431  0.7245368254516791
  0.7519306660501925  0.8287938657576959  0.0230852499766101
  0.7691884830828286  0.5918984397070801  0.8130403546538929
  0.8214153649486562  0.5570796894331522  0.5479989571857118
  0.0726277575262486  0.4097451865077772  0.6124343271000257
  0.2991410724516683  0.0399048206685890  0.2592577615607752
  0.8272344946231627  0.4039979608273114  0.9375438923471293
  0.8356114417758533  0.5616967866100708  0.2014980880846053
  0.5964408879755823  0.9381265304356745  0.2280772026627460
  0.2330208969592604  0.3236119760251768  0.4551647182248075
  0.4788164717266881  0.6767511101766246  0.2505227164428376
  0.0534406124288580  0.6658649991328716  0.7616127107479898
  0.5091170662808651  0.4222449983750778  0.3522120067251890
  0.8296751580888824  0.3064746119766184  0.3266183151018041
  0.9841313065886723  0.0938506628330700  0.9001131913777556
  0.0635662996300042  0.8513993093935071  0.5893279385748258
  0.2108568002395756  0.6308464155274649  0.9362708819178778
  0.3749868046004252  0.4268054795558598  0.9341732769589584
  0.9604105669706797  0.6973454707869635  0.0195696667570786
  0.2428834725887654  0.5855754094289622  0.5479507975576325
  0.6686174113907271  0.0565787495707468  0.6278087104607479
  0.8546228282453541  0.9187091626802371  0.2407871973318123
  0.4274751123356140  0.8865273582831605  0.5425821869447418
  0.2853648762544410  0.2713246588032447  0.1444764132892544
  0.2034975674848312  0.1479960003807008  0.7784261086701534
  0.5622004175001010  0.2086791331189914  0.4442493023618965
  0.4916830151755391  0.5987098442380798  0.4976174851370843
  0.0200583866616242  0.4905823986428430  0.3905331323040429
  0.2083157741263406  0.8803035148919207  0.8178970618739854
  0.0809257007988151  0.1811393442708180  0.2850485504827489
  0.3240838694851078  0.1214775281458103  0.4872746377871451
  0.5366670987082500  0.4149328907769458  0.7180624946075085
  0.1664607400862224  0.0502463845206975  0.0465446583639562
  0.3921604386102828  0.8996639760314338  0.0838874466280046
  0.9561232094630085  0.1737012390418542  0.6092309215161933
  0.5655410499986786  0.2803048414761875  0.1679016607752501
  0.0064002732970323  0.3755622050397065  0.1260242255928361
  0.7977527691590609  0.3395719439776244  0.6607827891157996
 
  0.00000000E+00  0.00000000E+00  0.00000000E+00
  0.00000000E+00  0.00000000E+00  0.00000000E+00
  0.00000000E+00  0.00000000E+00  0.00000000E+00
  0.00000000E+00  0.00000000E+00  0.00000000E+00
  0.00000000E+00  0.00000000E+00  0.00000000E+00
  0.00000000E+00  0.00000000E+00  0.00000000E+00
  0.00000000E+00  0.00000000E+00  0.00000000E+00
  0.00000000E+00  0.00000000E+00  0.00000000E+00
  0.00000000E+00  0.00000000E+00  0.00000000E+00
  0.00000000E+00  0.00000000E+00  0.00000000E+00
  0.00000000E+00  0.00000000E+00  0.00000000E+00
  0.00000000E+00  0.00000000E+00  0.00000000E+00
  0.00000000E+00  0.00000000E+00  0.00000000E+00
  0.00000000E+00  0.00000000E+00  0.00000000E+00
  0.00000000E+00  0.00000000E+00  0.00000000E+00
  0.00000000E+00  0.00000000E+00  0.00000000E+00
  0.00000000E+00  0.00000000E+00  0.00000000E+00
  0.00000000E+00  0.00000000E+00  0.00000000E+00
  0.00000000E+00  0.00000000E+00  0.00000000E+00
  0.00000000E+00  0.00000000E+00  0.00000000E+00
  0.00000000E+00  0.00000000E+00  0.00000000E+00
  0.00000000E+00  0.00000000E+00  0.00000000E+00
  0.00000000E+00  0.00000000E+00  0.00000000E+00
  0.00000000E+00  0.00000000E+00  0.00000000E+00
  0.00000000E+00  0.00000000E+00  0.00000000E+00
  0.00000000E+00  0.00000000E+00  0.00000000E+00
  0.00000000E+00  0.00000000E+00  0.00000000E+00
  0.00000000E+00  0.00000000E+00  0.00000000E+00
  0.00000000E+00  0.00000000E+00  0.00000000E+00
  0.00000000E+00  0.00000000E+00  0.00000000E+00
  0.00000000E+00  0.00000000E+00  0.00000000E+00
  0.00000000E+00  0.00000000E+00  0.00000000E+00
  0.00000000E+00  0.00000000E+00  0.00000000E+00
  0.00000000E+00  0.00000000E+00  0.00000000E+00
  0.00000000E+00  0.00000000E+00  0.00000000E+00
  0.00000000E+00  0.00000000E+00  0.00000000E+00
  0.00000000E+00  0.00000000E+00  0.00000000E+00
  0.00000000E+00  0.00000000E+00  0.00000000E+00
  0.00000000E+00  0.00000000E+00  0.00000000E+00
  0.00000000E+00  0.00000000E+00  0.00000000E+00
  0.00000000E+00  0.00000000E+00  0.00000000E+00
  0.00000000E+00  0.00000000E+00  0.00000000E+00
  0.00000000E+00  0.00000000E+00  0.00000000E+00
  0.00000000E+00  0.00000000E+00  0.00000000E+00
  0.00000000E+00  0.00000000E+00  0.00000000E+00
  0.00000000E+00  0.00000000E+00  0.00000000E+00
  0.00000000E+00  0.00000000E+00  0.00000000E+00
  0.00000000E+00  0.00000000E+00  0.00000000E+00
  0.00000000E+00  0.00000000E+00  0.00000000E+00
  0.00000000E+00  0.00000000E+00  0.00000000E+00
  0.00000000E+00  0.00000000E+00  0.00000000E+00
  0.00000000E+00  0.00000000E+00  0.00000000E+00
  0.00000000E+00  0.00000000E+00  0.00000000E+00
  0.00000000E+00  0.00000000E+00  0.00000000E+00
  0.00000000E+00  0.00000000E+00  0.00000000E+00
  0.00000000E+00  0.00000000E+00  0.00000000E+00
  0.00000000E+00  0.00000000E+00  0.00000000E+00
  0.00000000E+00  0.00000000E+00  0.00000000E+00
  0.00000000E+00  0.00000000E+00  0.00000000E+00
  0.00000000E+00  0.00000000E+00  0.00000000E+00
  0.00000000E+00  0.00000000E+00  0.00000000E+00
  0.00000000E+00  0.00000000E+00  0.00000000E+00
  0.00000000E+00  0.00000000E+00  0.00000000E+00
  0.00000000E+00  0.00000000E+00  0.00000000E+00
  0.00000000E+00  0.00000000E+00  0.00000000E+00
  0.00000000E+00  0.00000000E+00  0.00000000E+00
  0.00000000E+00  0.00000000E+00  0.00000000E+00
  0.00000000E+00  0.00000000E+00  0.00000000E+00
  0.00000000E+00  0.00000000E+00  0.00000000E+00
  0.00000000E+00  0.00000000E+00  0.00000000E+00
  0.00000000E+00  0.00000000E+00  0.00000000E+00
  0.00000000E+00  0.00000000E+00  0.00000000E+00
  0.00000000E+00  0.00000000E+00  0.00000000E+00
  0.00000000E+00  0.00000000E+00  0.00000000E+00
  0.00000000E+00  0.00000000E+00  0.00000000E+00
  0.00000000E+00  0.00000000E+00  0.00000000E+00
  0.00000000E+00  0.00000000E+00  0.00000000E+00
  0.00000000E+00  0.00000000E+00  0.00000000E+00
  0.00000000E+00  0.00000000E+00  0.00000000E+00
  0.00000000E+00  0.00000000E+00  0.00000000E+00
  0.00000000E+00  0.00000000E+00  0.00000000E+00
  0.00000000E+00  0.00000000E+00  0.00000000E+00
  0.00000000E+00  0.00000000E+00  0.00000000E+00
  0.00000000E+00  0.00000000E+00  0.00000000E+00
  0.00000000E+00  0.00000000E+00  0.00000000E+00
  0.00000000E+00  0.00000000E+00  0.00000000E+00
  0.00000000E+00  0.00000000E+00  0.00000000E+00
  0.00000000E+00  0.00000000E+00  0.00000000E+00
  0.00000000E+00  0.00000000E+00  0.00000000E+00
  0.00000000E+00  0.00000000E+00  0.00000000E+00
  0.00000000E+00  0.00000000E+00  0.00000000E+00
  0.00000000E+00  0.00000000E+00  0.00000000E+00
  0.00000000E+00  0.00000000E+00  0.00000000E+00
  0.00000000E+00  0.00000000E+00  0.00000000E+00
  0.00000000E+00  0.00000000E+00  0.00000000E+00
  0.00000000E+00  0.00000000E+00  0.00000000E+00
