  Built with Packmol                    
    1.000000000000000     
    10.8545063367300578   -0.3036676458053982   -0.0033753060299882
    -0.3226772187410151   10.9589757463276083    0.2496094992519410
    -0.0149918874724412    0.2390847881278795   11.8222056846829400
   Fe   Ge
    48    48
Direct
  0.6462590627377622  0.4128389109965482  0.5174924960951870
  0.3391862850073437  0.6959453831115781  0.1235091770786951
  0.7278882305564665  0.7575844332119246  0.2301266971915794
  0.5744985462550147  0.7824563887582698  0.4175937382713215
  0.6204759604036525  0.5066222463833085  0.1801234801399829
  0.6355382949097432  0.6344393318880321  0.6483855598835362
  0.0271105148350586  0.6215656371689562  0.5768508283234937
  0.0497018754725858  0.0108083466618609  0.7100163269777653
  0.7126118342621766  0.1389823205017819  0.2799881686407133
  0.9362260379535243  0.4620517097367838  0.7650597676845123
  0.7966803449504170  0.3629235346612134  0.1342804566979297
  0.7320433500252435  0.6056187838712148  0.0151181047266675
  0.5998865651989433  0.2424970372085582  0.6589841919473685
  0.8663435751659563  0.9679206228996549  0.5546464851315065
  0.6883948071396873  0.5785576886003838  0.3711939559332507
  0.2510891038887024  0.7620835606617078  0.6213540878509178
  0.9979097106950974  0.7593498540614618  0.1980754372726139
  0.1600955505618629  0.8428785070760156  0.0287121122389635
  0.0853421331324427  0.9879095941729403  0.2247825665640661
  0.3171717543738453  0.5166162754490458  0.3741599684462003
  0.1301651184219494  0.6951532491547852  0.4111238164831335
  0.5441356782335944  0.5680650810857557  0.8445019391681825
  0.8580962653618869  0.7381387445935346  0.6677713368625859
  0.4350031796849123  0.8959804628955652  0.7387708015915848
  0.9937156111181622  0.8736863399276942  0.3834502414167815
  0.2343910179767974  0.9012591343079279  0.4368074244170828
  0.1675487899034067  0.3900619142978528  0.2625505178881795
  0.6225869227096368  0.7826198080244779  0.8189788180834370
  0.6681501492064683  0.9944907462572488  0.4422560080424205
  0.7804619791909886  0.2008130607863023  0.5046395507227999
  0.4181716384766219  0.8738486411707598  0.2780370618544978
  0.3510583400173033  0.0316063642897220  0.9153125716645221
  0.2051498609761069  0.4523416088913592  0.0485682875422242
  0.0131702063180867  0.2860538691113135  0.4426919590070639
  0.0048875566529816  0.8482110062757684  0.8472949973806507
  0.7591089636059465  0.0262094502151626  0.9312144141950185
  0.2615545296366975  0.9942449368715387  0.6269940564616192
  0.6405874936229026  0.8451191515575331  0.6220154184792435
  0.0979838897597034  0.0596918442066823  0.4729662501654275
  0.6017994976341186  0.3730823407629558  0.9875565030524953
  0.3497067628370658  0.7207334844529427  0.4181283462254086
  0.9013021208558456  0.0874879811822993  0.3802006497899271
  0.9075177851819305  0.6582506839059832  0.3703957135547498
  0.3799792873601149  0.4834593909808831  0.1736243442085481
  0.9590043570894409  0.9312857912304082  0.0440023742949904
  0.3949682773484469  0.7838712932841432  0.9290750369976237
  0.2114868016981788  0.8184002069899563  0.2497484158713021
  0.2375450646078576  0.2491446326181546  0.9499405888580839
  0.4309800984878436  0.1183019654748136  0.7179485752475756
  0.1554917182319642  0.6022614584910997  0.2083549721419189
  0.7779740717907728  0.1476371955864408  0.0854703812455782
  0.4523589592131216  0.2091470175877248  0.9742160779786175
  0.8137591481169579  0.9204279212571151  0.7641092594249272
  0.5517570369981755  0.9653756588680054  0.9077680240441168
  0.6699829017623387  0.2128399963035434  0.8541658202201745
  0.5194925897607803  0.6363301069038627  0.0297479053010576
  0.7829934626025974  0.7936342452089775  0.4613888824624937
  0.0802032564783772  0.3804130504175092  0.8882240328218103
  0.4061816357891672  0.6783039126133019  0.7424033839358586
  0.7378097958976326  0.8342528702136249  0.0330327444379535
  0.7705002893215394  0.6033107195490146  0.8155762522462666
  0.8184755084461628  0.5566885158441153  0.5485653139425608
  0.0670632640037354  0.3983953104106703  0.6211369224603942
  0.2970679627847232  0.0508668620327128  0.2706481832468199
  0.8180846585635848  0.4100708450178630  0.9361108672493543
  0.8386369385426633  0.5684410574149581  0.2015503786033861
  0.6188502315807014  0.9461707882295229  0.2424339264195012
  0.2341350558982285  0.3181586686013844  0.4459682569606400
  0.5016110070186102  0.6665747829719635  0.2631458755436498
  0.0476370429443023  0.6519218717019797  0.7766451422162604
  0.5103298395867952  0.4137321935197065  0.3469260521411925
  0.8274027726797328  0.3229394542995152  0.3388033081043957
  0.9649258123539752  0.0792186726648509  0.8810644198947557
  0.0555359601699692  0.8469628365581627  0.5799135360455594
  0.2169562053709129  0.6427653661747286  0.9488323736699229
  0.3889645387549834  0.4330051554335839  0.9375410211249431
  0.9453970632822930  0.7092521200816222  0.0079001786280770
  0.2432586130296315  0.5584875405489456  0.5620635326288408
  0.6726745902901570  0.0560858670855637  0.6377261488494455
  0.8618228750881940  0.9487385803896942  0.2271346929640288
  0.4390228464589541  0.8861883179414889  0.5349342106511301
  0.2935039523388099  0.2694870530474063  0.1518364378758505
  0.2025031555612458  0.1536457582427673  0.7780578246745549
  0.5685324694566063  0.2015716993955579  0.4492669762383272
  0.4971410750146106  0.5782751595403184  0.5020405177542173
  0.0296113975104220  0.4911780627317555  0.3966360956815151
  0.2202274269827100  0.8847843722578048  0.8172563476092165
  0.0775140756917949  0.1904962605544966  0.2810613364300281
  0.3416951541065671  0.1230247366626926  0.4727543618009591
  0.5428549330831558  0.4226132051280089  0.7142302934768665
  0.1515721059475439  0.0663477378428112  0.0350356237470777
  0.3745472236196576  0.9160855814490745  0.0883537066115139
  0.9658458359672508  0.1631850366297272  0.6022981477794289
  0.5806363304228768  0.2814767997090826  0.1752870550812347
  0.0070894740675129  0.3851949552926612  0.1258517310822427
  0.8002755934143195  0.3352809542635171  0.6627894474056149
 
  0.00000000E+00  0.00000000E+00  0.00000000E+00
  0.00000000E+00  0.00000000E+00  0.00000000E+00
  0.00000000E+00  0.00000000E+00  0.00000000E+00
  0.00000000E+00  0.00000000E+00  0.00000000E+00
  0.00000000E+00  0.00000000E+00  0.00000000E+00
  0.00000000E+00  0.00000000E+00  0.00000000E+00
  0.00000000E+00  0.00000000E+00  0.00000000E+00
  0.00000000E+00  0.00000000E+00  0.00000000E+00
  0.00000000E+00  0.00000000E+00  0.00000000E+00
  0.00000000E+00  0.00000000E+00  0.00000000E+00
  0.00000000E+00  0.00000000E+00  0.00000000E+00
  0.00000000E+00  0.00000000E+00  0.00000000E+00
  0.00000000E+00  0.00000000E+00  0.00000000E+00
  0.00000000E+00  0.00000000E+00  0.00000000E+00
  0.00000000E+00  0.00000000E+00  0.00000000E+00
  0.00000000E+00  0.00000000E+00  0.00000000E+00
  0.00000000E+00  0.00000000E+00  0.00000000E+00
  0.00000000E+00  0.00000000E+00  0.00000000E+00
  0.00000000E+00  0.00000000E+00  0.00000000E+00
  0.00000000E+00  0.00000000E+00  0.00000000E+00
  0.00000000E+00  0.00000000E+00  0.00000000E+00
  0.00000000E+00  0.00000000E+00  0.00000000E+00
  0.00000000E+00  0.00000000E+00  0.00000000E+00
  0.00000000E+00  0.00000000E+00  0.00000000E+00
  0.00000000E+00  0.00000000E+00  0.00000000E+00
  0.00000000E+00  0.00000000E+00  0.00000000E+00
  0.00000000E+00  0.00000000E+00  0.00000000E+00
  0.00000000E+00  0.00000000E+00  0.00000000E+00
  0.00000000E+00  0.00000000E+00  0.00000000E+00
  0.00000000E+00  0.00000000E+00  0.00000000E+00
  0.00000000E+00  0.00000000E+00  0.00000000E+00
  0.00000000E+00  0.00000000E+00  0.00000000E+00
  0.00000000E+00  0.00000000E+00  0.00000000E+00
  0.00000000E+00  0.00000000E+00  0.00000000E+00
  0.00000000E+00  0.00000000E+00  0.00000000E+00
  0.00000000E+00  0.00000000E+00  0.00000000E+00
  0.00000000E+00  0.00000000E+00  0.00000000E+00
  0.00000000E+00  0.00000000E+00  0.00000000E+00
  0.00000000E+00  0.00000000E+00  0.00000000E+00
  0.00000000E+00  0.00000000E+00  0.00000000E+00
  0.00000000E+00  0.00000000E+00  0.00000000E+00
  0.00000000E+00  0.00000000E+00  0.00000000E+00
  0.00000000E+00  0.00000000E+00  0.00000000E+00
  0.00000000E+00  0.00000000E+00  0.00000000E+00
  0.00000000E+00  0.00000000E+00  0.00000000E+00
  0.00000000E+00  0.00000000E+00  0.00000000E+00
  0.00000000E+00  0.00000000E+00  0.00000000E+00
  0.00000000E+00  0.00000000E+00  0.00000000E+00
  0.00000000E+00  0.00000000E+00  0.00000000E+00
  0.00000000E+00  0.00000000E+00  0.00000000E+00
  0.00000000E+00  0.00000000E+00  0.00000000E+00
  0.00000000E+00  0.00000000E+00  0.00000000E+00
  0.00000000E+00  0.00000000E+00  0.00000000E+00
  0.00000000E+00  0.00000000E+00  0.00000000E+00
  0.00000000E+00  0.00000000E+00  0.00000000E+00
  0.00000000E+00  0.00000000E+00  0.00000000E+00
  0.00000000E+00  0.00000000E+00  0.00000000E+00
  0.00000000E+00  0.00000000E+00  0.00000000E+00
  0.00000000E+00  0.00000000E+00  0.00000000E+00
  0.00000000E+00  0.00000000E+00  0.00000000E+00
  0.00000000E+00  0.00000000E+00  0.00000000E+00
  0.00000000E+00  0.00000000E+00  0.00000000E+00
  0.00000000E+00  0.00000000E+00  0.00000000E+00
  0.00000000E+00  0.00000000E+00  0.00000000E+00
  0.00000000E+00  0.00000000E+00  0.00000000E+00
  0.00000000E+00  0.00000000E+00  0.00000000E+00
  0.00000000E+00  0.00000000E+00  0.00000000E+00
  0.00000000E+00  0.00000000E+00  0.00000000E+00
  0.00000000E+00  0.00000000E+00  0.00000000E+00
  0.00000000E+00  0.00000000E+00  0.00000000E+00
  0.00000000E+00  0.00000000E+00  0.00000000E+00
  0.00000000E+00  0.00000000E+00  0.00000000E+00
  0.00000000E+00  0.00000000E+00  0.00000000E+00
  0.00000000E+00  0.00000000E+00  0.00000000E+00
  0.00000000E+00  0.00000000E+00  0.00000000E+00
  0.00000000E+00  0.00000000E+00  0.00000000E+00
  0.00000000E+00  0.00000000E+00  0.00000000E+00
  0.00000000E+00  0.00000000E+00  0.00000000E+00
  0.00000000E+00  0.00000000E+00  0.00000000E+00
  0.00000000E+00  0.00000000E+00  0.00000000E+00
  0.00000000E+00  0.00000000E+00  0.00000000E+00
  0.00000000E+00  0.00000000E+00  0.00000000E+00
  0.00000000E+00  0.00000000E+00  0.00000000E+00
  0.00000000E+00  0.00000000E+00  0.00000000E+00
  0.00000000E+00  0.00000000E+00  0.00000000E+00
  0.00000000E+00  0.00000000E+00  0.00000000E+00
  0.00000000E+00  0.00000000E+00  0.00000000E+00
  0.00000000E+00  0.00000000E+00  0.00000000E+00
  0.00000000E+00  0.00000000E+00  0.00000000E+00
  0.00000000E+00  0.00000000E+00  0.00000000E+00
  0.00000000E+00  0.00000000E+00  0.00000000E+00
  0.00000000E+00  0.00000000E+00  0.00000000E+00
  0.00000000E+00  0.00000000E+00  0.00000000E+00
  0.00000000E+00  0.00000000E+00  0.00000000E+00
  0.00000000E+00  0.00000000E+00  0.00000000E+00
  0.00000000E+00  0.00000000E+00  0.00000000E+00
