  Built with Packmol                    
    1.000000000000000     
    11.1753536604773753   -0.1166517930858187    0.0120581294810944
    -0.1170311365227196   11.2973389065050327    0.2195185158423155
     0.0093436566118138    0.2234231038587250   11.2966266084145079
   Fe   Ge
    48    48
Direct
  0.1745716123711816  0.0660832975111703  0.5353694582302211
  0.9562345359688535  0.9023282913393800  0.9608351608177088
  0.9517769854932965  0.1113935844011991  0.5846338007310692
  0.3500905542746651  0.5060336574421527  0.8525247138063889
  0.4973938681792518  0.3997361123975836  0.5594635350572688
  0.2605331097176986  0.2150022894976971  0.3838018669867012
  0.5880903539680347  0.2262351509918545  0.6616102563074477
  0.2180723151278272  0.6521341919380390  0.5232804486839981
  0.4431276085991982  0.7239359001704386  0.2389523055855776
  0.1575521550159422  0.6425603238013764  0.9048844001291769
  0.3314555882705648  0.3226446366761593  0.1730319867684855
  0.5421430415885524  0.3289363025759542  0.1571837178152435
  0.6765387770434685  0.8243425132069362  0.2475912994732141
  0.0797400879293306  0.2754250282263726  0.2605224882427564
  0.2748329521161494  0.6290848311937722  0.0969602677176056
  0.8888529969876586  0.4082081308812278  0.5160604807035796
  0.6598606927578103  0.2016110617945372  0.2982105173971874
  0.4313918254475198  0.1438665009103772  0.2653129628336046
  0.1053558940927530  0.4554472397315692  0.4041745556193987
  0.4060988876495628  0.3322597974260830  0.7468567090998235
  0.3474425857598078  0.8265565606158276  0.0667976304910241
  0.8137769469857616  0.0041409431320645  0.2395525428137262
  0.9043385711241925  0.8080985061758454  0.3575939229221206
  0.7288665738400582  0.3048679888722390  0.8540318722304434
  0.4215039857458578  0.5071550285555446  0.2432654298481864
  0.5410249749551852  0.3902682959505839  0.3478992193855817
  0.3737620634431664  0.0204581228196545  0.4546382050876403
  0.5298664645087996  0.9951145770629353  0.9660994164648002
  0.4453806477917723  0.1780495395232009  0.0524764271663969
  0.2713451470496864  0.6161454514344982  0.3295891774994928
  0.2171838759907772  0.7892085072750774  0.2360583261586555
  0.6837777025727618  0.5060747364685128  0.4409196035714658
  0.7224136551332307  0.9124501651313182  0.0275047549431449
  0.7380598298714389  0.3982314912492839  0.2424528259851257
  0.5402035267196368  0.3603223807878564  0.9381973171467237
  0.6760480511373217  0.2045100656280496  0.0594530453965945
  0.0861501345372346  0.9459457070081712  0.7115665450667379
  0.4603049351231832  0.6008959784275447  0.4494551860555021
  0.7269225951248330  0.9974816532676485  0.6283879613843766
  0.9985967714336113  0.0908823668992795  0.3547227522338545
  0.5869590342830406  0.0103235920183522  0.3861243622936570
  0.7197742100214484  0.0871855563566868  0.8515542489387755
  0.2143540178664765  0.8717968451743658  0.8641144579513593
  0.1790410791928494  0.4433665978379651  0.0066253669759746
  0.4952472328863919  0.2106241135963174  0.4482921354513039
  0.9866216338930016  0.7353241042423306  0.6045067050757780
  0.8221564431506607  0.5787310542220681  0.1352004192555896
  0.0234693747039287  0.1064474824104025  0.1172294974433967
  0.8043505653756071  0.2086384507640204  0.6822127380619492
  0.9990043455903646  0.9265165629608418  0.5084860715415900
  0.3114797233702902  0.2988533438646215  0.9396638208795380
  0.7770040116043688  0.7142280596840180  0.9510046431484085
  0.9846068139125421  0.7436559294021308  0.8224830711093958
  0.6250895860889614  0.5952601441805569  0.2551091426599612
  0.4872207327916058  0.8136969871951649  0.4215911039310356
  0.3373419351697180  0.2018781016045992  0.5982232612430565
  0.0687871295674967  0.6789423588019474  0.3696202725031910
  0.5520784755525554  0.7941533545970216  0.0665792475618261
  0.3250927439617257  0.4181544813200091  0.4248256543848825
  0.3687266159471179  0.7091646040718445  0.8916474572599569
  0.0527503223009091  0.5282054663204363  0.5955407893358213
  0.6385657005875345  0.8930641905319590  0.8102096805585930
  0.4355144586064768  0.4955158702494060  0.0435030970259689
  0.3548738764576598  0.5478866290333997  0.6449745625016874
  0.7336042721845999  0.8715618134854921  0.4562136228593019
  0.1077308888919646  0.1773345011987999  0.7189276634480066
  0.1233313819827160  0.7961857389979770  0.0465121408486198
  0.8532153369577955  0.4291221188685554  0.7274415039841671
  0.5952854838542265  0.0336153821144762  0.1680545538493945
  0.8504330905981234  0.0887235096698404  0.0097558923358676
  0.1412337171803557  0.4626043497031418  0.7994726981311615
  0.1842061442839764  0.7381054961932563  0.7054707913932674
  0.8465178374678004  0.6306883290614138  0.4830611075932012
  0.8684444534918327  0.2264524752345167  0.2174705416270299
  0.8893250632835432  0.9953729774086284  0.7674231484802974
  0.1832973179713662  0.4643904390912610  0.2114104605164684
  0.7285975371361886  0.4229241474523491  0.0289721488150718
  0.2258096568742758  0.1368485746146462  0.1807514895446687
  0.0638836937837581  0.9304202532845949  0.2441143676532533
  0.7955739911645878  0.0991772532722948  0.4396729239452810
  0.0575820958625428  0.2597517392050648  0.4746691854751148
  0.8748724624306448  0.7970361133302220  0.1449559790249140
  0.1057743510882929  0.0522844194053818  0.9189545525260812
  0.4042761425537833  0.9266955873249287  0.7813431411918401
  0.6939418735170833  0.3055498204061564  0.4858604784682683
  0.9288525345114920  0.4723888559268161  0.2942924025312408
  0.3629792237437712  0.9411839070039605  0.2518100884672876
  0.5956679689640012  0.4490087587140081  0.7513164937774874
  0.5239235229469230  0.0319593127000601  0.6036327692315666
  0.2384402461276309  0.8584419146569786  0.4846989471477485
  0.7805748489188034  0.7760794179550885  0.6668770385338405
  0.6150404161000154  0.6231181720466878  0.5987572628879718
  0.3201156131656617  0.0186501485469108  0.9830756231206266
  0.5261049961065538  0.1721271649492309  0.8518601957013345
  0.0068580962999079  0.5618755768773696  0.0347491405191676
  0.0578919017938375  0.2855180635064727  0.0248797779413792
 
  0.00000000E+00  0.00000000E+00  0.00000000E+00
  0.00000000E+00  0.00000000E+00  0.00000000E+00
  0.00000000E+00  0.00000000E+00  0.00000000E+00
  0.00000000E+00  0.00000000E+00  0.00000000E+00
  0.00000000E+00  0.00000000E+00  0.00000000E+00
  0.00000000E+00  0.00000000E+00  0.00000000E+00
  0.00000000E+00  0.00000000E+00  0.00000000E+00
  0.00000000E+00  0.00000000E+00  0.00000000E+00
  0.00000000E+00  0.00000000E+00  0.00000000E+00
  0.00000000E+00  0.00000000E+00  0.00000000E+00
  0.00000000E+00  0.00000000E+00  0.00000000E+00
  0.00000000E+00  0.00000000E+00  0.00000000E+00
  0.00000000E+00  0.00000000E+00  0.00000000E+00
  0.00000000E+00  0.00000000E+00  0.00000000E+00
  0.00000000E+00  0.00000000E+00  0.00000000E+00
  0.00000000E+00  0.00000000E+00  0.00000000E+00
  0.00000000E+00  0.00000000E+00  0.00000000E+00
  0.00000000E+00  0.00000000E+00  0.00000000E+00
  0.00000000E+00  0.00000000E+00  0.00000000E+00
  0.00000000E+00  0.00000000E+00  0.00000000E+00
  0.00000000E+00  0.00000000E+00  0.00000000E+00
  0.00000000E+00  0.00000000E+00  0.00000000E+00
  0.00000000E+00  0.00000000E+00  0.00000000E+00
  0.00000000E+00  0.00000000E+00  0.00000000E+00
  0.00000000E+00  0.00000000E+00  0.00000000E+00
  0.00000000E+00  0.00000000E+00  0.00000000E+00
  0.00000000E+00  0.00000000E+00  0.00000000E+00
  0.00000000E+00  0.00000000E+00  0.00000000E+00
  0.00000000E+00  0.00000000E+00  0.00000000E+00
  0.00000000E+00  0.00000000E+00  0.00000000E+00
  0.00000000E+00  0.00000000E+00  0.00000000E+00
  0.00000000E+00  0.00000000E+00  0.00000000E+00
  0.00000000E+00  0.00000000E+00  0.00000000E+00
  0.00000000E+00  0.00000000E+00  0.00000000E+00
  0.00000000E+00  0.00000000E+00  0.00000000E+00
  0.00000000E+00  0.00000000E+00  0.00000000E+00
  0.00000000E+00  0.00000000E+00  0.00000000E+00
  0.00000000E+00  0.00000000E+00  0.00000000E+00
  0.00000000E+00  0.00000000E+00  0.00000000E+00
  0.00000000E+00  0.00000000E+00  0.00000000E+00
  0.00000000E+00  0.00000000E+00  0.00000000E+00
  0.00000000E+00  0.00000000E+00  0.00000000E+00
  0.00000000E+00  0.00000000E+00  0.00000000E+00
  0.00000000E+00  0.00000000E+00  0.00000000E+00
  0.00000000E+00  0.00000000E+00  0.00000000E+00
  0.00000000E+00  0.00000000E+00  0.00000000E+00
  0.00000000E+00  0.00000000E+00  0.00000000E+00
  0.00000000E+00  0.00000000E+00  0.00000000E+00
  0.00000000E+00  0.00000000E+00  0.00000000E+00
  0.00000000E+00  0.00000000E+00  0.00000000E+00
  0.00000000E+00  0.00000000E+00  0.00000000E+00
  0.00000000E+00  0.00000000E+00  0.00000000E+00
  0.00000000E+00  0.00000000E+00  0.00000000E+00
  0.00000000E+00  0.00000000E+00  0.00000000E+00
  0.00000000E+00  0.00000000E+00  0.00000000E+00
  0.00000000E+00  0.00000000E+00  0.00000000E+00
  0.00000000E+00  0.00000000E+00  0.00000000E+00
  0.00000000E+00  0.00000000E+00  0.00000000E+00
  0.00000000E+00  0.00000000E+00  0.00000000E+00
  0.00000000E+00  0.00000000E+00  0.00000000E+00
  0.00000000E+00  0.00000000E+00  0.00000000E+00
  0.00000000E+00  0.00000000E+00  0.00000000E+00
  0.00000000E+00  0.00000000E+00  0.00000000E+00
  0.00000000E+00  0.00000000E+00  0.00000000E+00
  0.00000000E+00  0.00000000E+00  0.00000000E+00
  0.00000000E+00  0.00000000E+00  0.00000000E+00
  0.00000000E+00  0.00000000E+00  0.00000000E+00
  0.00000000E+00  0.00000000E+00  0.00000000E+00
  0.00000000E+00  0.00000000E+00  0.00000000E+00
  0.00000000E+00  0.00000000E+00  0.00000000E+00
  0.00000000E+00  0.00000000E+00  0.00000000E+00
  0.00000000E+00  0.00000000E+00  0.00000000E+00
  0.00000000E+00  0.00000000E+00  0.00000000E+00
  0.00000000E+00  0.00000000E+00  0.00000000E+00
  0.00000000E+00  0.00000000E+00  0.00000000E+00
  0.00000000E+00  0.00000000E+00  0.00000000E+00
  0.00000000E+00  0.00000000E+00  0.00000000E+00
  0.00000000E+00  0.00000000E+00  0.00000000E+00
  0.00000000E+00  0.00000000E+00  0.00000000E+00
  0.00000000E+00  0.00000000E+00  0.00000000E+00
  0.00000000E+00  0.00000000E+00  0.00000000E+00
  0.00000000E+00  0.00000000E+00  0.00000000E+00
  0.00000000E+00  0.00000000E+00  0.00000000E+00
  0.00000000E+00  0.00000000E+00  0.00000000E+00
  0.00000000E+00  0.00000000E+00  0.00000000E+00
  0.00000000E+00  0.00000000E+00  0.00000000E+00
  0.00000000E+00  0.00000000E+00  0.00000000E+00
  0.00000000E+00  0.00000000E+00  0.00000000E+00
  0.00000000E+00  0.00000000E+00  0.00000000E+00
  0.00000000E+00  0.00000000E+00  0.00000000E+00
  0.00000000E+00  0.00000000E+00  0.00000000E+00
  0.00000000E+00  0.00000000E+00  0.00000000E+00
  0.00000000E+00  0.00000000E+00  0.00000000E+00
  0.00000000E+00  0.00000000E+00  0.00000000E+00
  0.00000000E+00  0.00000000E+00  0.00000000E+00
  0.00000000E+00  0.00000000E+00  0.00000000E+00
