  Built with Packmol                    
   1.00000000000000     
    11.0367751249250130   -0.1251127073824055   -0.0218734314009674
    -0.1267303923889691   11.4632335002433532    0.2158605724040816
    -0.0197991747517232    0.2231343301907626   11.3263066022021768
   Fe   Ge
    48    48
Direct
  0.1739361614570517  0.0727406188450194  0.5369535264666430
  0.9465555560374540  0.9136721486888310  0.9620796975882069
  0.9521813095234198  0.1168769359012731  0.5812902807747730
  0.3374012689585759  0.5051061589752600  0.8497323856475056
  0.4999509228928880  0.3900978024845406  0.5544322414444672
  0.2724148563102102  0.2286436898752570  0.3847979653437786
  0.5876391940279767  0.2172843619285682  0.6605291605128979
  0.2296478926030718  0.6660756298784161  0.5307909585943377
  0.4404543373349005  0.7196723413349059  0.2406070026938355
  0.1496661744788077  0.6455810168719198  0.9111083476351273
  0.3232845630826294  0.3280565127653753  0.1749068375725287
  0.5440180960606360  0.3461965562938412  0.1474557180818909
  0.6818616731255417  0.7776002592604931  0.2583138837524787
  0.0954586427228358  0.2815147669989944  0.2485115474772577
  0.2636467767255364  0.6372893420062254  0.1096390585611574
  0.8964354018243896  0.4063119001977994  0.5199016771637732
  0.6665960180612972  0.1919814726497371  0.2936055862506115
  0.4465304065987000  0.1573183438781015  0.2680251265340687
  0.0940494536175595  0.4606882784295154  0.4127477532570306
  0.4007072152626927  0.3361299885996832  0.7490958991810421
  0.3518819431869433  0.8318063464550062  0.0702335179841391
  0.8214548145088211  0.9986048581837826  0.2321113683565702
  0.9260771464508512  0.8216414177831033  0.3550002481354562
  0.7340729870883775  0.2952919903740696  0.8578467087958216
  0.4094653079758393  0.5112618186488663  0.2373949911016942
  0.5144756852594546  0.3657719611264241  0.3477583523077523
  0.3600761258210965  0.0365940347644785  0.4504444160608754
  0.5271338162397741  0.9987051073544979  0.9685144034470897
  0.4277121711189297  0.1783798614901379  0.0556529326268898
  0.2720380257700299  0.6231655520093915  0.3356464749100665
  0.2136232586570430  0.7956272796279453  0.2396500485774471
  0.7113235699940573  0.5126279045381749  0.4165102058561129
  0.7310480232572915  0.9138278338624464  0.0243471211941181
  0.7362979358183822  0.3813701192485896  0.2391589393242680
  0.5376243072469638  0.3648909911425955  0.9360392786593772
  0.6587360800757185  0.2023583476691300  0.0496035822922601
  0.0919351710506426  0.9490522769830876  0.7075726641932759
  0.4604127023775890  0.5910783242701170  0.4541867510141364
  0.7197782472459855  0.9994679319391115  0.6217669041133980
  0.0016794360120760  0.0888902820912551  0.3494305813637144
  0.5687553200029221  0.9829914377386918  0.3721867505070652
  0.7138644630381581  0.0823261331125964  0.8415392672999923
  0.2106697240960760  0.8738467816198079  0.8674659989914920
  0.1742009946580910  0.4479560316237088  0.0154584735393370
  0.5270769873232524  0.1764644054989246  0.4645591159804293
  0.9878308897216028  0.7454800567844756  0.6011617280625849
  0.8127565968443076  0.5789126861099668  0.1360227621611586
  0.0214639134680454  0.1077496381231333  0.1103037283334057
  0.8061322691618109  0.2144952657472370  0.6780042009125161
  0.0054016432549650  0.9348662331186000  0.5073487326163951
  0.3036649610105048  0.3041821751894217  0.9382319513501216
  0.7725620719424112  0.7090325516532384  0.9497202831685693
  0.9725193071642404  0.7429295497764997  0.8216882953777063
  0.6123337339758801  0.5731964817913928  0.2363600111468816
  0.5143911010241012  0.7851530644843353  0.4213110325524713
  0.3448923393474928  0.2059006203506509  0.5959046826766826
  0.0764711859645543  0.6844414626598598  0.3827638671010484
  0.5569141712934120  0.8057171102503118  0.0779187649321747
  0.3141300094439469  0.4304378651770169  0.4297808665296433
  0.3636031774162888  0.7053222719967849  0.9052651728697234
  0.0514783808651663  0.5449499335021497  0.5971539129716262
  0.6400066422266333  0.8837884459385736  0.8187415416842718
  0.4227654402322495  0.4993666838698186  0.0378256191718341
  0.3618526043303282  0.5503584648979590  0.6477699843114931
  0.7436876301228312  0.8798592916133453  0.4392540432688939
  0.1144625209656183  0.1760150175618100  0.7183526834238186
  0.1207874387804536  0.8003266065780759  0.0456143994531060
  0.8748175282850023  0.4203834605810794  0.7485339517572053
  0.6042266982442851  0.0289221775354961  0.1665730633368263
  0.8428976958115365  0.1034558762111251  0.0045406530177295
  0.1221451340496685  0.4704241380080654  0.8079452517220679
  0.1826525338479686  0.7374049022345202  0.7147881055153106
  0.8504772450648082  0.6527614637100573  0.4695395021196754
  0.8772896811133160  0.2224745100521406  0.2191356858064071
  0.8889363667933038  0.9947067348861243  0.7566140030868744
  0.1734226092673470  0.4764411819475817  0.2204092351534964
  0.7348579386199793  0.4195949857901292  0.0240911114093701
  0.2309864303458927  0.1324147216412210  0.1869918938426514
  0.0618734427514534  0.9381069506298328  0.2272440898559697
  0.7932932301747946  0.1013353537290727  0.4376805559758859
  0.0620923416052003  0.2594931798601577  0.4637053568171898
  0.8709799347950167  0.7863176280570547  0.1494755781742969
  0.1027910801168172  0.0563330747450899  0.9148697156120439
  0.4071248117617072  0.9211945360801379  0.7947633218104615
  0.6951994965098381  0.3165532360987862  0.4797338375712425
  0.9164884886395416  0.4839526392715982  0.3011435668135048
  0.3796835234782753  0.9356145979956323  0.2627452159688421
  0.6040529700410786  0.4299556948751438  0.7455416798094608
  0.5087351892481918  0.0026666162237410  0.6011116193377313
  0.2544440259987165  0.8681648041823198  0.5106942449608081
  0.7734939992448583  0.7818408194471935  0.6540119263559465
  0.6278114444480157  0.6018971116865247  0.5902914684065390
  0.3138088435908606  0.0155532766294755  0.9923333542312675
  0.5187492958584421  0.1743504268045856  0.8553695129317240
  0.0004245828890910  0.5659892844266813  0.0416144046411961
  0.0564643494360671  0.2873151055112757  0.0251091112375117
 
  0.00000000E+00  0.00000000E+00  0.00000000E+00
  0.00000000E+00  0.00000000E+00  0.00000000E+00
  0.00000000E+00  0.00000000E+00  0.00000000E+00
  0.00000000E+00  0.00000000E+00  0.00000000E+00
  0.00000000E+00  0.00000000E+00  0.00000000E+00
  0.00000000E+00  0.00000000E+00  0.00000000E+00
  0.00000000E+00  0.00000000E+00  0.00000000E+00
  0.00000000E+00  0.00000000E+00  0.00000000E+00
  0.00000000E+00  0.00000000E+00  0.00000000E+00
  0.00000000E+00  0.00000000E+00  0.00000000E+00
  0.00000000E+00  0.00000000E+00  0.00000000E+00
  0.00000000E+00  0.00000000E+00  0.00000000E+00
  0.00000000E+00  0.00000000E+00  0.00000000E+00
  0.00000000E+00  0.00000000E+00  0.00000000E+00
  0.00000000E+00  0.00000000E+00  0.00000000E+00
  0.00000000E+00  0.00000000E+00  0.00000000E+00
  0.00000000E+00  0.00000000E+00  0.00000000E+00
  0.00000000E+00  0.00000000E+00  0.00000000E+00
  0.00000000E+00  0.00000000E+00  0.00000000E+00
  0.00000000E+00  0.00000000E+00  0.00000000E+00
  0.00000000E+00  0.00000000E+00  0.00000000E+00
  0.00000000E+00  0.00000000E+00  0.00000000E+00
  0.00000000E+00  0.00000000E+00  0.00000000E+00
  0.00000000E+00  0.00000000E+00  0.00000000E+00
  0.00000000E+00  0.00000000E+00  0.00000000E+00
  0.00000000E+00  0.00000000E+00  0.00000000E+00
  0.00000000E+00  0.00000000E+00  0.00000000E+00
  0.00000000E+00  0.00000000E+00  0.00000000E+00
  0.00000000E+00  0.00000000E+00  0.00000000E+00
  0.00000000E+00  0.00000000E+00  0.00000000E+00
  0.00000000E+00  0.00000000E+00  0.00000000E+00
  0.00000000E+00  0.00000000E+00  0.00000000E+00
  0.00000000E+00  0.00000000E+00  0.00000000E+00
  0.00000000E+00  0.00000000E+00  0.00000000E+00
  0.00000000E+00  0.00000000E+00  0.00000000E+00
  0.00000000E+00  0.00000000E+00  0.00000000E+00
  0.00000000E+00  0.00000000E+00  0.00000000E+00
  0.00000000E+00  0.00000000E+00  0.00000000E+00
  0.00000000E+00  0.00000000E+00  0.00000000E+00
  0.00000000E+00  0.00000000E+00  0.00000000E+00
  0.00000000E+00  0.00000000E+00  0.00000000E+00
  0.00000000E+00  0.00000000E+00  0.00000000E+00
  0.00000000E+00  0.00000000E+00  0.00000000E+00
  0.00000000E+00  0.00000000E+00  0.00000000E+00
  0.00000000E+00  0.00000000E+00  0.00000000E+00
  0.00000000E+00  0.00000000E+00  0.00000000E+00
  0.00000000E+00  0.00000000E+00  0.00000000E+00
  0.00000000E+00  0.00000000E+00  0.00000000E+00
  0.00000000E+00  0.00000000E+00  0.00000000E+00
  0.00000000E+00  0.00000000E+00  0.00000000E+00
  0.00000000E+00  0.00000000E+00  0.00000000E+00
  0.00000000E+00  0.00000000E+00  0.00000000E+00
  0.00000000E+00  0.00000000E+00  0.00000000E+00
  0.00000000E+00  0.00000000E+00  0.00000000E+00
  0.00000000E+00  0.00000000E+00  0.00000000E+00
  0.00000000E+00  0.00000000E+00  0.00000000E+00
  0.00000000E+00  0.00000000E+00  0.00000000E+00
  0.00000000E+00  0.00000000E+00  0.00000000E+00
  0.00000000E+00  0.00000000E+00  0.00000000E+00
  0.00000000E+00  0.00000000E+00  0.00000000E+00
  0.00000000E+00  0.00000000E+00  0.00000000E+00
  0.00000000E+00  0.00000000E+00  0.00000000E+00
  0.00000000E+00  0.00000000E+00  0.00000000E+00
  0.00000000E+00  0.00000000E+00  0.00000000E+00
  0.00000000E+00  0.00000000E+00  0.00000000E+00
  0.00000000E+00  0.00000000E+00  0.00000000E+00
  0.00000000E+00  0.00000000E+00  0.00000000E+00
  0.00000000E+00  0.00000000E+00  0.00000000E+00
  0.00000000E+00  0.00000000E+00  0.00000000E+00
  0.00000000E+00  0.00000000E+00  0.00000000E+00
  0.00000000E+00  0.00000000E+00  0.00000000E+00
  0.00000000E+00  0.00000000E+00  0.00000000E+00
  0.00000000E+00  0.00000000E+00  0.00000000E+00
  0.00000000E+00  0.00000000E+00  0.00000000E+00
  0.00000000E+00  0.00000000E+00  0.00000000E+00
  0.00000000E+00  0.00000000E+00  0.00000000E+00
  0.00000000E+00  0.00000000E+00  0.00000000E+00
  0.00000000E+00  0.00000000E+00  0.00000000E+00
  0.00000000E+00  0.00000000E+00  0.00000000E+00
  0.00000000E+00  0.00000000E+00  0.00000000E+00
  0.00000000E+00  0.00000000E+00  0.00000000E+00
  0.00000000E+00  0.00000000E+00  0.00000000E+00
  0.00000000E+00  0.00000000E+00  0.00000000E+00
  0.00000000E+00  0.00000000E+00  0.00000000E+00
  0.00000000E+00  0.00000000E+00  0.00000000E+00
  0.00000000E+00  0.00000000E+00  0.00000000E+00
  0.00000000E+00  0.00000000E+00  0.00000000E+00
  0.00000000E+00  0.00000000E+00  0.00000000E+00
  0.00000000E+00  0.00000000E+00  0.00000000E+00
  0.00000000E+00  0.00000000E+00  0.00000000E+00
  0.00000000E+00  0.00000000E+00  0.00000000E+00
  0.00000000E+00  0.00000000E+00  0.00000000E+00
  0.00000000E+00  0.00000000E+00  0.00000000E+00
  0.00000000E+00  0.00000000E+00  0.00000000E+00
  0.00000000E+00  0.00000000E+00  0.00000000E+00
  0.00000000E+00  0.00000000E+00  0.00000000E+00
