  Built with Packmol                    
   1.00000000000000     
    11.2348541151340058    0.1408544117518981    0.2269817410158435
     0.1421599332354922   11.1738624806546252    0.1592580483781415
     0.2275347854604889    0.1518838792166384   11.3154002111762821
   Fe   Ge
    48    48
Direct
  0.1420546796076394  0.6407140105038849  0.4057425509564965
  0.9182617370941841  0.1438332068023698  0.6076064043893652
  0.9157810249395482  0.9079433842692808  0.6584487069855882
  0.4190840608840674  0.3873677183471997  0.7328332431554259
  0.5174561992551077  0.0433839898094703  0.0955062884800384
  0.1426497090663119  0.0922573825784809  0.7217873938345178
  0.0494035574488976  0.3055500910128544  0.2323349607435361
  0.7358101653466065  0.5439126950054316  0.0613282175632790
  0.7459744091464984  0.7978220050818976  0.5583848144201866
  0.7011715405042693  0.9249983637102588  0.2079033160056625
  0.4595281546063816  0.0421721639660504  0.8707546184589745
  0.6687494930779181  0.0050438625105187  0.8221251699628098
  0.9899315882844419  0.7772561685206298  0.4980271355541035
  0.9790784289637671  0.2714052159652596  0.7749760089720752
  0.7343155609173948  0.7705653320931987  0.0083134260355422
  0.7295279143553159  0.2253817535453138  0.5232900986018763
  0.7277479546821297  0.5418867050500964  0.7094262790176487
  0.5383775618192672  0.5697999349533802  0.3733827403091112
  0.7472116632951398  0.5369779673074362  0.3064494592501745
  0.1924610194512866  0.8861764958611715  0.5742494565099960
  0.5781616825080533  0.1558135378764334  0.3211513484460866
  0.0251591056900153  0.7823906353201480  0.2768132237036482
  0.3340963340178504  0.6923492246925633  0.4965862068690754
  0.8637846991737064  0.3791844148437917  0.4088347603935887
  0.3927237441186264  0.9274165520282978  0.4668876802842163
  0.7124912062945938  0.1397221810649114  0.1442422942236803
  0.6290210240224141  0.1756079175409226  0.9431034719725204
  0.9884065121726664  0.3259094631476387  0.0129572433804697
  0.3302213899562929  0.5189334481702090  0.1253585519949638
  0.5735068770829272  0.9037936273734672  0.6439954933136249
  0.9675434508874119  0.5458293551090989  0.0149537123647789
  0.9169834883816037  0.9215395332551353  0.1340732781769916
  0.8271354060607123  0.4175715541004266  0.8638365737273332
  0.4371174515257223  0.2516853498454310  0.9278990735764765
  0.3037285685161351  0.0012475759675326  0.2291674268717117
  0.6126755713392384  0.3887803940740540  0.8534409711639270
  0.4616000435984091  0.5955917081819138  0.7532810239735142
  0.3751106194259677  0.0150355517411072  0.6755299345930794
  0.5424210892322137  0.1840195683101982  0.7294653711387156
  0.8403929035844726  0.6323789278159495  0.8731183345909841
  0.8597916482904893  0.1668040768655530  0.9563866845073505
  0.8729655334871822  0.6767301643307562  0.1701694307277606
  0.1707757179442950  0.7981211898765181  0.9583738202242813
  0.3447346072431046  0.9156823125391185  0.0388981106540740
  0.4444209851698204  0.3767609100165004  0.2985202236202582
  0.0612206075778730  0.6566534938594017  0.8196029451058635
  0.7587434177845083  0.2139821932161965  0.7609281466592961
  0.9671864177724530  0.1915975758264352  0.4021218043158115
  0.0890142836926273  0.8631214022982903  0.7640514832066359
  0.0223485292127563  0.9920750828345533  0.4824827564827245
  0.7414755249583536  0.0258629041527811  0.6103900796334116
  0.2483173244452246  0.0925182803989983  0.5302831058143411
  0.5039711955595934  0.9419530730869141  0.2839420367025483
  0.6152035000965057  0.3739290451401303  0.6387012254976696
  0.9060432135733336  0.6691383158205824  0.6672323674562080
  0.8863656072652688  0.4358151950047002  0.1857546026976706
  0.1589166652324039  0.4244384290084824  0.0607392741603405
  0.8602168026232988  0.3786744467567260  0.6284307521323598
  0.0482717148868801  0.4531330557467328  0.8274061316407284
  0.9280650651194122  0.0510125873918383  0.8029569938771886
  0.8295276710859270  0.8590975424882856  0.3614451321463861
  0.4066866493944516  0.4658805048148551  0.9343815637876745
  0.9583354016600794  0.7693683846645030  0.9818717358068199
  0.3688226524330034  0.1709597916612466  0.3474442240770514
  0.3062783856071007  0.1300722378419366  0.0464497817518179
  0.6212481159007694  0.6107511531643937  0.8954706180605214
  0.3175189296800198  0.2078302978739686  0.7533544591481274
  0.7365846453015763  0.3317029134852518  0.0407845267395928
  0.6544783239071350  0.7153755073822197  0.2232263549014704
  0.1489901274498138  0.6675103214857643  0.6165283851455072
  0.5444782354716509  0.7690209091183178  0.4743938701187531
  0.1020044496078683  0.1674997738460320  0.9219266316612860
  0.0777059779245448  0.4237207357198898  0.4195785590821544
  0.5306285565048299  0.0942010584503450  0.5303344516072812
  0.5139832264099553  0.2592672256702002  0.1331377504568820
  0.9399583398097491  0.1462251320659149  0.1511241466027045
  0.4119892789950228  0.4889533081948727  0.5433668344063278
  0.6984430065558982  0.5895394151085966  0.5073526442568124
  0.5463837315790059  0.5090414702816588  0.1581770591460412
  0.2672978580438397  0.6459651075982649  0.8410576267821170
  0.1353894006247529  0.9149800321949257  0.1361786694458686
  0.3858023413153546  0.7987687304698738  0.6723067281614092
  0.5415917771704954  0.8595433336090323  0.9748468529199030
  0.9220332961466156  0.6154994726525871  0.3840797587408673
  0.3368880385513080  0.5846862337130787  0.3182235920006349
  0.6370910511700316  0.3611301075395232  0.3815743818348025
  0.2439225924765225  0.3659658593483570  0.2642972795926966
  0.2638875462123877  0.9588655028937225  0.8507232324517275
  0.7385535276205744  0.8044614707031315  0.7751422853626124
  0.3417621604864962  0.7117123512152332  0.0616871820893934
  0.2205212957291423  0.8426672467315797  0.3635974812233442
  0.1444263544357014  0.1251865457579981  0.2834087356280079
  0.7552240285288363  0.9854451775118989  0.0063626304986641
  0.7841008615995619  0.1095038994462669  0.3419955858357895
  0.0956276992303202  0.2701828001903763  0.5914996657703213
  0.1171801902218874  0.6473313669283414  0.1342947665450822
 
  0.00000000E+00  0.00000000E+00  0.00000000E+00
  0.00000000E+00  0.00000000E+00  0.00000000E+00
  0.00000000E+00  0.00000000E+00  0.00000000E+00
  0.00000000E+00  0.00000000E+00  0.00000000E+00
  0.00000000E+00  0.00000000E+00  0.00000000E+00
  0.00000000E+00  0.00000000E+00  0.00000000E+00
  0.00000000E+00  0.00000000E+00  0.00000000E+00
  0.00000000E+00  0.00000000E+00  0.00000000E+00
  0.00000000E+00  0.00000000E+00  0.00000000E+00
  0.00000000E+00  0.00000000E+00  0.00000000E+00
  0.00000000E+00  0.00000000E+00  0.00000000E+00
  0.00000000E+00  0.00000000E+00  0.00000000E+00
  0.00000000E+00  0.00000000E+00  0.00000000E+00
  0.00000000E+00  0.00000000E+00  0.00000000E+00
  0.00000000E+00  0.00000000E+00  0.00000000E+00
  0.00000000E+00  0.00000000E+00  0.00000000E+00
  0.00000000E+00  0.00000000E+00  0.00000000E+00
  0.00000000E+00  0.00000000E+00  0.00000000E+00
  0.00000000E+00  0.00000000E+00  0.00000000E+00
  0.00000000E+00  0.00000000E+00  0.00000000E+00
  0.00000000E+00  0.00000000E+00  0.00000000E+00
  0.00000000E+00  0.00000000E+00  0.00000000E+00
  0.00000000E+00  0.00000000E+00  0.00000000E+00
  0.00000000E+00  0.00000000E+00  0.00000000E+00
  0.00000000E+00  0.00000000E+00  0.00000000E+00
  0.00000000E+00  0.00000000E+00  0.00000000E+00
  0.00000000E+00  0.00000000E+00  0.00000000E+00
  0.00000000E+00  0.00000000E+00  0.00000000E+00
  0.00000000E+00  0.00000000E+00  0.00000000E+00
  0.00000000E+00  0.00000000E+00  0.00000000E+00
  0.00000000E+00  0.00000000E+00  0.00000000E+00
  0.00000000E+00  0.00000000E+00  0.00000000E+00
  0.00000000E+00  0.00000000E+00  0.00000000E+00
  0.00000000E+00  0.00000000E+00  0.00000000E+00
  0.00000000E+00  0.00000000E+00  0.00000000E+00
  0.00000000E+00  0.00000000E+00  0.00000000E+00
  0.00000000E+00  0.00000000E+00  0.00000000E+00
  0.00000000E+00  0.00000000E+00  0.00000000E+00
  0.00000000E+00  0.00000000E+00  0.00000000E+00
  0.00000000E+00  0.00000000E+00  0.00000000E+00
  0.00000000E+00  0.00000000E+00  0.00000000E+00
  0.00000000E+00  0.00000000E+00  0.00000000E+00
  0.00000000E+00  0.00000000E+00  0.00000000E+00
  0.00000000E+00  0.00000000E+00  0.00000000E+00
  0.00000000E+00  0.00000000E+00  0.00000000E+00
  0.00000000E+00  0.00000000E+00  0.00000000E+00
  0.00000000E+00  0.00000000E+00  0.00000000E+00
  0.00000000E+00  0.00000000E+00  0.00000000E+00
  0.00000000E+00  0.00000000E+00  0.00000000E+00
  0.00000000E+00  0.00000000E+00  0.00000000E+00
  0.00000000E+00  0.00000000E+00  0.00000000E+00
  0.00000000E+00  0.00000000E+00  0.00000000E+00
  0.00000000E+00  0.00000000E+00  0.00000000E+00
  0.00000000E+00  0.00000000E+00  0.00000000E+00
  0.00000000E+00  0.00000000E+00  0.00000000E+00
  0.00000000E+00  0.00000000E+00  0.00000000E+00
  0.00000000E+00  0.00000000E+00  0.00000000E+00
  0.00000000E+00  0.00000000E+00  0.00000000E+00
  0.00000000E+00  0.00000000E+00  0.00000000E+00
  0.00000000E+00  0.00000000E+00  0.00000000E+00
  0.00000000E+00  0.00000000E+00  0.00000000E+00
  0.00000000E+00  0.00000000E+00  0.00000000E+00
  0.00000000E+00  0.00000000E+00  0.00000000E+00
  0.00000000E+00  0.00000000E+00  0.00000000E+00
  0.00000000E+00  0.00000000E+00  0.00000000E+00
  0.00000000E+00  0.00000000E+00  0.00000000E+00
  0.00000000E+00  0.00000000E+00  0.00000000E+00
  0.00000000E+00  0.00000000E+00  0.00000000E+00
  0.00000000E+00  0.00000000E+00  0.00000000E+00
  0.00000000E+00  0.00000000E+00  0.00000000E+00
  0.00000000E+00  0.00000000E+00  0.00000000E+00
  0.00000000E+00  0.00000000E+00  0.00000000E+00
  0.00000000E+00  0.00000000E+00  0.00000000E+00
  0.00000000E+00  0.00000000E+00  0.00000000E+00
  0.00000000E+00  0.00000000E+00  0.00000000E+00
  0.00000000E+00  0.00000000E+00  0.00000000E+00
  0.00000000E+00  0.00000000E+00  0.00000000E+00
  0.00000000E+00  0.00000000E+00  0.00000000E+00
  0.00000000E+00  0.00000000E+00  0.00000000E+00
  0.00000000E+00  0.00000000E+00  0.00000000E+00
  0.00000000E+00  0.00000000E+00  0.00000000E+00
  0.00000000E+00  0.00000000E+00  0.00000000E+00
  0.00000000E+00  0.00000000E+00  0.00000000E+00
  0.00000000E+00  0.00000000E+00  0.00000000E+00
  0.00000000E+00  0.00000000E+00  0.00000000E+00
  0.00000000E+00  0.00000000E+00  0.00000000E+00
  0.00000000E+00  0.00000000E+00  0.00000000E+00
  0.00000000E+00  0.00000000E+00  0.00000000E+00
  0.00000000E+00  0.00000000E+00  0.00000000E+00
  0.00000000E+00  0.00000000E+00  0.00000000E+00
  0.00000000E+00  0.00000000E+00  0.00000000E+00
  0.00000000E+00  0.00000000E+00  0.00000000E+00
  0.00000000E+00  0.00000000E+00  0.00000000E+00
  0.00000000E+00  0.00000000E+00  0.00000000E+00
  0.00000000E+00  0.00000000E+00  0.00000000E+00
  0.00000000E+00  0.00000000E+00  0.00000000E+00
