  Built with Packmol                    
   1.00000000000000     
    11.1858784671537812    0.0973629135186706    0.2415012770597903
     0.0943428226391637   11.2516731818747679    0.1116959930806887
     0.2393395317835328    0.1040486674605195   11.2939142831235291
   Fe   Ge
    48    48
Direct
  0.1386481779994142  0.6358135674786851  0.3925370489053961
  0.9087324882879386  0.1493658990724285  0.6118468669537975
  0.9074760504797013  0.9135944836126981  0.6628784722959224
  0.4254437353281304  0.3834997910093136  0.7424506262409452
  0.5129449209347214  0.0403593357964667  0.0971829647972839
  0.1481328950095175  0.0899108536058719  0.7254091371299296
  0.0408832569806563  0.2999289083805294  0.2326690225819874
  0.7318783693167177  0.5402767770675041  0.0684664722309662
  0.7534465001221662  0.8034769622566600  0.5560791557325473
  0.6883368308912523  0.9225938885231812  0.1970221964842267
  0.4802806736639695  0.0230556266583122  0.8742038132511141
  0.7255804192334807  0.0400996308788280  0.7839167620701559
  0.9818493619808066  0.7874286374404704  0.5002819286084161
  0.9822959544932814  0.2761953320143320  0.7706218062662131
  0.7286853447548651  0.7669707651558895  0.0158587346345342
  0.7273373190447927  0.2200031240265190  0.5088702494808430
  0.7265685623605904  0.5244170647528250  0.7170799313996028
  0.5383688473018609  0.5727949569458417  0.3811952501481599
  0.7484382631332096  0.5387623093310623  0.3099294351114210
  0.1941347832824363  0.8923506116408504  0.5771936291409432
  0.5791815527789481  0.1667841678212980  0.3160419370100200
  0.0210787103881316  0.7865142944534540  0.2788618843172657
  0.3380494217952048  0.6990451154321562  0.5094315535942968
  0.8627308159732223  0.3772673147221681  0.4010863199387558
  0.3920278231720573  0.9129592139087137  0.4744426414960969
  0.7126466018828879  0.1343388983904177  0.1334511125207456
  0.6253646223653888  0.1705536219903436  0.9367367891895810
  0.9887175054620059  0.3283827410241145  0.0069180284132173
  0.3198038476644740  0.5238339617077372  0.1363656359507956
  0.5805014364091008  0.9179451510877072  0.6584674164422850
  0.9749431700820566  0.5530819767762978  0.0148932550091345
  0.9065751118671059  0.9218940048504720  0.1322333746117224
  0.8297075193307393  0.4231047448106864  0.8717001025505695
  0.4370259645510828  0.2479278825723341  0.9252827532919028
  0.2970210441577876  0.9973610681497505  0.2330995894317596
  0.6038254990655005  0.3841399870943647  0.8587072448299296
  0.4587602263225108  0.5916003526807287  0.7709714260072502
  0.3783342814061044  0.0048869841954513  0.6749328164629631
  0.5505083349967279  0.1598125816102112  0.7243006186867902
  0.8357974401247787  0.6370653860909670  0.8712979968476233
  0.8498375051048015  0.1733524148500720  0.9470550832974212
  0.8729420833769979  0.6768036988610220  0.1712855581977024
  0.1694867771302597  0.7932926406938492  0.9569907085580951
  0.3338263822574348  0.9139321070452837  0.0416970375814287
  0.4421434613355686  0.3702526220666371  0.2906399908827098
  0.0599096165193700  0.6616589578655478  0.8173735202553161
  0.7592162523730721  0.2467557680673096  0.7639087388226784
  0.9721407074073767  0.1945288592864642  0.4124244289731394
  0.0853839323614238  0.8644458252073832  0.7609325860710712
  0.0241407190497540  0.9985698060408055  0.4927499596314320
  0.7503297671853346  0.0147957144319051  0.5632760400854977
  0.2562114740615300  0.0933257843811433  0.5323874888615308
  0.4993727788677091  0.9513588342778974  0.2930865095156392
  0.6128035598196888  0.3555938399372138  0.6354416495304704
  0.8991861620929669  0.6782146357342356  0.6716455457788797
  0.8882053481363172  0.4403610489186320  0.1824215818057766
  0.1583438943683362  0.4242139400693645  0.0584219069111143
  0.8676581949498825  0.3820804273095675  0.6182965599093251
  0.0445200282324834  0.4594327703915653  0.8223435809353958
  0.9434230937094554  0.0561845420541189  0.8048512869793925
  0.8242934548318175  0.8634283275863694  0.3500484863611888
  0.3940225559656909  0.4546870603013886  0.9474689315883609
  0.9535143390799021  0.7711312447217153  0.9842894622626730
  0.3661312928393983  0.1718129278144787  0.3452439857766905
  0.3086728336145228  0.1241352707921948  0.0445298870653446
  0.6202994383127631  0.6102137524376303  0.9015552714898121
  0.3297857157791242  0.1979273585152228  0.7530233445132595
  0.7325894230418513  0.3294469574738841  0.0411555254772296
  0.6515703455444637  0.7113921431778110  0.2277630166436424
  0.1421808241270099  0.6733008867842400  0.6048303982548475
  0.5532453145386071  0.7715585862738408  0.4763837304340157
  0.1155234297750454  0.1826291337575796  0.9143843317163061
  0.0762834814994235  0.4249339412523838  0.4185322645858989
  0.5251580475061033  0.0913475440321250  0.5192099842019502
  0.5099861214532382  0.2567026355898037  0.1255397576183128
  0.9464813531941516  0.1411033181083567  0.1294055835019137
  0.4289136468843466  0.5092264770891148  0.5667995636379715
  0.6993770474086745  0.5858836301542851  0.5160997388420370
  0.5394860997240016  0.5096963950242923  0.1617231717520511
  0.2638466639028181  0.6385141714568618  0.8383340603750966
  0.1278117513309951  0.9101035558829551  0.1359378891398748
  0.4075884939236545  0.7922767397450485  0.6872383125965555
  0.5326966480799982  0.8478424564096443  0.9987297049810522
  0.9234611100336707  0.6183353155750737  0.3870358344401694
  0.3357010763941091  0.5763478495734518  0.3350551771690817
  0.6322006594814198  0.3683950358850367  0.3801418633936180
  0.2393394564483273  0.3587395178127792  0.2625958751513267
  0.2713032071288310  0.9516748442079290  0.8479488860985640
  0.7328143261179818  0.8208154696410048  0.7851858262474281
  0.3397289992865282  0.7092870016067678  0.0613773940459694
  0.2169573313646325  0.8367413155167540  0.3701405832712439
  0.1347376388282484  0.1195592780163892  0.2813131522360734
  0.7428184191470422  0.9819277087583345  0.9881204242995452
  0.7937993830844192  0.1182097692294235  0.3244991427016686
  0.0999160238480314  0.2661766588493109  0.5889759581116039
  0.1168703008568173  0.6411091317859672  0.1538011402353590
 
  0.00000000E+00  0.00000000E+00  0.00000000E+00
  0.00000000E+00  0.00000000E+00  0.00000000E+00
  0.00000000E+00  0.00000000E+00  0.00000000E+00
  0.00000000E+00  0.00000000E+00  0.00000000E+00
  0.00000000E+00  0.00000000E+00  0.00000000E+00
  0.00000000E+00  0.00000000E+00  0.00000000E+00
  0.00000000E+00  0.00000000E+00  0.00000000E+00
  0.00000000E+00  0.00000000E+00  0.00000000E+00
  0.00000000E+00  0.00000000E+00  0.00000000E+00
  0.00000000E+00  0.00000000E+00  0.00000000E+00
  0.00000000E+00  0.00000000E+00  0.00000000E+00
  0.00000000E+00  0.00000000E+00  0.00000000E+00
  0.00000000E+00  0.00000000E+00  0.00000000E+00
  0.00000000E+00  0.00000000E+00  0.00000000E+00
  0.00000000E+00  0.00000000E+00  0.00000000E+00
  0.00000000E+00  0.00000000E+00  0.00000000E+00
  0.00000000E+00  0.00000000E+00  0.00000000E+00
  0.00000000E+00  0.00000000E+00  0.00000000E+00
  0.00000000E+00  0.00000000E+00  0.00000000E+00
  0.00000000E+00  0.00000000E+00  0.00000000E+00
  0.00000000E+00  0.00000000E+00  0.00000000E+00
  0.00000000E+00  0.00000000E+00  0.00000000E+00
  0.00000000E+00  0.00000000E+00  0.00000000E+00
  0.00000000E+00  0.00000000E+00  0.00000000E+00
  0.00000000E+00  0.00000000E+00  0.00000000E+00
  0.00000000E+00  0.00000000E+00  0.00000000E+00
  0.00000000E+00  0.00000000E+00  0.00000000E+00
  0.00000000E+00  0.00000000E+00  0.00000000E+00
  0.00000000E+00  0.00000000E+00  0.00000000E+00
  0.00000000E+00  0.00000000E+00  0.00000000E+00
  0.00000000E+00  0.00000000E+00  0.00000000E+00
  0.00000000E+00  0.00000000E+00  0.00000000E+00
  0.00000000E+00  0.00000000E+00  0.00000000E+00
  0.00000000E+00  0.00000000E+00  0.00000000E+00
  0.00000000E+00  0.00000000E+00  0.00000000E+00
  0.00000000E+00  0.00000000E+00  0.00000000E+00
  0.00000000E+00  0.00000000E+00  0.00000000E+00
  0.00000000E+00  0.00000000E+00  0.00000000E+00
  0.00000000E+00  0.00000000E+00  0.00000000E+00
  0.00000000E+00  0.00000000E+00  0.00000000E+00
  0.00000000E+00  0.00000000E+00  0.00000000E+00
  0.00000000E+00  0.00000000E+00  0.00000000E+00
  0.00000000E+00  0.00000000E+00  0.00000000E+00
  0.00000000E+00  0.00000000E+00  0.00000000E+00
  0.00000000E+00  0.00000000E+00  0.00000000E+00
  0.00000000E+00  0.00000000E+00  0.00000000E+00
  0.00000000E+00  0.00000000E+00  0.00000000E+00
  0.00000000E+00  0.00000000E+00  0.00000000E+00
  0.00000000E+00  0.00000000E+00  0.00000000E+00
  0.00000000E+00  0.00000000E+00  0.00000000E+00
  0.00000000E+00  0.00000000E+00  0.00000000E+00
  0.00000000E+00  0.00000000E+00  0.00000000E+00
  0.00000000E+00  0.00000000E+00  0.00000000E+00
  0.00000000E+00  0.00000000E+00  0.00000000E+00
  0.00000000E+00  0.00000000E+00  0.00000000E+00
  0.00000000E+00  0.00000000E+00  0.00000000E+00
  0.00000000E+00  0.00000000E+00  0.00000000E+00
  0.00000000E+00  0.00000000E+00  0.00000000E+00
  0.00000000E+00  0.00000000E+00  0.00000000E+00
  0.00000000E+00  0.00000000E+00  0.00000000E+00
  0.00000000E+00  0.00000000E+00  0.00000000E+00
  0.00000000E+00  0.00000000E+00  0.00000000E+00
  0.00000000E+00  0.00000000E+00  0.00000000E+00
  0.00000000E+00  0.00000000E+00  0.00000000E+00
  0.00000000E+00  0.00000000E+00  0.00000000E+00
  0.00000000E+00  0.00000000E+00  0.00000000E+00
  0.00000000E+00  0.00000000E+00  0.00000000E+00
  0.00000000E+00  0.00000000E+00  0.00000000E+00
  0.00000000E+00  0.00000000E+00  0.00000000E+00
  0.00000000E+00  0.00000000E+00  0.00000000E+00
  0.00000000E+00  0.00000000E+00  0.00000000E+00
  0.00000000E+00  0.00000000E+00  0.00000000E+00
  0.00000000E+00  0.00000000E+00  0.00000000E+00
  0.00000000E+00  0.00000000E+00  0.00000000E+00
  0.00000000E+00  0.00000000E+00  0.00000000E+00
  0.00000000E+00  0.00000000E+00  0.00000000E+00
  0.00000000E+00  0.00000000E+00  0.00000000E+00
  0.00000000E+00  0.00000000E+00  0.00000000E+00
  0.00000000E+00  0.00000000E+00  0.00000000E+00
  0.00000000E+00  0.00000000E+00  0.00000000E+00
  0.00000000E+00  0.00000000E+00  0.00000000E+00
  0.00000000E+00  0.00000000E+00  0.00000000E+00
  0.00000000E+00  0.00000000E+00  0.00000000E+00
  0.00000000E+00  0.00000000E+00  0.00000000E+00
  0.00000000E+00  0.00000000E+00  0.00000000E+00
  0.00000000E+00  0.00000000E+00  0.00000000E+00
  0.00000000E+00  0.00000000E+00  0.00000000E+00
  0.00000000E+00  0.00000000E+00  0.00000000E+00
  0.00000000E+00  0.00000000E+00  0.00000000E+00
  0.00000000E+00  0.00000000E+00  0.00000000E+00
  0.00000000E+00  0.00000000E+00  0.00000000E+00
  0.00000000E+00  0.00000000E+00  0.00000000E+00
  0.00000000E+00  0.00000000E+00  0.00000000E+00
  0.00000000E+00  0.00000000E+00  0.00000000E+00
  0.00000000E+00  0.00000000E+00  0.00000000E+00
  0.00000000E+00  0.00000000E+00  0.00000000E+00
