  Built with Packmol                    
    1.000000000000000     
    10.9924697500783264   -0.2558702776618633   -0.1964006716456556
    -0.2705463040662907   11.4119554967731478    0.1932080201087192
    -0.2017102821678791    0.1984735333831245   11.2824042826832009
   Fe   Ge
    48    48
Direct
  0.1615475250675971  0.0947963359916102  0.5305948491782146
  0.9555875624883896  0.9105979984455814  0.9546773867653755
  0.9389753870658950  0.1203129168418400  0.5753083044884377
  0.3315266582605148  0.5017804406472379  0.8512057866955303
  0.5051088023323089  0.3951568102262115  0.5584542838554185
  0.2483411905172659  0.2251474623430809  0.3793856662844277
  0.5801518665799037  0.2160038874172940  0.6617875865523004
  0.2519925763929010  0.6885372210961833  0.5329793496164754
  0.4566110625479212  0.7330279348288045  0.2455972009438554
  0.1535101713475271  0.6426061033445691  0.9147356991022590
  0.3330561430608441  0.3309432521799707  0.1858280531191099
  0.5430457125057941  0.3372916683078060  0.1488939199682804
  0.6938216040729372  0.8038860585824352  0.2189180319615716
  0.0854194337932199  0.2860792817242910  0.2247643524978997
  0.2725111076694731  0.6375138121105763  0.1065045540843315
  0.8886926727933186  0.4177849399679872  0.5024490675776860
  0.6571655396555940  0.1915040329122490  0.2866847120100573
  0.4362984534763541  0.1513711134476736  0.2677777296465607
  0.1179922312577304  0.4696960613122911  0.4058334110404545
  0.4148649010612786  0.3425066283940694  0.7547713377222891
  0.3491299593828927  0.8359436856794247  0.0692135758981394
  0.8335126542753670  0.0027327300476117  0.2273156982936300
  0.9211072327825036  0.8069706899290665  0.3491397945239640
  0.7742105265509238  0.3003895433481389  0.8768667103967758
  0.4284726459354218  0.5196380040359614  0.2384193324605661
  0.5324304182900121  0.3768360732417975  0.3499621669538797
  0.3470789642340293  0.0302874829874327  0.4505799830115649
  0.5292630989303646  0.0028201156637380  0.9717283736052806
  0.4341306681269330  0.1892214274585911  0.0486328575224846
  0.2909674427427902  0.6213387283369656  0.3421754099094088
  0.2189821208954825  0.7926539083243611  0.2440266015291144
  0.6880250468197531  0.4976218131345718  0.4607803832313451
  0.7325076243284343  0.8910379122394403  0.0075278871732536
  0.7376488833689478  0.3929694780443000  0.2624079799788817
  0.5471066628911743  0.3620061582881320  0.9375591261831673
  0.6616526933549736  0.1923290470144323  0.0605602790390805
  0.0771054659653316  0.9592897354072747  0.7171576222894416
  0.4706487656280345  0.5912633602519648  0.4656113666294104
  0.7145169492924452  0.9596091170762051  0.6096701240151248
  0.9995470623064406  0.0941708107902457  0.3508019053123945
  0.5534790266307752  0.9773549531217895  0.3856107503900361
  0.7052850725867259  0.0806792577721325  0.8499501725850749
  0.2033813684458750  0.8768023852128266  0.8664380845430983
  0.1617673208859358  0.4352519474390775  0.0144053276928062
  0.5023515985862446  0.1922728871980723  0.4622078981804663
  0.0145838116883468  0.7462425499169285  0.5881955492100701
  0.8223136340245958  0.5906348609511696  0.1438922757031520
  0.0252459393562603  0.1082869790408694  0.1144101812167335
  0.7913705848706343  0.1910346592868208  0.6907541024181540
  0.9806864831091104  0.9364933976414349  0.5055155365132364
  0.2959167557581139  0.3036872844764176  0.9371789969232083
  0.7822026263030182  0.6994344944570585  0.9330828146450969
  0.9909726424906680  0.7522737500984960  0.8156033574687527
  0.6370463919939979  0.5957147000251197  0.2744284706000428
  0.4177814368400377  0.7991281707816640  0.4436872072936495
  0.3400467549101620  0.2178920894893110  0.5959241204913042
  0.0872528386586069  0.6845348800289628  0.3865955263134211
  0.5484555756545646  0.7955381404342816  0.0546672503271139
  0.3300020387829434  0.4194365452538591  0.4197201501832026
  0.3735947995938815  0.7022290710552852  0.9069730764679704
  0.0611287468859629  0.5389620211908124  0.5879870054381371
  0.6305068020401094  0.8812265690289891  0.8107037640390828
  0.4318065040484811  0.4956857937267287  0.0379925814901299
  0.3714285183687238  0.5469855834874409  0.6512430143236543
  0.7245731641244575  0.8485675331556095  0.4232166869441656
  0.1029723254399855  0.1902400750204336  0.7142713163324288
  0.1260475660222014  0.8020814838734722  0.0492803957220502
  0.8908160835857402  0.4005210148038216  0.7214987884866702
  0.6084449390293258  0.0077149452173657  0.1723537025952169
  0.8413453528623975  0.0851581506493702  0.0089940348312041
  0.1175644821507404  0.4646397846061348  0.8065672609560224
  0.1975744815364777  0.7151048153960815  0.7243702113927881
  0.8531877562777339  0.6356998084598473  0.4717477885955788
  0.8671985483044438  0.2273245622608400  0.2164714228024209
  0.8723063427444515  0.9883277389179881  0.7604730104362716
  0.1871777438878652  0.4770561020579862  0.2137115590279990
  0.7345612353930733  0.4211533111353987  0.0442531992198596
  0.2334686946034026  0.1461420552528310  0.1637181484976580
  0.0775064418652605  0.9418507158273215  0.2473692790839692
  0.7793289997520532  0.0816405199440737  0.4296837639615987
  0.0426876676791750  0.2742685146115846  0.4533228472625197
  0.8899304866092947  0.7957386375856501  0.1357271701088507
  0.1021907710861285  0.0656371344454527  0.9151368220467901
  0.4026193666584277  0.9212326630414793  0.7901277641924622
  0.7005859078229690  0.2943727130957328  0.4842556238858648
  0.9377715013212011  0.4799536615710167  0.2910350952678797
  0.3658641649407812  0.9484765522055341  0.2448911244228782
  0.6312373248174410  0.4234874673581714  0.7520611037290124
  0.5119410021264770  0.0176670126047469  0.6013872391985089
  0.2148029931563329  0.8901203779695237  0.5653007298729378
  0.8034287381057865  0.7729037524446341  0.6493959309530126
  0.6316988161538930  0.6110882412093304  0.6202417268340739
  0.3186318404465140  0.0192353866067307  0.9847721479308618
  0.5174769213102479  0.1725162226365029  0.8534254617621855
  0.0030671398515523  0.5676752324389298  0.0443789815815450
  0.9932975453398427  0.2998841821055862  0.9898070190613097
 
  0.00000000E+00  0.00000000E+00  0.00000000E+00
  0.00000000E+00  0.00000000E+00  0.00000000E+00
  0.00000000E+00  0.00000000E+00  0.00000000E+00
  0.00000000E+00  0.00000000E+00  0.00000000E+00
  0.00000000E+00  0.00000000E+00  0.00000000E+00
  0.00000000E+00  0.00000000E+00  0.00000000E+00
  0.00000000E+00  0.00000000E+00  0.00000000E+00
  0.00000000E+00  0.00000000E+00  0.00000000E+00
  0.00000000E+00  0.00000000E+00  0.00000000E+00
  0.00000000E+00  0.00000000E+00  0.00000000E+00
  0.00000000E+00  0.00000000E+00  0.00000000E+00
  0.00000000E+00  0.00000000E+00  0.00000000E+00
  0.00000000E+00  0.00000000E+00  0.00000000E+00
  0.00000000E+00  0.00000000E+00  0.00000000E+00
  0.00000000E+00  0.00000000E+00  0.00000000E+00
  0.00000000E+00  0.00000000E+00  0.00000000E+00
  0.00000000E+00  0.00000000E+00  0.00000000E+00
  0.00000000E+00  0.00000000E+00  0.00000000E+00
  0.00000000E+00  0.00000000E+00  0.00000000E+00
  0.00000000E+00  0.00000000E+00  0.00000000E+00
  0.00000000E+00  0.00000000E+00  0.00000000E+00
  0.00000000E+00  0.00000000E+00  0.00000000E+00
  0.00000000E+00  0.00000000E+00  0.00000000E+00
  0.00000000E+00  0.00000000E+00  0.00000000E+00
  0.00000000E+00  0.00000000E+00  0.00000000E+00
  0.00000000E+00  0.00000000E+00  0.00000000E+00
  0.00000000E+00  0.00000000E+00  0.00000000E+00
  0.00000000E+00  0.00000000E+00  0.00000000E+00
  0.00000000E+00  0.00000000E+00  0.00000000E+00
  0.00000000E+00  0.00000000E+00  0.00000000E+00
  0.00000000E+00  0.00000000E+00  0.00000000E+00
  0.00000000E+00  0.00000000E+00  0.00000000E+00
  0.00000000E+00  0.00000000E+00  0.00000000E+00
  0.00000000E+00  0.00000000E+00  0.00000000E+00
  0.00000000E+00  0.00000000E+00  0.00000000E+00
  0.00000000E+00  0.00000000E+00  0.00000000E+00
  0.00000000E+00  0.00000000E+00  0.00000000E+00
  0.00000000E+00  0.00000000E+00  0.00000000E+00
  0.00000000E+00  0.00000000E+00  0.00000000E+00
  0.00000000E+00  0.00000000E+00  0.00000000E+00
  0.00000000E+00  0.00000000E+00  0.00000000E+00
  0.00000000E+00  0.00000000E+00  0.00000000E+00
  0.00000000E+00  0.00000000E+00  0.00000000E+00
  0.00000000E+00  0.00000000E+00  0.00000000E+00
  0.00000000E+00  0.00000000E+00  0.00000000E+00
  0.00000000E+00  0.00000000E+00  0.00000000E+00
  0.00000000E+00  0.00000000E+00  0.00000000E+00
  0.00000000E+00  0.00000000E+00  0.00000000E+00
  0.00000000E+00  0.00000000E+00  0.00000000E+00
  0.00000000E+00  0.00000000E+00  0.00000000E+00
  0.00000000E+00  0.00000000E+00  0.00000000E+00
  0.00000000E+00  0.00000000E+00  0.00000000E+00
  0.00000000E+00  0.00000000E+00  0.00000000E+00
  0.00000000E+00  0.00000000E+00  0.00000000E+00
  0.00000000E+00  0.00000000E+00  0.00000000E+00
  0.00000000E+00  0.00000000E+00  0.00000000E+00
  0.00000000E+00  0.00000000E+00  0.00000000E+00
  0.00000000E+00  0.00000000E+00  0.00000000E+00
  0.00000000E+00  0.00000000E+00  0.00000000E+00
  0.00000000E+00  0.00000000E+00  0.00000000E+00
  0.00000000E+00  0.00000000E+00  0.00000000E+00
  0.00000000E+00  0.00000000E+00  0.00000000E+00
  0.00000000E+00  0.00000000E+00  0.00000000E+00
  0.00000000E+00  0.00000000E+00  0.00000000E+00
  0.00000000E+00  0.00000000E+00  0.00000000E+00
  0.00000000E+00  0.00000000E+00  0.00000000E+00
  0.00000000E+00  0.00000000E+00  0.00000000E+00
  0.00000000E+00  0.00000000E+00  0.00000000E+00
  0.00000000E+00  0.00000000E+00  0.00000000E+00
  0.00000000E+00  0.00000000E+00  0.00000000E+00
  0.00000000E+00  0.00000000E+00  0.00000000E+00
  0.00000000E+00  0.00000000E+00  0.00000000E+00
  0.00000000E+00  0.00000000E+00  0.00000000E+00
  0.00000000E+00  0.00000000E+00  0.00000000E+00
  0.00000000E+00  0.00000000E+00  0.00000000E+00
  0.00000000E+00  0.00000000E+00  0.00000000E+00
  0.00000000E+00  0.00000000E+00  0.00000000E+00
  0.00000000E+00  0.00000000E+00  0.00000000E+00
  0.00000000E+00  0.00000000E+00  0.00000000E+00
  0.00000000E+00  0.00000000E+00  0.00000000E+00
  0.00000000E+00  0.00000000E+00  0.00000000E+00
  0.00000000E+00  0.00000000E+00  0.00000000E+00
  0.00000000E+00  0.00000000E+00  0.00000000E+00
  0.00000000E+00  0.00000000E+00  0.00000000E+00
  0.00000000E+00  0.00000000E+00  0.00000000E+00
  0.00000000E+00  0.00000000E+00  0.00000000E+00
  0.00000000E+00  0.00000000E+00  0.00000000E+00
  0.00000000E+00  0.00000000E+00  0.00000000E+00
  0.00000000E+00  0.00000000E+00  0.00000000E+00
  0.00000000E+00  0.00000000E+00  0.00000000E+00
  0.00000000E+00  0.00000000E+00  0.00000000E+00
  0.00000000E+00  0.00000000E+00  0.00000000E+00
  0.00000000E+00  0.00000000E+00  0.00000000E+00
  0.00000000E+00  0.00000000E+00  0.00000000E+00
  0.00000000E+00  0.00000000E+00  0.00000000E+00
  0.00000000E+00  0.00000000E+00  0.00000000E+00
