  Built with Packmol                    
   1.00000000000000     
    11.2597364518493297   -0.0973544676568259    0.1123313869612388
    -0.0993576533255311   11.2608611177533966    0.0229708946126904
     0.1132691925359499    0.0290364107519823   11.0795766387077634
   Fe   Ge
    48    48
Direct
  0.1628311690933231  0.0801731568236193  0.5316376970863388
  0.9660188033879749  0.9155853068590716  0.9588188531628177
  0.9465500856950513  0.1283459491313153  0.5794591828878666
  0.3186113936136081  0.4973663913971293  0.8612416070781279
  0.4779442332055552  0.3849274636380500  0.5619991988304704
  0.2562107222474950  0.2299689394196562  0.3840890220254565
  0.5974907376467087  0.2191324449027476  0.6731443870712468
  0.2067688313420035  0.6381713247448673  0.5302853048513398
  0.4512147915491767  0.7165857981788903  0.2230415052475152
  0.1436591454443317  0.6334462072385776  0.9039368338337397
  0.3264350801774825  0.3285966336589894  0.1660906084409746
  0.5613986446837771  0.3336011613740695  0.1510984592169109
  0.6853520455583606  0.8102809484859250  0.2423623039962592
  0.0833484858714684  0.2859336502978351  0.2229665706504491
  0.2984706035948790  0.6110815439276323  0.0839665314569089
  0.8723123541448388  0.4101488091676728  0.5140612423940283
  0.6592941436385331  0.1942045771342578  0.2971948599726701
  0.4435432521639768  0.1563208454927292  0.2639365828493325
  0.1026850425274048  0.4677806303833165  0.4110198687539537
  0.4103906260756460  0.3368780733802765  0.7607405416713817
  0.3650524477444037  0.8194829500800154  0.0588826132413871
  0.8458054781313891  0.0041703174096526  0.2042133771472763
  0.9045153088246920  0.8063290868271622  0.3536449046221790
  0.8203149886376551  0.2937823600317557  0.9080093488226382
  0.4276028291802589  0.5079630396145447  0.2230078130476443
  0.5258390974845568  0.3740792684215606  0.3489997504658646
  0.3551495764192296  0.0352106070362836  0.4574936889143828
  0.5330928351987225  0.9938669996837319  0.9693880844981280
  0.4525513813208022  0.1842535210202954  0.0526558202012168
  0.2748715924154297  0.6285008265747649  0.3281472882590322
  0.2308965975000490  0.7935871403594277  0.2306480266188373
  0.6660194085998796  0.5078362779780221  0.4693336003829813
  0.7457616514779986  0.9252399306840289  0.0079986729740753
  0.7329799868517526  0.3979503711618193  0.2817313391709391
  0.6040551041053703  0.3252426429915971  0.9130535773794506
  0.6810649821866761  0.1803254465016408  0.0654030953366203
  0.0782684721436979  0.9539105543626221  0.7177924885109874
  0.4695433984809725  0.5872684684335638  0.4466193082333803
  0.7178150437953192  0.0301755734958320  0.6227006368780508
  0.0057046401952690  0.0943169297901036  0.3475962010169056
  0.5657085767018444  0.9943214068104567  0.3873806964338584
  0.6994515563443571  0.1183868641699561  0.8451314120337514
  0.2155376840720891  0.8711636209447775  0.8662582335132356
  0.1608597636967204  0.4344266232589931  0.0117248153376366
  0.5075113429708082  0.1916029357994944  0.4683227682768418
  0.9757182179591553  0.7457828041746382  0.6051786195161100
  0.8265235423605262  0.5920110415765194  0.1586863238503966
  0.0330340582576696  0.1034249720318243  0.1156908874151270
  0.8170276275891126  0.2450508148244026  0.6916078490429243
  0.0031847860893990  0.9318148044645440  0.5049225103995383
  0.2899278733288924  0.2869912567659725  0.9429009506777959
  0.7545544480439546  0.6626262582056839  0.9625747709162908
  0.9666659843190786  0.7345710823069851  0.8283481306969236
  0.6315310384604089  0.5939354567864257  0.2674678709528493
  0.5190021633713755  0.7893566523579523  0.4096192278535540
  0.3252507874875619  0.2136343288868758  0.6013979754614311
  0.0684058281789959  0.6847917870824247  0.3689009485992543
  0.5732302479750544  0.7894266108148145  0.0520497759619829
  0.3161128034057015  0.4328233975826379  0.4208739065339699
  0.3545721305006495  0.6987403285214882  0.8832568819903983
  0.0244977230430337  0.5357496633029584  0.6061252135771298
  0.6467666225895599  0.9101896269794594  0.8058230797896897
  0.4597579133717744  0.4587230584961830  0.0112731656297882
  0.3481334011256507  0.5400740291548374  0.6530853325696953
  0.7328931297348689  0.8759366185835731  0.4500257545356590
  0.0972450697243517  0.1962049845996248  0.7151312085406474
  0.1322163986145952  0.7902568812854796  0.0458514212743992
  0.8267338307043275  0.4644218048669373  0.7825274732773977
  0.6161444459668033  0.0087436348330456  0.1758593915700359
  0.8661957196919445  0.1028536029443146  0.9872114651819359
  0.1235092357634855  0.4345231037556943  0.7964258232342090
  0.1684632551177216  0.7456732546077518  0.7055743237289107
  0.8352646176148468  0.6354333725528392  0.4772379442938757
  0.8693476028870464  0.2306865197547623  0.2221223207253828
  0.8777325911888170  0.0074578109736194  0.7595806803946559
  0.1818006790482443  0.4776826649917041  0.2122286469628207
  0.7479585286968700  0.4177238505940650  0.0603043209544865
  0.2331333010812671  0.1339704633706589  0.1910751207862944
  0.0675876197370542  0.9209142652601869  0.2466457063473158
  0.7997736717443331  0.0966267136810330  0.4260952909134019
  0.0507871529102957  0.2708553613936431  0.4585079171324864
  0.8781002920556276  0.7947111073350683  0.1349492256123099
  0.1230251635090909  0.0644512702582887  0.9112826738803008
  0.4058445711538781  0.9177856255922094  0.7862039619880221
  0.6862082650135619  0.3039262976103672  0.4909521620226087
  0.9321113370322038  0.4656562539639779  0.2936555477614604
  0.3847965532907267  0.9345919264873643  0.2605920570955433
  0.5917981923620133  0.4582310765175279  0.7415763236647450
  0.5104373833632536  0.0188857189838529  0.6035578288519048
  0.2462540626959182  0.8482101387016385  0.4697225822396973
  0.7718820584448665  0.7937412115149698  0.6599540429174482
  0.5938260619066327  0.6480614612625928  0.6155593094004530
  0.3210104024468450  0.0119663843343289  0.0050804863879534
  0.4845117729044475  0.1532230882634664  0.8392437303879703
  0.0001772023145605  0.5658598972645947  0.0453309100950037
  0.0070078032488112  0.3000291615114250  0.0006252361324570
 
  0.00000000E+00  0.00000000E+00  0.00000000E+00
  0.00000000E+00  0.00000000E+00  0.00000000E+00
  0.00000000E+00  0.00000000E+00  0.00000000E+00
  0.00000000E+00  0.00000000E+00  0.00000000E+00
  0.00000000E+00  0.00000000E+00  0.00000000E+00
  0.00000000E+00  0.00000000E+00  0.00000000E+00
  0.00000000E+00  0.00000000E+00  0.00000000E+00
  0.00000000E+00  0.00000000E+00  0.00000000E+00
  0.00000000E+00  0.00000000E+00  0.00000000E+00
  0.00000000E+00  0.00000000E+00  0.00000000E+00
  0.00000000E+00  0.00000000E+00  0.00000000E+00
  0.00000000E+00  0.00000000E+00  0.00000000E+00
  0.00000000E+00  0.00000000E+00  0.00000000E+00
  0.00000000E+00  0.00000000E+00  0.00000000E+00
  0.00000000E+00  0.00000000E+00  0.00000000E+00
  0.00000000E+00  0.00000000E+00  0.00000000E+00
  0.00000000E+00  0.00000000E+00  0.00000000E+00
  0.00000000E+00  0.00000000E+00  0.00000000E+00
  0.00000000E+00  0.00000000E+00  0.00000000E+00
  0.00000000E+00  0.00000000E+00  0.00000000E+00
  0.00000000E+00  0.00000000E+00  0.00000000E+00
  0.00000000E+00  0.00000000E+00  0.00000000E+00
  0.00000000E+00  0.00000000E+00  0.00000000E+00
  0.00000000E+00  0.00000000E+00  0.00000000E+00
  0.00000000E+00  0.00000000E+00  0.00000000E+00
  0.00000000E+00  0.00000000E+00  0.00000000E+00
  0.00000000E+00  0.00000000E+00  0.00000000E+00
  0.00000000E+00  0.00000000E+00  0.00000000E+00
  0.00000000E+00  0.00000000E+00  0.00000000E+00
  0.00000000E+00  0.00000000E+00  0.00000000E+00
  0.00000000E+00  0.00000000E+00  0.00000000E+00
  0.00000000E+00  0.00000000E+00  0.00000000E+00
  0.00000000E+00  0.00000000E+00  0.00000000E+00
  0.00000000E+00  0.00000000E+00  0.00000000E+00
  0.00000000E+00  0.00000000E+00  0.00000000E+00
  0.00000000E+00  0.00000000E+00  0.00000000E+00
  0.00000000E+00  0.00000000E+00  0.00000000E+00
  0.00000000E+00  0.00000000E+00  0.00000000E+00
  0.00000000E+00  0.00000000E+00  0.00000000E+00
  0.00000000E+00  0.00000000E+00  0.00000000E+00
  0.00000000E+00  0.00000000E+00  0.00000000E+00
  0.00000000E+00  0.00000000E+00  0.00000000E+00
  0.00000000E+00  0.00000000E+00  0.00000000E+00
  0.00000000E+00  0.00000000E+00  0.00000000E+00
  0.00000000E+00  0.00000000E+00  0.00000000E+00
  0.00000000E+00  0.00000000E+00  0.00000000E+00
  0.00000000E+00  0.00000000E+00  0.00000000E+00
  0.00000000E+00  0.00000000E+00  0.00000000E+00
  0.00000000E+00  0.00000000E+00  0.00000000E+00
  0.00000000E+00  0.00000000E+00  0.00000000E+00
  0.00000000E+00  0.00000000E+00  0.00000000E+00
  0.00000000E+00  0.00000000E+00  0.00000000E+00
  0.00000000E+00  0.00000000E+00  0.00000000E+00
  0.00000000E+00  0.00000000E+00  0.00000000E+00
  0.00000000E+00  0.00000000E+00  0.00000000E+00
  0.00000000E+00  0.00000000E+00  0.00000000E+00
  0.00000000E+00  0.00000000E+00  0.00000000E+00
  0.00000000E+00  0.00000000E+00  0.00000000E+00
  0.00000000E+00  0.00000000E+00  0.00000000E+00
  0.00000000E+00  0.00000000E+00  0.00000000E+00
  0.00000000E+00  0.00000000E+00  0.00000000E+00
  0.00000000E+00  0.00000000E+00  0.00000000E+00
  0.00000000E+00  0.00000000E+00  0.00000000E+00
  0.00000000E+00  0.00000000E+00  0.00000000E+00
  0.00000000E+00  0.00000000E+00  0.00000000E+00
  0.00000000E+00  0.00000000E+00  0.00000000E+00
  0.00000000E+00  0.00000000E+00  0.00000000E+00
  0.00000000E+00  0.00000000E+00  0.00000000E+00
  0.00000000E+00  0.00000000E+00  0.00000000E+00
  0.00000000E+00  0.00000000E+00  0.00000000E+00
  0.00000000E+00  0.00000000E+00  0.00000000E+00
  0.00000000E+00  0.00000000E+00  0.00000000E+00
  0.00000000E+00  0.00000000E+00  0.00000000E+00
  0.00000000E+00  0.00000000E+00  0.00000000E+00
  0.00000000E+00  0.00000000E+00  0.00000000E+00
  0.00000000E+00  0.00000000E+00  0.00000000E+00
  0.00000000E+00  0.00000000E+00  0.00000000E+00
  0.00000000E+00  0.00000000E+00  0.00000000E+00
  0.00000000E+00  0.00000000E+00  0.00000000E+00
  0.00000000E+00  0.00000000E+00  0.00000000E+00
  0.00000000E+00  0.00000000E+00  0.00000000E+00
  0.00000000E+00  0.00000000E+00  0.00000000E+00
  0.00000000E+00  0.00000000E+00  0.00000000E+00
  0.00000000E+00  0.00000000E+00  0.00000000E+00
  0.00000000E+00  0.00000000E+00  0.00000000E+00
  0.00000000E+00  0.00000000E+00  0.00000000E+00
  0.00000000E+00  0.00000000E+00  0.00000000E+00
  0.00000000E+00  0.00000000E+00  0.00000000E+00
  0.00000000E+00  0.00000000E+00  0.00000000E+00
  0.00000000E+00  0.00000000E+00  0.00000000E+00
  0.00000000E+00  0.00000000E+00  0.00000000E+00
  0.00000000E+00  0.00000000E+00  0.00000000E+00
  0.00000000E+00  0.00000000E+00  0.00000000E+00
  0.00000000E+00  0.00000000E+00  0.00000000E+00
  0.00000000E+00  0.00000000E+00  0.00000000E+00
  0.00000000E+00  0.00000000E+00  0.00000000E+00
