  Built with Packmol                    
    1.000000000000000     
    10.9522630822237748   -0.3228782053496222   -0.0241775956444872
    -0.3446695808995245   11.0786174180392933    0.2328620022457000
    -0.0433310533334319    0.2248309095061770   11.7032758843171933
   Fe   Ge
    48    48
Direct
  0.6433969287693737  0.4135155992304665  0.5210432906093629
  0.3485845963990665  0.7045819399897063  0.1180639854012351
  0.7377458019772303  0.7587605192084693  0.2324169702549636
  0.5716865283966932  0.7876900474198355  0.4129554023259122
  0.6190701589945948  0.5039241066944780  0.1736751662207800
  0.6353188835092767  0.6276539903207761  0.6471494478789003
  0.0272464456487374  0.6122148994958611  0.5783230126640267
  0.0714277405902671  0.0208996640780957  0.6964721875590653
  0.7116742288445400  0.1355351519376639  0.2766224545482339
  0.9415476729798146  0.4542277245095526  0.7691876136135289
  0.7997814605875480  0.3585329912608320  0.1372377411496748
  0.7411229654656771  0.6125972080868907  0.0167188700807599
  0.5994218293755752  0.2376083735980993  0.6564575284568953
  0.8687319458771414  0.9568058401988202  0.5621526742461666
  0.6902324503208018  0.5836280428928455  0.3727979618372286
  0.2312886306368779  0.7510722440160397  0.6836584536216351
  0.9726536319008048  0.7685334614117539  0.1962890940015971
  0.1542409827605979  0.8536551628960051  0.0245812339661562
  0.0752402965860756  0.9953553026212588  0.2214297365083299
  0.3183410080338399  0.4870877360954007  0.4027309276245239
  0.1247692466763246  0.6978099778908097  0.4064520588815615
  0.5486711866977362  0.5587180419357337  0.8467967468673903
  0.8628956388323324  0.7287421366094567  0.6689600835552130
  0.4395121432808652  0.9006033926765091  0.7343776428196106
  0.9834902564166935  0.8742156549861977  0.3791312293353964
  0.2253733853540202  0.9004089621982669  0.4255288038201108
  0.1689710779704901  0.3910689137304484  0.2767817056360416
  0.6202536105929821  0.7771587832826208  0.8402574471512650
  0.6841006591178016  0.9927425809483824  0.4421431862532081
  0.7747752877467792  0.1970641638887747  0.5082662969123417
  0.4069119300401137  0.8898205426935053  0.2897876432562394
  0.3518170105779689  0.0418095042372835  0.9221903521293242
  0.2111840438245797  0.4576063002430837  0.0583482223889921
  0.0133635418114560  0.2835930559284320  0.4438903857089445
  0.0055039047311745  0.8434297546537649  0.8142377276811538
  0.7542373643772293  0.0239632826707747  0.9253492088593348
  0.2675508753537512  0.9833806559572645  0.6197544618731373
  0.6256215947213331  0.8369036951788065  0.6248459083078676
  0.1063473891034024  0.0652721417336906  0.4727328801202491
  0.6105597537333364  0.3897275420035352  0.9794563326254558
  0.3474709265212265  0.7010632222424769  0.3757287822434602
  0.9028218338713445  0.0872501815249738  0.3868168648663844
  0.9049487220041023  0.6544327227156835  0.3755881427704086
  0.3880319671858304  0.4938299914274830  0.1956445923094071
  0.9583627422068434  0.9397790770777495  0.0372203821590095
  0.3904602704224013  0.7874489244882737  0.9196861579691811
  0.1946977766516311  0.8217975735811277  0.2324150161498615
  0.2451126003541691  0.2593389409401739  0.9573626678868945
  0.4258528437036748  0.1209230285351887  0.7160423590406431
  0.1925439785775244  0.6000829344810179  0.2301836759456258
  0.7766576450244209  0.1475372994025707  0.0790445461804047
  0.4581745864651242  0.2175449040693821  0.9778862093975931
  0.7964115419512799  0.9007346640674009  0.7667964112092875
  0.5459596138051006  0.9707924045399710  0.9077283009994672
  0.6667338420453247  0.2084650166545410  0.8510048219276017
  0.5238154231565577  0.6438362645500296  0.0222416819727332
  0.7761849620922109  0.7863458488822038  0.4675280968882817
  0.0896312298912225  0.3857226255706924  0.8947631475671690
  0.4333676680495956  0.6816801813974847  0.7261128152036596
  0.7392052697720868  0.8350295304302401  0.0339382932759611
  0.7715461153214165  0.5927297844426415  0.8159323601548519
  0.8178642568027169  0.5493496118795440  0.5515800689962530
  0.0644150573948497  0.3963928092016425  0.6181429029643449
  0.2833008190044860  0.0610020200151125  0.2634537693128690
  0.8297847369343679  0.4000227512527447  0.9384003674437839
  0.8351991851598140  0.5627681734647421  0.2055768017244650
  0.6113527225188746  0.9410199467908386  0.2449574554550446
  0.2275785630164606  0.2953604276571897  0.4608248817707647
  0.5234732098236486  0.6840050271094000  0.2444939555844167
  0.0511401795712070  0.6394156252825950  0.7792911515063240
  0.5201674066090891  0.4156468988653189  0.3483721364319290
  0.8313982122480733  0.3128498893679135  0.3391193298280033
  0.9583942461225962  0.0585139708860990  0.8618389999681988
  0.0579114848678930  0.8403854655510010  0.5763674860894851
  0.2099940330338219  0.6476311513484295  0.9595722934272315
  0.3858477489732744  0.4384806820818231  0.9322659776039989
  0.9520437232525696  0.7234146996643059 -0.0124464094748716
  0.2440269859575019  0.5807013949131385  0.5658477147632909
  0.6625454031750968  0.0470756130796298  0.6404181606257464
  0.8537136263199282  0.9646296825315689  0.2250498739894446
  0.4186978900654465  0.8639074306651545  0.5251889485729779
  0.3021746002766543  0.2806877616879999  0.1611961688491367
  0.2083067490361394  0.1667288546543956  0.7819276303101088
  0.5695671038630569  0.2023964408725586  0.4429089897773779
  0.4958515951237744  0.5892628958691791  0.4969709363105106
  0.0269826263129083  0.4889507530147524  0.3978854485422151
  0.2193444227800375  0.9094376081200922  0.8234068760809695
  0.0680914338633080  0.1958603278135768  0.2732786798873911
  0.3520984580465016  0.1135760968846518  0.4711229415582835
  0.5475457352522279  0.4166128976974703  0.7143914292728238
  0.1437601469052339  0.0811881403462380  0.0329887592402548
  0.3691083501608205  0.9210129440303744  0.0910348500458832
  0.9589165367169734  0.1584590523720259  0.6009209979318459
  0.5796392340947309  0.2782537649915401  0.1700814730097819
  0.0116926380911963  0.3922441937703738  0.1325362481785764
  0.7999938684340756  0.3309804703907782  0.6653929090292490
 
  0.00000000E+00  0.00000000E+00  0.00000000E+00
  0.00000000E+00  0.00000000E+00  0.00000000E+00
  0.00000000E+00  0.00000000E+00  0.00000000E+00
  0.00000000E+00  0.00000000E+00  0.00000000E+00
  0.00000000E+00  0.00000000E+00  0.00000000E+00
  0.00000000E+00  0.00000000E+00  0.00000000E+00
  0.00000000E+00  0.00000000E+00  0.00000000E+00
  0.00000000E+00  0.00000000E+00  0.00000000E+00
  0.00000000E+00  0.00000000E+00  0.00000000E+00
  0.00000000E+00  0.00000000E+00  0.00000000E+00
  0.00000000E+00  0.00000000E+00  0.00000000E+00
  0.00000000E+00  0.00000000E+00  0.00000000E+00
  0.00000000E+00  0.00000000E+00  0.00000000E+00
  0.00000000E+00  0.00000000E+00  0.00000000E+00
  0.00000000E+00  0.00000000E+00  0.00000000E+00
  0.00000000E+00  0.00000000E+00  0.00000000E+00
  0.00000000E+00  0.00000000E+00  0.00000000E+00
  0.00000000E+00  0.00000000E+00  0.00000000E+00
  0.00000000E+00  0.00000000E+00  0.00000000E+00
  0.00000000E+00  0.00000000E+00  0.00000000E+00
  0.00000000E+00  0.00000000E+00  0.00000000E+00
  0.00000000E+00  0.00000000E+00  0.00000000E+00
  0.00000000E+00  0.00000000E+00  0.00000000E+00
  0.00000000E+00  0.00000000E+00  0.00000000E+00
  0.00000000E+00  0.00000000E+00  0.00000000E+00
  0.00000000E+00  0.00000000E+00  0.00000000E+00
  0.00000000E+00  0.00000000E+00  0.00000000E+00
  0.00000000E+00  0.00000000E+00  0.00000000E+00
  0.00000000E+00  0.00000000E+00  0.00000000E+00
  0.00000000E+00  0.00000000E+00  0.00000000E+00
  0.00000000E+00  0.00000000E+00  0.00000000E+00
  0.00000000E+00  0.00000000E+00  0.00000000E+00
  0.00000000E+00  0.00000000E+00  0.00000000E+00
  0.00000000E+00  0.00000000E+00  0.00000000E+00
  0.00000000E+00  0.00000000E+00  0.00000000E+00
  0.00000000E+00  0.00000000E+00  0.00000000E+00
  0.00000000E+00  0.00000000E+00  0.00000000E+00
  0.00000000E+00  0.00000000E+00  0.00000000E+00
  0.00000000E+00  0.00000000E+00  0.00000000E+00
  0.00000000E+00  0.00000000E+00  0.00000000E+00
  0.00000000E+00  0.00000000E+00  0.00000000E+00
  0.00000000E+00  0.00000000E+00  0.00000000E+00
  0.00000000E+00  0.00000000E+00  0.00000000E+00
  0.00000000E+00  0.00000000E+00  0.00000000E+00
  0.00000000E+00  0.00000000E+00  0.00000000E+00
  0.00000000E+00  0.00000000E+00  0.00000000E+00
  0.00000000E+00  0.00000000E+00  0.00000000E+00
  0.00000000E+00  0.00000000E+00  0.00000000E+00
  0.00000000E+00  0.00000000E+00  0.00000000E+00
  0.00000000E+00  0.00000000E+00  0.00000000E+00
  0.00000000E+00  0.00000000E+00  0.00000000E+00
  0.00000000E+00  0.00000000E+00  0.00000000E+00
  0.00000000E+00  0.00000000E+00  0.00000000E+00
  0.00000000E+00  0.00000000E+00  0.00000000E+00
  0.00000000E+00  0.00000000E+00  0.00000000E+00
  0.00000000E+00  0.00000000E+00  0.00000000E+00
  0.00000000E+00  0.00000000E+00  0.00000000E+00
  0.00000000E+00  0.00000000E+00  0.00000000E+00
  0.00000000E+00  0.00000000E+00  0.00000000E+00
  0.00000000E+00  0.00000000E+00  0.00000000E+00
  0.00000000E+00  0.00000000E+00  0.00000000E+00
  0.00000000E+00  0.00000000E+00  0.00000000E+00
  0.00000000E+00  0.00000000E+00  0.00000000E+00
  0.00000000E+00  0.00000000E+00  0.00000000E+00
  0.00000000E+00  0.00000000E+00  0.00000000E+00
  0.00000000E+00  0.00000000E+00  0.00000000E+00
  0.00000000E+00  0.00000000E+00  0.00000000E+00
  0.00000000E+00  0.00000000E+00  0.00000000E+00
  0.00000000E+00  0.00000000E+00  0.00000000E+00
  0.00000000E+00  0.00000000E+00  0.00000000E+00
  0.00000000E+00  0.00000000E+00  0.00000000E+00
  0.00000000E+00  0.00000000E+00  0.00000000E+00
  0.00000000E+00  0.00000000E+00  0.00000000E+00
  0.00000000E+00  0.00000000E+00  0.00000000E+00
  0.00000000E+00  0.00000000E+00  0.00000000E+00
  0.00000000E+00  0.00000000E+00  0.00000000E+00
  0.00000000E+00  0.00000000E+00  0.00000000E+00
  0.00000000E+00  0.00000000E+00  0.00000000E+00
  0.00000000E+00  0.00000000E+00  0.00000000E+00
  0.00000000E+00  0.00000000E+00  0.00000000E+00
  0.00000000E+00  0.00000000E+00  0.00000000E+00
  0.00000000E+00  0.00000000E+00  0.00000000E+00
  0.00000000E+00  0.00000000E+00  0.00000000E+00
  0.00000000E+00  0.00000000E+00  0.00000000E+00
  0.00000000E+00  0.00000000E+00  0.00000000E+00
  0.00000000E+00  0.00000000E+00  0.00000000E+00
  0.00000000E+00  0.00000000E+00  0.00000000E+00
  0.00000000E+00  0.00000000E+00  0.00000000E+00
  0.00000000E+00  0.00000000E+00  0.00000000E+00
  0.00000000E+00  0.00000000E+00  0.00000000E+00
  0.00000000E+00  0.00000000E+00  0.00000000E+00
  0.00000000E+00  0.00000000E+00  0.00000000E+00
  0.00000000E+00  0.00000000E+00  0.00000000E+00
  0.00000000E+00  0.00000000E+00  0.00000000E+00
  0.00000000E+00  0.00000000E+00  0.00000000E+00
  0.00000000E+00  0.00000000E+00  0.00000000E+00
