  Built with Packmol                    
   1.00000000000000     
    11.2452998268361721    0.1344897062480395    0.3729401830607626
     0.1490318581619206   10.8852793309353277    0.1233956828293201
     0.3835096427623125    0.1141408224259968   11.4542140781032842
   Fe   Ge
    48    48
Direct
  0.1345650951400970  0.6622272682309074  0.3855048699232384
  0.9220971670590856  0.1287784945251218  0.6172827873172722
  0.9078068317212882  0.9014161280281812  0.6659654474833445
  0.4083980841335091  0.4214598828255944  0.7353069992039849
  0.5055506251126403  0.0548662827415711  0.0917080294792783
  0.1486916801336591  0.0833922391614834  0.7297165891274346
  0.0445588659340856  0.3114308384031972  0.2391621694449100
  0.7539546290225090  0.5607618997865984  0.0805882187110925
  0.7294803366641105  0.7967533833583147  0.5885800379918464
  0.7351969260104312  0.9419495793578179  0.2289860820439884
  0.4635113456511988  0.0427261303852902  0.8813360387991267
  0.6772084100611409  0.9770506921797733  0.8226169378381059
  0.9767863713235911  0.7770144342033589  0.5041787153973942
  0.9824135102134619  0.2629164064566964  0.7745052704296498
  0.7398675284207528  0.7744921507553428  0.0017867746915670
  0.7133447376338111  0.2207467544853614  0.5280820287304380
  0.7263814117618921  0.5508357383160032  0.7059276243016583
  0.5269193553219225  0.5939834959551149  0.3898160604911354
  0.7384182812684230  0.5428746605168371  0.3110927667295158
  0.1980569678793813  0.8851231495218101  0.5562309242061403
  0.5677560002962494  0.1499176422145752  0.3204036028687653
  0.9921578655702845  0.8443223144943630  0.2797663299956383
  0.3456462178587145  0.6976600107427018  0.4785140230202813
  0.8624781099501675  0.3863397130973780  0.4001137397781847
  0.4012662106943878  0.9524010514347623  0.4468178483806113
  0.6972646113697394  0.1655521083244125  0.1432403364338910
  0.6312260254626096  0.1710418465298389  0.9372199607592790
  0.9864704657676739  0.3420102738797084  0.0101702885579797
  0.3733687938171570  0.4612131050427521  0.1275614794404092
  0.5547206771634805  0.9063305756185329  0.6755618470923466
  0.0192823336355019  0.5655987960080395  0.0222170252140188
  0.9254812381910824  0.9453896820797851  0.1024128693697861
  0.8166710556628090  0.3835534223400927  0.8430749764681309
  0.4291659215217081  0.2657603796581043  0.9393642328802727
  0.3003644023403709  0.0031721610585294  0.2194519039933525
  0.6018224221006818  0.3569757230481869  0.8389488135677539
  0.4988543154417471  0.6103981372730658  0.6413850780536094
  0.3692199395127460  0.0209323196931379  0.6809882977689128
  0.5468032053493062  0.1696889724578483  0.7327454014397858
  0.8650663376766801  0.6087613071333919  0.8854689199385248
  0.8637746262189836  0.1733394578825056  0.9613433948272672
  0.8739157217890678  0.7119681702998903  0.1739789550090336
  0.1866346692111378  0.7608288042671134  0.9586588229802757
  0.3422011525155852  0.8852787979554790  0.0410666007394482
  0.4334035221490140  0.3717074808563439  0.3332405395311895
  0.0755270733178293  0.6543265883652154  0.8048732686392341
  0.7609224017357619  0.1983763868118373  0.7623273104859223
  0.9643466447099698  0.1940581438276467  0.4199854462182415
  0.0989812663555156  0.8615941982085218  0.7470003907951224
  0.0236744113470380  0.9874770502728438  0.4759172383610561
  0.7322439857279264  0.0222722027913349  0.6143947120179263
  0.2429601362749096  0.0954716227478087  0.5330908635472227
  0.5088181390154318  0.9358907007314912  0.2643571842159673
  0.6041582544065136  0.3804050444327700  0.6368150816850857
  0.9066209486487793  0.6629976596078890  0.6722723659621082
  0.9014750832293004  0.4591722041385466  0.1862089262706519
  0.1785372919488282  0.4106003429315024  0.0662640253397129
  0.8482429655256638  0.3673498484165236  0.6211751699783434
  0.0371882681668652  0.4527705875875014  0.8272012695790707
  0.9281973639951033  0.0377792325646524  0.8196467097408799
  0.8039070760650660  0.8611356408434432  0.4030621321249654
  0.4373360413503065  0.4847976684432140  0.9290258864058245
  0.9639384279239351  0.7787505073757401  0.9683427833205869
  0.3581138589483075  0.1616404144610328  0.3480599612944957
  0.3019366319624410  0.1200925210020287  0.0408868235724427
  0.6481226190361724  0.5610699290796077  0.9089096014855542
  0.3234146948266101  0.2244948685042587  0.7594645548761747
  0.7428969876996234  0.3453701328515848  0.0401560874371185
  0.6553412292635699  0.7330516498030875  0.2235365133267848
  0.1524814653388731  0.6629055405221251  0.5944410902839223
  0.5445182084521960  0.7927140826753174  0.4842897796512275
  0.0992263485584175  0.1652759419958016  0.9285791386728448
  0.0709000681823753  0.4320110524670753  0.4231886890863308
  0.5248980470582509  0.0972506528635080  0.5331293712915368
  0.5040155201828540  0.2722840211289252  0.1387861904525280
  0.9263884532040834  0.1639707268858572  0.1544322505108866
  0.3935330115806082  0.4534124931339534  0.5263813192664131
  0.7036700417200734  0.5977923317446141  0.5077725259894876
  0.5636890927242177  0.5160752905255563  0.1840599814038555
  0.2852932708942859  0.6006713627159428  0.7920131078938581
  0.1359941158768834  0.9166744778296732  0.1214996313244470
  0.3656097260739131  0.7990522498062447  0.6656171644607340
  0.5420136702479965  0.8530190273364937  0.9792565506895698
  0.9213556762905100  0.6291420565875825  0.3743489447905191
  0.3279021818375725  0.5814012273189988  0.3036063945604113
  0.6355025108007979  0.3571544277100145  0.3798049823311160
  0.2394875550113866  0.3595550737828930  0.2740842645384731
  0.2700305314568254  0.9471900228948726  0.8573033056666901
  0.7066705190389300  0.7601024913691035  0.7913543418372626
  0.3425245892649613  0.6667668462104857  0.0624753274060197
  0.2423933660171613  0.8481277506526084  0.3518123921350451
  0.1277831307164732  0.1172379872408982  0.2801775864471381
  0.7365935859128996  0.9960901309602264  0.0194883411309021
  0.7789345661884184  0.1263759855650761  0.3421197984132007
  0.0949018231345988  0.2714386708815795  0.5920802926575846
  0.0988147981319187  0.6695866921566420  0.1793966928464030
 
  0.00000000E+00  0.00000000E+00  0.00000000E+00
  0.00000000E+00  0.00000000E+00  0.00000000E+00
  0.00000000E+00  0.00000000E+00  0.00000000E+00
  0.00000000E+00  0.00000000E+00  0.00000000E+00
  0.00000000E+00  0.00000000E+00  0.00000000E+00
  0.00000000E+00  0.00000000E+00  0.00000000E+00
  0.00000000E+00  0.00000000E+00  0.00000000E+00
  0.00000000E+00  0.00000000E+00  0.00000000E+00
  0.00000000E+00  0.00000000E+00  0.00000000E+00
  0.00000000E+00  0.00000000E+00  0.00000000E+00
  0.00000000E+00  0.00000000E+00  0.00000000E+00
  0.00000000E+00  0.00000000E+00  0.00000000E+00
  0.00000000E+00  0.00000000E+00  0.00000000E+00
  0.00000000E+00  0.00000000E+00  0.00000000E+00
  0.00000000E+00  0.00000000E+00  0.00000000E+00
  0.00000000E+00  0.00000000E+00  0.00000000E+00
  0.00000000E+00  0.00000000E+00  0.00000000E+00
  0.00000000E+00  0.00000000E+00  0.00000000E+00
  0.00000000E+00  0.00000000E+00  0.00000000E+00
  0.00000000E+00  0.00000000E+00  0.00000000E+00
  0.00000000E+00  0.00000000E+00  0.00000000E+00
  0.00000000E+00  0.00000000E+00  0.00000000E+00
  0.00000000E+00  0.00000000E+00  0.00000000E+00
  0.00000000E+00  0.00000000E+00  0.00000000E+00
  0.00000000E+00  0.00000000E+00  0.00000000E+00
  0.00000000E+00  0.00000000E+00  0.00000000E+00
  0.00000000E+00  0.00000000E+00  0.00000000E+00
  0.00000000E+00  0.00000000E+00  0.00000000E+00
  0.00000000E+00  0.00000000E+00  0.00000000E+00
  0.00000000E+00  0.00000000E+00  0.00000000E+00
  0.00000000E+00  0.00000000E+00  0.00000000E+00
  0.00000000E+00  0.00000000E+00  0.00000000E+00
  0.00000000E+00  0.00000000E+00  0.00000000E+00
  0.00000000E+00  0.00000000E+00  0.00000000E+00
  0.00000000E+00  0.00000000E+00  0.00000000E+00
  0.00000000E+00  0.00000000E+00  0.00000000E+00
  0.00000000E+00  0.00000000E+00  0.00000000E+00
  0.00000000E+00  0.00000000E+00  0.00000000E+00
  0.00000000E+00  0.00000000E+00  0.00000000E+00
  0.00000000E+00  0.00000000E+00  0.00000000E+00
  0.00000000E+00  0.00000000E+00  0.00000000E+00
  0.00000000E+00  0.00000000E+00  0.00000000E+00
  0.00000000E+00  0.00000000E+00  0.00000000E+00
  0.00000000E+00  0.00000000E+00  0.00000000E+00
  0.00000000E+00  0.00000000E+00  0.00000000E+00
  0.00000000E+00  0.00000000E+00  0.00000000E+00
  0.00000000E+00  0.00000000E+00  0.00000000E+00
  0.00000000E+00  0.00000000E+00  0.00000000E+00
  0.00000000E+00  0.00000000E+00  0.00000000E+00
  0.00000000E+00  0.00000000E+00  0.00000000E+00
  0.00000000E+00  0.00000000E+00  0.00000000E+00
  0.00000000E+00  0.00000000E+00  0.00000000E+00
  0.00000000E+00  0.00000000E+00  0.00000000E+00
  0.00000000E+00  0.00000000E+00  0.00000000E+00
  0.00000000E+00  0.00000000E+00  0.00000000E+00
  0.00000000E+00  0.00000000E+00  0.00000000E+00
  0.00000000E+00  0.00000000E+00  0.00000000E+00
  0.00000000E+00  0.00000000E+00  0.00000000E+00
  0.00000000E+00  0.00000000E+00  0.00000000E+00
  0.00000000E+00  0.00000000E+00  0.00000000E+00
  0.00000000E+00  0.00000000E+00  0.00000000E+00
  0.00000000E+00  0.00000000E+00  0.00000000E+00
  0.00000000E+00  0.00000000E+00  0.00000000E+00
  0.00000000E+00  0.00000000E+00  0.00000000E+00
  0.00000000E+00  0.00000000E+00  0.00000000E+00
  0.00000000E+00  0.00000000E+00  0.00000000E+00
  0.00000000E+00  0.00000000E+00  0.00000000E+00
  0.00000000E+00  0.00000000E+00  0.00000000E+00
  0.00000000E+00  0.00000000E+00  0.00000000E+00
  0.00000000E+00  0.00000000E+00  0.00000000E+00
  0.00000000E+00  0.00000000E+00  0.00000000E+00
  0.00000000E+00  0.00000000E+00  0.00000000E+00
  0.00000000E+00  0.00000000E+00  0.00000000E+00
  0.00000000E+00  0.00000000E+00  0.00000000E+00
  0.00000000E+00  0.00000000E+00  0.00000000E+00
  0.00000000E+00  0.00000000E+00  0.00000000E+00
  0.00000000E+00  0.00000000E+00  0.00000000E+00
  0.00000000E+00  0.00000000E+00  0.00000000E+00
  0.00000000E+00  0.00000000E+00  0.00000000E+00
  0.00000000E+00  0.00000000E+00  0.00000000E+00
  0.00000000E+00  0.00000000E+00  0.00000000E+00
  0.00000000E+00  0.00000000E+00  0.00000000E+00
  0.00000000E+00  0.00000000E+00  0.00000000E+00
  0.00000000E+00  0.00000000E+00  0.00000000E+00
  0.00000000E+00  0.00000000E+00  0.00000000E+00
  0.00000000E+00  0.00000000E+00  0.00000000E+00
  0.00000000E+00  0.00000000E+00  0.00000000E+00
  0.00000000E+00  0.00000000E+00  0.00000000E+00
  0.00000000E+00  0.00000000E+00  0.00000000E+00
  0.00000000E+00  0.00000000E+00  0.00000000E+00
  0.00000000E+00  0.00000000E+00  0.00000000E+00
  0.00000000E+00  0.00000000E+00  0.00000000E+00
  0.00000000E+00  0.00000000E+00  0.00000000E+00
  0.00000000E+00  0.00000000E+00  0.00000000E+00
  0.00000000E+00  0.00000000E+00  0.00000000E+00
  0.00000000E+00  0.00000000E+00  0.00000000E+00
