  Built with Packmol                    
   1.00000000000000     
    10.9576367242627750   -0.1702981333155050   -0.1993881601617085
    -0.1779940806788903   11.5183983889443393    0.1655700036525833
    -0.2046473827986672    0.1716170005456031   11.3673152571377436
   Fe   Ge
    48    48
Direct
  0.1789536209024618  0.0698442563741324  0.5072735128895118
  0.9581122539246323  0.9070572930562406  0.9403419265575010
  0.9716712820824540  0.1277329791968711  0.5780127770126384
  0.3608101750876358  0.4974738443070947  0.8463109785325784
  0.4720846113816037  0.3735489089642527  0.5597499679077913
  0.3103700767082955  0.2490473694293200  0.4042170090966550
  0.6148964393427150  0.2356173060032063  0.6704923173265485
  0.1986798290811933  0.6526388452332057  0.5281108665754601
  0.4468089940951359  0.7208903822319357  0.2508841281788676
  0.1682159103656033  0.6320747283335635  0.9001494825800265
  0.3285257929013312  0.3033083234559939  0.1781803849121459
  0.5478785208714072  0.3425660677415223  0.1476950133433164
  0.6679713017206979  0.8423098050752245  0.2893409662283304
  0.0834152967984423  0.2877991703274105  0.2446348063693904
  0.2700535445180350  0.6313415659539032  0.0967158129160097
  0.8679772027423169  0.4667073533517012  0.4836404534085403
  0.6612521757504268  0.2162775229841998  0.2902515919166717
  0.4443110339380638  0.1400144631067946  0.2719156562001146
  0.0901509211803742  0.4721762138987415  0.4034849961504747
  0.3650036977902502  0.3077568397214065  0.7566921985138606
  0.3501616491702393  0.8214200826571840  0.0637258481777394
  0.8346624826720941  0.9947107900272343  0.2304841060632086
  0.8965538296479565  0.8176801895235712  0.3741643826074466
  0.7247434810752580  0.3111333039722837  0.8450206904564439
  0.4238966700650337  0.5170995829788367  0.2481097247134230
  0.4890903253841472  0.3435153363693573  0.3396831448553641
  0.3834185455673094  0.0206211612315883  0.4461440514451880
  0.5378261366720025  0.9912049402440886  0.9692321369177819
  0.4664293940799169  0.1633147615356876  0.0630854076095915
  0.2505633025475191  0.6300351108772446  0.3248675453048122
  0.2188530020498050  0.7953908693437626  0.2295835492395923
  0.5930266302246991  0.5385228116662120  0.4012158473886061
  0.7396786253254390  0.9010962158127143  0.0372860294884063
  0.7172293153190239  0.4171141430622924  0.2723494411206389
  0.5332287756822964  0.3492968287518039  0.9362306897248232
  0.6868301920573003  0.2030570695797280  0.0498954027864471
  0.0839356406926868  0.9561689121052765  0.7186976496761659
  0.4207824413025278  0.6339813785481994  0.4678026771679384
  0.7262784677891219  0.0680406897466597  0.6067005950053428
  0.0095960882426809  0.0966526987740863  0.3558622460925562
  0.6120973485373753  0.0138305319293579  0.3918844438164086
  0.7325410641658863  0.0816405632710513  0.8452719236990589
  0.2194120844062013  0.8507929104845715  0.8641404094692291
  0.1806453233168526  0.4338998534334024  0.0021864545313122
  0.5363789836977091  0.1837817333274288  0.4720169196164505
  0.9620441899217838  0.7225926058256107  0.5880542486642000
  0.8267555866060974  0.5713405717247682  0.1089640936596368
  0.0316118711886944  0.0946711047497288  0.1336692674683349
  0.8519222076053339  0.2159173577755453  0.7152647984163849
  0.0101645813069169  0.9305057524409293  0.5139667476324377
  0.3106882452209447  0.2736437107142677  0.9576657151614967
  0.8189589443034464  0.7260785871521449  0.9641129712251342
  0.9975265447490429  0.7445679782615997  0.8061787277563539
  0.6312504661330607  0.6017409113725520  0.1967012446248688
  0.5018759202826431  0.8250591451385958  0.4340741368409624
  0.3544230618661857  0.1787815567607751  0.5984977959874627
  0.0414581547448876  0.6746521519491466  0.3790920318690425
  0.5613205359636879  0.8002014814967708  0.0845844902211965
  0.3069593129262458  0.4522581175474158  0.4396976647997519
  0.3843365003350101  0.6957704686263426  0.9003893819912747
  0.0480633588977497  0.5201994916880182  0.6051403257996526
  0.6639736546623425  0.8800879289231531  0.8338178707203525
  0.4116653295524344  0.4790282699811570  0.0461567041265241
  0.3424251078445053  0.5775957874236397  0.6594305429416707
  0.7505214437580250  0.8860074514468437  0.5051305163462274
  0.1472927941156996  0.1695437697775688  0.7157011449933890
  0.1151218918288350  0.7907013782167454  0.0424545056119072
  0.8088960488764343  0.4379818206423565  0.6851357195007211
  0.6159324459195403  0.0339860959312475  0.1725920044193643
  0.8572834267872480  0.0798648228798271  0.0137870819022083
  0.1609047207118337  0.4263932200300147  0.7896160491709168
  0.1856579901313324  0.7858596598941645  0.6705815069063874
  0.7845779900200895  0.6488059794180359  0.4291265894415943
  0.8637311714180242  0.2368979129968594  0.2078637234599938
  0.8806008982411981  0.9865242672088002  0.7404303797172744
  0.1936044576211700  0.4645746964168325  0.2132325315808856
  0.7330343858939585  0.4087545511044652  0.0315030484971359
  0.2161975895158719  0.1203243146316382  0.2674785391698009
  0.0520115144038513  0.9155287260082403  0.2514563452838487
  0.8073545909426727  0.1231745920602023  0.4229469561110903
  0.0692823388979704  0.2756445618603891  0.4636026939138347
  0.8370377046882140  0.7637627379145258  0.1846059812360465
  0.1152969687804628  0.0500349325031948  0.9206105820685622
  0.4219350412363383  0.9078269691916816  0.8019671481381963
  0.6836278242231941  0.3482312836645960  0.4788512582091613
  0.9300742738479499  0.4662483087035483  0.2635473216768816
  0.3813850584719205  0.9403959315480179  0.2351406273338341
  0.5583642875331449  0.4379457843846311  0.7514138409473006
  0.5211061979960903  0.0097355765057685  0.6156134439632410
  0.2516192366062882  0.8443590131083383  0.4385167809539965
  0.7564267140125409  0.7395662757647017  0.6816490310779102
  0.5885453512422458  0.6058214823000156  0.6018120949537931
  0.3242073490005239  0.0119094317784558  0.9950580815192396
  0.5325411599493961  0.1618221390518428  0.8531005846051087
  0.0110008327011926  0.5494619757680681  0.0256312644068544
  0.0665793512098318  0.2683687707819686  0.0283507319077358
 
  0.00000000E+00  0.00000000E+00  0.00000000E+00
  0.00000000E+00  0.00000000E+00  0.00000000E+00
  0.00000000E+00  0.00000000E+00  0.00000000E+00
  0.00000000E+00  0.00000000E+00  0.00000000E+00
  0.00000000E+00  0.00000000E+00  0.00000000E+00
  0.00000000E+00  0.00000000E+00  0.00000000E+00
  0.00000000E+00  0.00000000E+00  0.00000000E+00
  0.00000000E+00  0.00000000E+00  0.00000000E+00
  0.00000000E+00  0.00000000E+00  0.00000000E+00
  0.00000000E+00  0.00000000E+00  0.00000000E+00
  0.00000000E+00  0.00000000E+00  0.00000000E+00
  0.00000000E+00  0.00000000E+00  0.00000000E+00
  0.00000000E+00  0.00000000E+00  0.00000000E+00
  0.00000000E+00  0.00000000E+00  0.00000000E+00
  0.00000000E+00  0.00000000E+00  0.00000000E+00
  0.00000000E+00  0.00000000E+00  0.00000000E+00
  0.00000000E+00  0.00000000E+00  0.00000000E+00
  0.00000000E+00  0.00000000E+00  0.00000000E+00
  0.00000000E+00  0.00000000E+00  0.00000000E+00
  0.00000000E+00  0.00000000E+00  0.00000000E+00
  0.00000000E+00  0.00000000E+00  0.00000000E+00
  0.00000000E+00  0.00000000E+00  0.00000000E+00
  0.00000000E+00  0.00000000E+00  0.00000000E+00
  0.00000000E+00  0.00000000E+00  0.00000000E+00
  0.00000000E+00  0.00000000E+00  0.00000000E+00
  0.00000000E+00  0.00000000E+00  0.00000000E+00
  0.00000000E+00  0.00000000E+00  0.00000000E+00
  0.00000000E+00  0.00000000E+00  0.00000000E+00
  0.00000000E+00  0.00000000E+00  0.00000000E+00
  0.00000000E+00  0.00000000E+00  0.00000000E+00
  0.00000000E+00  0.00000000E+00  0.00000000E+00
  0.00000000E+00  0.00000000E+00  0.00000000E+00
  0.00000000E+00  0.00000000E+00  0.00000000E+00
  0.00000000E+00  0.00000000E+00  0.00000000E+00
  0.00000000E+00  0.00000000E+00  0.00000000E+00
  0.00000000E+00  0.00000000E+00  0.00000000E+00
  0.00000000E+00  0.00000000E+00  0.00000000E+00
  0.00000000E+00  0.00000000E+00  0.00000000E+00
  0.00000000E+00  0.00000000E+00  0.00000000E+00
  0.00000000E+00  0.00000000E+00  0.00000000E+00
  0.00000000E+00  0.00000000E+00  0.00000000E+00
  0.00000000E+00  0.00000000E+00  0.00000000E+00
  0.00000000E+00  0.00000000E+00  0.00000000E+00
  0.00000000E+00  0.00000000E+00  0.00000000E+00
  0.00000000E+00  0.00000000E+00  0.00000000E+00
  0.00000000E+00  0.00000000E+00  0.00000000E+00
  0.00000000E+00  0.00000000E+00  0.00000000E+00
  0.00000000E+00  0.00000000E+00  0.00000000E+00
  0.00000000E+00  0.00000000E+00  0.00000000E+00
  0.00000000E+00  0.00000000E+00  0.00000000E+00
  0.00000000E+00  0.00000000E+00  0.00000000E+00
  0.00000000E+00  0.00000000E+00  0.00000000E+00
  0.00000000E+00  0.00000000E+00  0.00000000E+00
  0.00000000E+00  0.00000000E+00  0.00000000E+00
  0.00000000E+00  0.00000000E+00  0.00000000E+00
  0.00000000E+00  0.00000000E+00  0.00000000E+00
  0.00000000E+00  0.00000000E+00  0.00000000E+00
  0.00000000E+00  0.00000000E+00  0.00000000E+00
  0.00000000E+00  0.00000000E+00  0.00000000E+00
  0.00000000E+00  0.00000000E+00  0.00000000E+00
  0.00000000E+00  0.00000000E+00  0.00000000E+00
  0.00000000E+00  0.00000000E+00  0.00000000E+00
  0.00000000E+00  0.00000000E+00  0.00000000E+00
  0.00000000E+00  0.00000000E+00  0.00000000E+00
  0.00000000E+00  0.00000000E+00  0.00000000E+00
  0.00000000E+00  0.00000000E+00  0.00000000E+00
  0.00000000E+00  0.00000000E+00  0.00000000E+00
  0.00000000E+00  0.00000000E+00  0.00000000E+00
  0.00000000E+00  0.00000000E+00  0.00000000E+00
  0.00000000E+00  0.00000000E+00  0.00000000E+00
  0.00000000E+00  0.00000000E+00  0.00000000E+00
  0.00000000E+00  0.00000000E+00  0.00000000E+00
  0.00000000E+00  0.00000000E+00  0.00000000E+00
  0.00000000E+00  0.00000000E+00  0.00000000E+00
  0.00000000E+00  0.00000000E+00  0.00000000E+00
  0.00000000E+00  0.00000000E+00  0.00000000E+00
  0.00000000E+00  0.00000000E+00  0.00000000E+00
  0.00000000E+00  0.00000000E+00  0.00000000E+00
  0.00000000E+00  0.00000000E+00  0.00000000E+00
  0.00000000E+00  0.00000000E+00  0.00000000E+00
  0.00000000E+00  0.00000000E+00  0.00000000E+00
  0.00000000E+00  0.00000000E+00  0.00000000E+00
  0.00000000E+00  0.00000000E+00  0.00000000E+00
  0.00000000E+00  0.00000000E+00  0.00000000E+00
  0.00000000E+00  0.00000000E+00  0.00000000E+00
  0.00000000E+00  0.00000000E+00  0.00000000E+00
  0.00000000E+00  0.00000000E+00  0.00000000E+00
  0.00000000E+00  0.00000000E+00  0.00000000E+00
  0.00000000E+00  0.00000000E+00  0.00000000E+00
  0.00000000E+00  0.00000000E+00  0.00000000E+00
  0.00000000E+00  0.00000000E+00  0.00000000E+00
  0.00000000E+00  0.00000000E+00  0.00000000E+00
  0.00000000E+00  0.00000000E+00  0.00000000E+00
  0.00000000E+00  0.00000000E+00  0.00000000E+00
  0.00000000E+00  0.00000000E+00  0.00000000E+00
  0.00000000E+00  0.00000000E+00  0.00000000E+00
