  Built with Packmol                    
   1.00000000000000     
    11.1057965118577275    0.2082838044517654    0.2659787391355829
     0.2009590353570241   11.2210170488372345    0.1812228398487589
     0.2580587707882063    0.1723091002889099   11.4020920010752143
   Fe   Ge
    48    48
Direct
  0.1381615915662096  0.6226840901719797  0.3960827087590104
  0.9107623139940770  0.1432370453063854  0.6185537400474530
  0.9150233850568625  0.9081989261434984  0.6644088507008519
  0.4067646794482584  0.3907968436809028  0.7442473194780135
  0.5141263275722281  0.0370082900295401  0.0950716186063403
  0.1454449138298344  0.0887853031260661  0.7279293884219911
  0.0427823145648176  0.2966889053159605  0.2355951354453012
  0.7312797172824759  0.5377638409763534  0.0699112314348369
  0.7555779567456042  0.7990510769729013  0.5480894185659579
  0.6916790378381918  0.9041314070385127  0.1800570678434852
  0.4799047257666231  0.0323675157220720  0.8678930442318133
  0.7200040543001123  0.0448324031516449  0.7772456734465933
  0.9857764518606018  0.7859994567351194  0.4889949822220174
  0.9739061262774555  0.2776624261156968  0.7792604672735166
  0.7335715213050875  0.7612242767398740  0.0082100308372404
  0.7209024737343412  0.2235983915414508  0.5316224743679925
  0.7334846207025052  0.5320900013095340  0.7113096848024512
  0.5330196426040672  0.5779160951205426  0.3839923008651880
  0.7424925044484212  0.5381438725074688  0.3114259018835384
  0.1949324619661326  0.8871721438510463  0.5735597240771142
  0.5825203453989403  0.1641954616076191  0.3279545047222356
  0.0205593159166355  0.7833602509183635  0.2752372188341070
  0.3454045256832572  0.6998854963299550  0.4973169254225525
  0.8592384162722126  0.3782215702010561  0.4035624544607259
  0.3876896773453780  0.9293644024122329  0.4618725803381594
  0.7156874103629889  0.1238173684312542  0.1496673399181390
  0.6292667810953816  0.1748581137635981  0.9432376011354719
  0.9778303217595194  0.3299604811089978  0.0131932250559075
  0.3193267901953263  0.5191670624913272  0.1345813999847749
  0.5804114042315902  0.9180233121292716  0.6621025291838336
  0.9697673643572173  0.5516982062463072  0.0153255957543479
  0.9106203863437443  0.9197525095233487  0.1279526907347659
  0.8216529598661140  0.4269233828672512  0.8746762796574501
  0.4303171962289909  0.2465223508928247  0.9296299606706242
  0.3031986263336606  0.9935614643074615  0.2355789618951150
  0.6005457873529707  0.3838453620275217  0.8681964601360477
  0.4785137101344574  0.5900353643999807  0.7443796125000333
  0.3787708616814456  0.0104760537479862  0.6695258258113839
  0.5424006443981568  0.1829127634411378  0.7310858866453245
  0.8475171288171808  0.6386318328933527  0.8635605520416831
  0.8562894138308152  0.1641094510232293  0.9524618904431392
  0.8718776690868140  0.6761901365342382  0.1710441032202255
  0.1762940577014476  0.7893023361378937  0.9506062287323900
  0.3376627729987760  0.9111936984817604  0.0394323126376364
  0.4424124503154161  0.3664068878655371  0.2959969312602055
  0.0671793571270953  0.6629441994647394  0.8119509272130045
  0.7557683955234324  0.2513522497603446  0.7651802630902580
  0.9886357615524517  0.1982700679143079  0.4268519589437005
  0.0956909198792104  0.8670640456134322  0.7615426734512809
  0.0185708714344344  0.9927839853978213  0.4865251240302157
  0.7542425784741340  0.0113378411328640  0.5565608875681960
  0.2376290996228647  0.0928521676453045  0.5279763500521497
  0.5142856068146173  0.9509862835446299  0.2891780071860026
  0.6047183027693563  0.3769817325664562  0.6469747766840328
  0.9027439157581369  0.6737060487585822  0.6607945989470920
  0.8884370893441371  0.4406938495401747  0.1889435610914845
  0.1543964502296262  0.4170520014592185  0.0663295584356547
  0.8641132686466335  0.3798541476738535  0.6186525205680411
  0.0380769034769628  0.4608069790404770  0.8264017821806320
  0.9413861036413138  0.0498337914511353  0.8072618070140010
  0.8213214950688368  0.8622374561830597  0.3398991927864614
  0.3954578518149390  0.4576533541649397  0.9471914446105245
  0.9592529751426113  0.7708425110343313  0.9810039515148645
  0.3681636061312901  0.1636146115925925  0.3457277033093007
  0.3042118487040213  0.1217326783825570  0.0512269309470028
  0.6290365068646437  0.6057989890504984  0.8949593741144426
  0.3196029199952335  0.2024732385827477  0.7556560348124322
  0.7380937746759813  0.3227795689470625  0.0485339740971753
  0.6439647777554853  0.7043920175176694  0.2230318420793580
  0.1482100424333268  0.6718071584402452  0.6024822686919507
  0.5506358758990615  0.7802033496178140  0.4741945254812805
  0.1051196399883239  0.1764897810531778  0.9217180331868136
  0.0703909103214002  0.4176386862858621  0.4244790232774349
  0.5278390332241685  0.1002104970034523  0.5333489061016223
  0.5134217261877083  0.2508032004448140  0.1329067842507854
  0.9492727443039115  0.1335258144348259  0.1346571989636942
  0.4016390228149618  0.4920980959402357  0.5540189821513692
  0.6959258030489082  0.5894664055499561  0.5153750231467029
  0.5408608682703715  0.5009703606269369  0.1647631417590105
  0.2769442130484521  0.6347643411496833  0.8297281516006478
  0.1358419764315073  0.9022633151509396  0.1355725471205389
  0.3965438522622264  0.7959397498733978  0.6736334310165759
  0.5367963166382808  0.8475526921831573  0.9955323823664415
  0.9187005246300117  0.6174127953738093  0.3845602718425312
  0.3367254138763727  0.5838871892769433  0.3233879642875195
  0.6255781440646331  0.3711591945402830  0.3961497012819635
  0.2377081194145774  0.3630590354901315  0.2702097725631347
  0.2769209740462841  0.9544059539152911  0.8489641298238766
  0.7388720691791164  0.8237192729081784  0.7809696034618554
  0.3430600655924678  0.7049863638849487  0.0567423699116105
  0.2117236301262864  0.8327100682235127  0.3687877759529812
  0.1368957263060580  0.1147467187576794  0.2826130338134263
  0.7431245885974320  0.9826903483354243  0.9853560800646903
  0.8025363067583271  0.1856283505453575  0.3274563551696303
  0.1014721182909497  0.2742098788968903  0.6062711576818884
  0.1171387523379082  0.6430055576851572  0.1426897286644291
 
  0.00000000E+00  0.00000000E+00  0.00000000E+00
  0.00000000E+00  0.00000000E+00  0.00000000E+00
  0.00000000E+00  0.00000000E+00  0.00000000E+00
  0.00000000E+00  0.00000000E+00  0.00000000E+00
  0.00000000E+00  0.00000000E+00  0.00000000E+00
  0.00000000E+00  0.00000000E+00  0.00000000E+00
  0.00000000E+00  0.00000000E+00  0.00000000E+00
  0.00000000E+00  0.00000000E+00  0.00000000E+00
  0.00000000E+00  0.00000000E+00  0.00000000E+00
  0.00000000E+00  0.00000000E+00  0.00000000E+00
  0.00000000E+00  0.00000000E+00  0.00000000E+00
  0.00000000E+00  0.00000000E+00  0.00000000E+00
  0.00000000E+00  0.00000000E+00  0.00000000E+00
  0.00000000E+00  0.00000000E+00  0.00000000E+00
  0.00000000E+00  0.00000000E+00  0.00000000E+00
  0.00000000E+00  0.00000000E+00  0.00000000E+00
  0.00000000E+00  0.00000000E+00  0.00000000E+00
  0.00000000E+00  0.00000000E+00  0.00000000E+00
  0.00000000E+00  0.00000000E+00  0.00000000E+00
  0.00000000E+00  0.00000000E+00  0.00000000E+00
  0.00000000E+00  0.00000000E+00  0.00000000E+00
  0.00000000E+00  0.00000000E+00  0.00000000E+00
  0.00000000E+00  0.00000000E+00  0.00000000E+00
  0.00000000E+00  0.00000000E+00  0.00000000E+00
  0.00000000E+00  0.00000000E+00  0.00000000E+00
  0.00000000E+00  0.00000000E+00  0.00000000E+00
  0.00000000E+00  0.00000000E+00  0.00000000E+00
  0.00000000E+00  0.00000000E+00  0.00000000E+00
  0.00000000E+00  0.00000000E+00  0.00000000E+00
  0.00000000E+00  0.00000000E+00  0.00000000E+00
  0.00000000E+00  0.00000000E+00  0.00000000E+00
  0.00000000E+00  0.00000000E+00  0.00000000E+00
  0.00000000E+00  0.00000000E+00  0.00000000E+00
  0.00000000E+00  0.00000000E+00  0.00000000E+00
  0.00000000E+00  0.00000000E+00  0.00000000E+00
  0.00000000E+00  0.00000000E+00  0.00000000E+00
  0.00000000E+00  0.00000000E+00  0.00000000E+00
  0.00000000E+00  0.00000000E+00  0.00000000E+00
  0.00000000E+00  0.00000000E+00  0.00000000E+00
  0.00000000E+00  0.00000000E+00  0.00000000E+00
  0.00000000E+00  0.00000000E+00  0.00000000E+00
  0.00000000E+00  0.00000000E+00  0.00000000E+00
  0.00000000E+00  0.00000000E+00  0.00000000E+00
  0.00000000E+00  0.00000000E+00  0.00000000E+00
  0.00000000E+00  0.00000000E+00  0.00000000E+00
  0.00000000E+00  0.00000000E+00  0.00000000E+00
  0.00000000E+00  0.00000000E+00  0.00000000E+00
  0.00000000E+00  0.00000000E+00  0.00000000E+00
  0.00000000E+00  0.00000000E+00  0.00000000E+00
  0.00000000E+00  0.00000000E+00  0.00000000E+00
  0.00000000E+00  0.00000000E+00  0.00000000E+00
  0.00000000E+00  0.00000000E+00  0.00000000E+00
  0.00000000E+00  0.00000000E+00  0.00000000E+00
  0.00000000E+00  0.00000000E+00  0.00000000E+00
  0.00000000E+00  0.00000000E+00  0.00000000E+00
  0.00000000E+00  0.00000000E+00  0.00000000E+00
  0.00000000E+00  0.00000000E+00  0.00000000E+00
  0.00000000E+00  0.00000000E+00  0.00000000E+00
  0.00000000E+00  0.00000000E+00  0.00000000E+00
  0.00000000E+00  0.00000000E+00  0.00000000E+00
  0.00000000E+00  0.00000000E+00  0.00000000E+00
  0.00000000E+00  0.00000000E+00  0.00000000E+00
  0.00000000E+00  0.00000000E+00  0.00000000E+00
  0.00000000E+00  0.00000000E+00  0.00000000E+00
  0.00000000E+00  0.00000000E+00  0.00000000E+00
  0.00000000E+00  0.00000000E+00  0.00000000E+00
  0.00000000E+00  0.00000000E+00  0.00000000E+00
  0.00000000E+00  0.00000000E+00  0.00000000E+00
  0.00000000E+00  0.00000000E+00  0.00000000E+00
  0.00000000E+00  0.00000000E+00  0.00000000E+00
  0.00000000E+00  0.00000000E+00  0.00000000E+00
  0.00000000E+00  0.00000000E+00  0.00000000E+00
  0.00000000E+00  0.00000000E+00  0.00000000E+00
  0.00000000E+00  0.00000000E+00  0.00000000E+00
  0.00000000E+00  0.00000000E+00  0.00000000E+00
  0.00000000E+00  0.00000000E+00  0.00000000E+00
  0.00000000E+00  0.00000000E+00  0.00000000E+00
  0.00000000E+00  0.00000000E+00  0.00000000E+00
  0.00000000E+00  0.00000000E+00  0.00000000E+00
  0.00000000E+00  0.00000000E+00  0.00000000E+00
  0.00000000E+00  0.00000000E+00  0.00000000E+00
  0.00000000E+00  0.00000000E+00  0.00000000E+00
  0.00000000E+00  0.00000000E+00  0.00000000E+00
  0.00000000E+00  0.00000000E+00  0.00000000E+00
  0.00000000E+00  0.00000000E+00  0.00000000E+00
  0.00000000E+00  0.00000000E+00  0.00000000E+00
  0.00000000E+00  0.00000000E+00  0.00000000E+00
  0.00000000E+00  0.00000000E+00  0.00000000E+00
  0.00000000E+00  0.00000000E+00  0.00000000E+00
  0.00000000E+00  0.00000000E+00  0.00000000E+00
  0.00000000E+00  0.00000000E+00  0.00000000E+00
  0.00000000E+00  0.00000000E+00  0.00000000E+00
  0.00000000E+00  0.00000000E+00  0.00000000E+00
  0.00000000E+00  0.00000000E+00  0.00000000E+00
  0.00000000E+00  0.00000000E+00  0.00000000E+00
  0.00000000E+00  0.00000000E+00  0.00000000E+00
