CRYSTAL
PRIMVEC
    40.358642790     0.578641119     1.152348021
     0.540302138    40.100392953     0.122501752
     1.147485224     0.128543006    40.047960291
PRIMCOORD
 3072    1
   21     1.758269367     6.336229727     3.811625931     0.412098984    -0.204656795     0.195678369
   22     9.090575037     1.719852182     5.851552651    -0.457612650     0.168412011    -0.110580546
   23     8.974648619     9.247177894     6.716392283    -0.408528559     0.217809542    -0.188847609
   24     3.921439192     4.134891542     7.544503703    -0.417422043     0.201970070    -0.186994463
   25     5.200098002     0.378741824     0.829519774    -0.402150681     0.222953770    -0.196383416
   26     1.759323959     0.961119707     7.366664982    -0.104125965    -0.382223240     0.305062581
   27     0.423947137     2.961378184     2.654868407    -0.417048797     0.213832632    -0.174200766
   28     7.417107854     5.400191931     0.924147271    -0.423267627     0.198150838    -0.177709767
   29     8.129737675     8.053004834     5.003662097    -0.400686197     0.224644995    -0.197446696
   30     6.899704405     8.966666214     1.700707371    -0.413595859     0.217046467    -0.178407669
   31     5.412073467     9.930416906     8.715098586    -0.407007592     0.227548608    -0.180461773
   32     7.538948355     0.581404143     7.944027089    -0.405822318     0.227081229    -0.183690940
   33     0.602171687     7.955730731     5.346244474    -0.408281153     0.225006808    -0.180771780
   34    10.199475658     2.940496692     8.064476948    -0.483299529    -0.104753828     0.073811931
   35     7.571764870     7.542140958     0.240689448    -0.415932263     0.212784597    -0.178109708
   36     7.085533238     2.528900833     5.574760155    -0.449369180     0.175414320    -0.131518655
   37     7.591092599     5.141780718     7.511471414    -0.410120580     0.214438352    -0.189254598
   38     5.676140789     6.058987489     4.210610160    -0.426836041     0.197165561    -0.170108011
   39     7.862647489     5.754328203     3.636136151    -0.434197330     0.184700373    -0.165403902
   40     2.629057922     8.773083950     6.183101052    -0.407141062     0.223445279    -0.185225168
   41     6.128429965     1.964988514     3.624078165    -0.448448559     0.174510566    -0.135793786
   42     0.412540245     8.406575980     3.073112215    -0.418000354     0.199335165    -0.188523727
   43     3.950350972     6.991266474     5.217503226    -0.423709026     0.200054918    -0.174495533
   44     8.890746180     3.990607863     4.500842059    -0.435917817     0.185289356    -0.160135916
   45     4.230176990     9.507315313     4.676667311    -0.412621558     0.210390660    -0.188359284
   46     7.322203400     1.185818954     1.976408656    -0.446352915     0.181037221    -0.134143953
   47     6.746667430     1.755552693     9.541173385    -0.413681710     0.210333752    -0.186083732
   48     9.951582536     3.412402560     0.462275477    -0.407234177     0.228109689    -0.179238097
   49     3.191048974     5.264561167     1.552170305     0.417696423    -0.182544756     0.205443691
   50     6.345808998     9.338647503     6.673224216    -0.402004897     0.217776827    -0.202398903
   51     9.622779102     5.772259882     0.601609101    -0.418388837     0.196465679    -0.190662051
   52     9.330231672     9.534641639     1.302787729    -0.401980396     0.213054054    -0.207411985
   53     8.599458335     4.214803259     9.225800536    -0.406719895     0.224339059    -0.185070024
   54     4.758570567     2.321512547     9.537218274    -0.403593745     0.243548307    -0.166722259
   55     3.204793713     9.989821774     2.438624809    -0.403641599     0.221498051    -0.194966851
   56     6.315935246     3.982443425     9.402677521    -0.414061001     0.212085340    -0.183230173
   57     5.205601765     5.908611129     7.032446177    -0.416399790     0.207662395    -0.182996024
   58     4.078562110     0.196742944     6.822775849    -0.405096881     0.225827552    -0.186811225
   59     5.730292151     1.675772718     7.537889561    -0.411470893     0.218925356    -0.181006611
   60     8.835598070     6.355087878     8.783510810    -0.407446941     0.219103928    -0.189685157
   61     9.000475374     1.728584212     9.686920636    -0.422901404     0.205877175    -0.169614243
   62     8.832244570     7.244494674     2.121082704    -0.420468952     0.198300760    -0.184072455
   63     2.094823873     7.778126192     9.314918662    -0.399647067     0.227030815    -0.196822842
   64     3.434783357     9.099818346     0.381737501    -0.406212041     0.212115859    -0.199996601
   65     4.561729067     3.826442261     3.228690072    -0.376208885     0.267655389    -0.191904841
   66     0.960038643     6.708189712     7.822046019    -0.396241584     0.231669306    -0.198297604
   67     7.791022109     2.737093771     7.933842124    -0.413230404     0.221683416    -0.173485147
   68     0.954062916     2.267579881     5.033210056    -0.471058058     0.151095856    -0.072624711
   21    11.847925316     6.480889939     4.099712801     0.412107654    -0.204647814     0.195669501
   22    19.180230987     1.864512394     6.139639521    -0.457583143     0.168594037    -0.110425169
   23    19.064304568     9.391838105     7.004479152    -0.408529990     0.217790906    -0.188866007
   24    14.011095142     4.279551753     7.832590573    -0.417420308     0.201975048    -0.186992959
   25    15.289753952     0.523402036     1.117606644    -0.402151987     0.222965494    -0.196367429
   26    11.848979909     1.105779919     7.654751851    -0.104146273    -0.382595931     0.304588094
   27    10.513603086     3.106038396     2.942955276    -0.417057468     0.213858246    -0.174148553
   28    17.506763804     5.544852143     1.212234141    -0.423266919     0.198142910    -0.177720293
   29    18.219393625     8.197665046     5.291748967    -0.400686691     0.224626119    -0.197467168
   30    16.989360355     9.111326426     1.988794241    -0.413596730     0.217032868    -0.178422193
   31    15.501729417    10.075077118     9.003185456    -0.407011797     0.227541461    -0.180461300
   32    17.628604305     0.726064355     8.232113958    -0.405819117     0.227103378    -0.183670629
   33    10.691827637     8.100390943     5.634331343    -0.408287842     0.224997651    -0.180768070
   34    20.289131608     3.085156904     8.352563818    -0.483317131    -0.104247693     0.074410814
   35    17.661420819     7.686801169     0.528776317    -0.415932976     0.212775993    -0.178118322
   36    17.175189188     2.673561045     5.862847025    -0.449353131     0.175522697    -0.131428863
   37    17.680748549     5.286440930     7.799558284    -0.410119294     0.214435670    -0.189260424
   38    15.765796739     6.203647701     4.498697030    -0.426835750     0.197163553    -0.170111070
   39    17.952303439     5.898988414     3.924223021    -0.434194176     0.184701210    -0.165411247
   40    12.718713871     8.917744162     6.471187921    -0.407145755     0.223436778    -0.185225108
   41    16.218085915     2.109648726     3.912165034    -0.448434247     0.174602589    -0.135722738
   42    10.502196194     8.551236192     3.361199084    -0.418008980     0.199325553    -0.188514766
   43    14.040006922     7.135926686     5.505590095    -0.423709748     0.200051292    -0.174497937
   44    18.980402130     4.135268075     4.788928929    -0.435912183     0.185295517    -0.160144124
   45    14.319832940     9.651975525     4.964754181    -0.412624593     0.210383269    -0.188360892
   46    17.411859350     1.330479165     2.264495525    -0.446340005     0.181111068    -0.134087213
   47    16.836323380     1.900212905     9.829260255    -0.413681313     0.210349298    -0.186067043
   48    20.041238486     3.557062772     0.750362347    -0.407231746     0.228105725    -0.179248662
   49    13.280704924     5.409221379     1.840257174     0.417631342    -0.182814637     0.205335995
   50    16.435464948     9.483307715     6.961311085    -0.402009060     0.217770691    -0.202397239
   51    19.712435052     5.916920093     0.889695971    -0.418388385     0.196458957    -0.190669971
   52    19.419887622     9.679301851     1.590874599    -0.401984022     0.213037573    -0.207421886
   53    18.689114285     4.359463470     9.513887405    -0.406717763     0.224326475    -0.185089961
   54    14.848226517     2.466172758     9.825305144    -0.403587294     0.243565821    -0.166712290
   55    13.294449663    10.134481985     2.726711678    -0.403644974     0.221487513    -0.194971835
   56    16.405591196     4.127103636     9.690764391    -0.414058623     0.212094724    -0.183224684
   57    15.295257715     6.053271340     7.320533047    -0.416398529     0.207664138    -0.182996915
   58    14.168218060     0.341403156     7.110862718    -0.405095256     0.225854407    -0.186782280
   59    15.819948101     1.820432930     7.825976431    -0.411467544     0.218952768    -0.180981065
   60    18.925254020     6.499748089     9.071597680    -0.407446900     0.219096549    -0.189693768
   61    19.090131324     1.873244424     9.975007506    -0.422903422     0.205897678    -0.169584320
   62    18.921900520     7.389154886     2.409169573    -0.420467842     0.198293204    -0.184083131
   63    12.184479823     7.922786403     9.603005531    -0.399651704     0.227024927    -0.196820216
   64    13.524439307     9.244478557     0.669824370    -0.406215613     0.212104860    -0.200001011
   65    14.651385017     3.971102473     3.516776941    -0.376247670     0.267578328    -0.191936262
   66    11.049694593     6.852849924     8.110132889    -0.396246797     0.231662736    -0.198294863
   67    17.880678059     2.881753983     8.221928993    -0.413225861     0.221690316    -0.173487152
   68    11.043718865     2.412240093     5.321296926    -0.471095506     0.150933050    -0.072720280
   21    21.937581266     6.625550151     4.387799670     0.412114506    -0.204622947     0.195681077
   22    29.269886936     2.009172605     6.427726391    -0.457611741     0.168431683    -0.110554345
   23    29.153960518     9.536498317     7.292566022    -0.408532877     0.217801636    -0.188847387
   24    24.100751092     4.424211965     8.120677442    -0.417431414     0.201954202    -0.186990682
   25    25.379409902     0.668062247     1.405693513    -0.402160452     0.222947388    -0.196370653
   26    21.938635859     1.250440130     7.942838721    -0.104068664    -0.381779342     0.305637444
   27    20.603259036     3.250698608     3.231042146    -0.417060662     0.213783322    -0.174232876
   28    27.596419754     5.689512354     1.500321010    -0.423270625     0.198136694    -0.177718397
   29    28.309049575     8.342325257     5.579835836    -0.400692710     0.224632685    -0.197447485
   30    27.079016305     9.255986637     2.276881110    -0.413600515     0.217030435    -0.178416378
   31    25.591385366    10.219737330     9.291272326    -0.407012292     0.227550271    -0.180449075
   32    27.718260255     0.870724567     8.520200828    -0.405833740     0.227065579    -0.183685052
   33    20.781483586     8.245051154     5.922418213    -0.408289706     0.224988656    -0.180775055
   34    30.378787558     3.229817115     8.640650688    -0.483308843    -0.104672545     0.073866234
   35    27.751076769     7.831461381     0.816863187    -0.415935986     0.212772459    -0.178115514
   36    27.264845138     2.818221257     6.150933894    -0.449371546     0.175420361    -0.131502510
   37    27.770404499     5.431101141     8.087645153    -0.410129215     0.214425265    -0.189250714
   38    25.855452689     6.348307912     4.786783900    -0.426842762     0.197150759    -0.170108302
   39    28.041959389     6.043648626     4.212309890    -0.434201821     0.184686034    -0.165408125
   40    22.808369821     9.062404373     6.759274791    -0.407147484     0.223432423    -0.185226560
   41    26.307741865     2.254308937     4.200251904    -0.448451604     0.174514665    -0.135778461
   42    20.591852144     8.695896404     3.649285954    -0.418009471     0.199314564    -0.188525295
   43    24.129662871     7.280586898     5.793676965    -0.423715880     0.200040438    -0.174495489
   44    29.070058080     4.279928286     5.077015799    -0.435922192     0.185274839    -0.160140804
   45    24.409488889     9.796635736     5.252841050    -0.412627661     0.210380337    -0.188357445
   46    27.501515300     1.475139377     2.552582395    -0.446356268     0.181039600    -0.134129583
   47    26.925979330     2.044873116    10.117347125    -0.413694619     0.210316671    -0.186074341
   48    30.130894436     3.701722983     1.038449216    -0.407237461     0.228094699    -0.179249711
   49    23.370360874     5.553881591     2.128344044     0.417819262    -0.182371059     0.205348147
   50    26.525120898     9.627967926     7.249397955    -0.402011680     0.217775621    -0.202386730
   51    29.802091001     6.061580305     1.177782840    -0.418392001     0.196454268    -0.190666867
   52    29.509543571     9.823962063     1.878961469    -0.401985728     0.213038085    -0.207418053
   53    28.778770235     4.504123682     9.801974275    -0.406730781     0.224322109    -0.185066646
   54    24.937882467     2.610832970    10.113392014    -0.403603511     0.243534169    -0.166719268
   55    23.384105613    10.279142197     3.014798548    -0.403648610     0.221482412    -0.194970103
   56    26.495247146     4.271763848     9.978851261    -0.414072352     0.212067093    -0.183225640
   57    25.384913664     6.197931552     7.608619917    -0.416408804     0.207647128    -0.182992836
   58    24.257874010     0.486063367     7.398949588    -0.405110359     0.225799180    -0.186816294
   59    25.909604051     1.965093141     8.114063300    -0.411482532     0.218904666    -0.181005174
   60    29.014909970     6.644408301     9.359684549    -0.407453330     0.219094716    -0.189682074
   61    29.179787274     2.017904635    10.263094375    -0.422914331     0.205860964    -0.169601686
   62    29.011556469     7.533815097     2.697256443    -0.420472670     0.198287984    -0.184077726
   63    22.274135773     8.067446615     9.891092401    -0.399652853     0.227020785    -0.196822661
   64    23.614095257     9.389138769     0.957911240    -0.406218854     0.212099595    -0.200000011
   65    24.741040967     4.115762685     3.804863811    -0.376344480     0.267376623    -0.192027534
   66    21.139350542     6.997510135     8.398219758    -0.396247803     0.231656608    -0.198300012
   67    27.970334009     3.026414194     8.510015863    -0.413241390     0.221667167    -0.173479742
   68    21.133374815     2.556900304     5.609383795    -0.471049708     0.151196977    -0.072468244
   21    32.027237216     6.770210362     4.675886540     0.412110715    -0.204641592     0.195669563
   22    39.359542886     2.153832817     6.715813260    -0.457584234     0.168525989    -0.110524474
   23    39.243616468     9.681158529     7.580652891    -0.408517131     0.217822530    -0.188857351
   24    34.190407042     4.568872177     8.408764312    -0.417414712     0.201985974    -0.186993648
   25    35.469065852     0.812722459     1.693780383    -0.402149160     0.222960904    -0.196378432
   26    32.028291809     1.395100342     8.230925590    -0.104189554    -0.382600324     0.304567774
   27    30.692914986     3.395358819     3.519129016    -0.417064408     0.213827237    -0.174170009
   28    37.686075704     5.834172566     1.788407880    -0.423258448     0.198159557    -0.177721906
   29    38.398705525     8.486985469     5.867922706    -0.400673528     0.224656564    -0.197459242
   30    37.168672255     9.400646849     2.564967980    -0.413588298     0.217053247    -0.178416949
   31    35.681041316    10.364397541     9.579359195    -0.406999192     0.227562166    -0.180463621
   32    37.807916205     1.015384778     8.808287698    -0.405816552     0.227102661    -0.183677182
   33    30.871139536     8.389711366     6.210505082    -0.408287403     0.224997283    -0.180769521
   34    40.468443507     3.374477327     8.928737557    -0.483330611    -0.104447975     0.074041483
   35    37.840732719     7.976121592     1.104950057    -0.415923782     0.212794054    -0.178118213
   36    37.354501087     2.962881468     6.439020764    -0.449349200     0.175487197    -0.131489695
   37    37.860060449     5.575761353     8.375732023    -0.410114855     0.214448719    -0.189255258
   38    35.945108638     6.492968124     5.074870769    -0.426828918     0.197177584    -0.170111948
   39    38.131615339     6.188308837     4.500396760    -0.434187502     0.184714441    -0.165413991
   40    32.898025771     9.207064585     7.047361661    -0.407139681     0.223446324    -0.185226943
   41    36.397397814     2.398969149     4.488338774    -0.448430360     0.174572821    -0.135773865
   42    30.681508094     8.840556615     3.937372824    -0.418011879     0.199316601    -0.188517801
   43    34.219318821     7.425247109     6.081763835    -0.423702831     0.200065109    -0.174498893
   44    39.159714029     4.424588498     5.365102668    -0.435906021     0.185305854    -0.160148936
   45    34.499144839     9.941295948     5.540927920    -0.412617779     0.210395764    -0.188361861
   46    37.591171250     1.619799589     2.840669265    -0.446336481     0.181088382    -0.134129579
   47    37.015635280     2.189533328    10.405433994    -0.413680028     0.210347811    -0.186071579
   48    40.220550386     3.846383195     1.326536086    -0.407224644     0.228113539    -0.179254854
   49    33.460016823     5.698541802     2.416430913     0.417700438    -0.182707089     0.205291168
   50    36.614776848     9.772628138     7.537484825    -0.401997398     0.217790332    -0.202399266
   51    39.891746951     6.206240517     1.465869710    -0.418379865     0.196476043    -0.190671059
   52    39.599199521     9.968622274     2.167048338    -0.401973057     0.213061321    -0.207418743
   53    38.868426185     4.648783894    10.090061145    -0.406714755     0.224343478    -0.185075962
   54    35.027538417     2.755493182    10.401478883    -0.403588121     0.243568718    -0.166706053
   55    33.473761563    10.423802409     3.302885417    -0.403639706     0.221497267    -0.194971661
   56    36.584903096     4.416424060    10.266938130    -0.414058045     0.212098276    -0.183221878
   57    35.474569614     6.342591764     7.896706786    -0.416392571     0.207676735    -0.182996178
   58    34.347529959     0.630723579     7.687036458    -0.405094810     0.225851733    -0.186786481
   59    35.999260000     2.109753353     8.402150170    -0.411466292     0.218949999    -0.180987260
   60    39.104565920     6.789068513     9.647771419    -0.407440775     0.219112184    -0.189688866
   61    39.269443224     2.162564847    10.551181245    -0.422900525     0.205893886    -0.169596149
   62    39.101212419     7.678475309     2.985343313    -0.420459576     0.198310958    -0.184082886
   63    32.363791723     8.212106827    10.179179270    -0.399650682     0.227029393    -0.196817142
   64    33.703751207     9.533798980     1.245998110    -0.406211226     0.212113192    -0.200001084
   65    34.830696916     4.260422896     4.092950681    -0.376169791     0.267579566    -0.192087126
   66    31.229006492     7.142170347     8.686306628    -0.396248722     0.231661821    -0.198292085
   67    38.059989959     3.171074406     8.798102732    -0.413223259     0.221697429    -0.173484260
   68    31.223030765     2.701560516     5.897470665    -0.471090056     0.150968225    -0.072682559
   21     1.893344838    16.361323248     3.842251355     0.412112975    -0.204644154     0.195662121
   22     9.225650508    11.744945703     5.882178075    -0.457599332     0.168492518    -0.110512999
   23     9.109724090    19.272271415     6.747017706    -0.408528147     0.217802702    -0.188856391
   24     4.056514663    14.159985063     7.575129127    -0.417426284     0.201961420    -0.186994338
   25     5.335173473    10.403835345     0.860145198    -0.402152145     0.222961639    -0.196371485
   26     1.894399430    10.986213228     7.397290405    -0.104218966    -0.382224187     0.305029634
   27     0.559022608    12.986471705     2.685493830    -0.417055894     0.213835794    -0.174179890
   28     7.552183325    15.425285452     0.954772694    -0.423267725     0.198145414    -0.177715581
   29     8.264813147    18.078098355     5.034287521    -0.400685505     0.224638856    -0.197455085
   30     7.034779876    18.991759735     1.731332795    -0.413596856     0.217037955    -0.178415713
   31     5.547148938    19.955510427     8.745724010    -0.407010139     0.227544115    -0.180461692
   32     7.674023826    10.606497664     7.974652512    -0.405824999     0.227079150    -0.183687588
   33     0.737247158    17.980824252     5.376869897    -0.408286535     0.225001632    -0.180766067
   34    10.334551129    12.965590213     8.095102372    -0.483313923    -0.104520348     0.074048288
   35     7.706840341    17.567234479     0.271314871    -0.415933247     0.212780022    -0.178112875
   36     7.220608709    12.553994354     5.605385579    -0.449363209     0.175461041    -0.131476726
   37     7.726168070    15.166874239     7.542096838    -0.410127565     0.214424572    -0.189255075
   38     5.811216260    16.084081010     4.241235584    -0.426839180     0.197158032    -0.170108862
   39     7.997722960    15.779421724     3.666761575    -0.434198738     0.184695298    -0.165405872
   40     2.764133393    18.798177471     6.213726475    -0.407144978     0.223439092    -0.185224023
   41     6.263505436    11.990082035     3.654703588    -0.448444178     0.174550998    -0.135756281
   42     0.547615716    18.431669501     3.103737638    -0.418007119     0.199331722    -0.188512368
   43     4.085426443    17.016359995     5.248128649    -0.423712396     0.200047513    -0.174495841
   44     9.025821651    14.015701384     4.531467483    -0.435918768     0.185286069    -0.160137129
   45     4.365252461    19.532408834     4.707292735    -0.412624660     0.210383864    -0.188360079
   46     7.457278871    11.210912475     2.007034079    -0.446348412     0.181071011    -0.134113324
   47     6.881742901    11.780646214     9.571798809    -0.413686772     0.210326899    -0.186080225
   48    10.086658007    13.437496081     0.492900900    -0.407232862     0.228108235    -0.179242934
   49     3.326124445    15.289654688     1.582795728     0.417880642    -0.182464133     0.205140461
   50     6.480884469    19.363741024     6.703849639    -0.402006985     0.217772377    -0.202399545
   51     9.757854573    15.797353403     0.632234525    -0.418388823     0.196462807    -0.190665044
   52     9.465307143    19.559735160     1.333413153    -0.401982957     0.213046036    -0.207415257
   53     8.734533807    14.239896780     9.256425959    -0.406727419     0.224318779    -0.185078070
   54     4.893646038    12.346606068     9.567843698    -0.403598698     0.243542366    -0.166718946
   55     3.339869184    20.014915295     2.469250232    -0.403644010     0.221491043    -0.194969820
   56     6.451010717    14.007536946     9.433302945    -0.414066350     0.212075367    -0.183229629
   57     5.340677236    15.933704650     7.063071601    -0.416404385     0.207653164    -0.182996042
   58     4.213637581    10.221836465     6.853401272    -0.405099069     0.225825700    -0.186808720
   59     5.865367622    11.700866239     7.568514984    -0.411472911     0.218925103    -0.181002327
   60     8.970673541    16.380181399     8.814136233    -0.407455243     0.219089233    -0.189684299
   61     9.135550845    11.753677733     9.717546060    -0.422908084     0.205871673    -0.169604265
   62     8.967320041    17.269588195     2.151708127    -0.420469081     0.198295727    -0.184077583
   63     2.229899344    17.803219713     9.345544085    -0.399652703     0.227023084    -0.196820314
   64     3.569858828    19.124911867     0.412362924    -0.406214652     0.212109081    -0.199998485
   65     4.696804538    13.851535782     3.259315495    -0.376589853     0.267570077    -0.191275552
   66     1.095114114    16.733283233     7.852671443    -0.396246501     0.231661285    -0.198297151
   67     7.926097580    12.762187292     7.964467547    -0.413234438     0.221674011    -0.173487555
   68     1.089138387    12.292673402     5.063835480    -0.471063256     0.151074593    -0.072635229
   21    11.983000787    16.505983460     4.130338224     0.412105543    -0.204647159     0.195674632
   22    19.315306458    11.889605915     6.170264945    -0.457606893     0.168410859    -0.110606121
   23    19.199380039    19.416931626     7.035104576    -0.408531275     0.217797275    -0.188855883
   24    14.146170613    14.304645274     7.863215996    -0.417426715     0.201962590    -0.186992111
   25    15.424829423    10.548495557     1.148232067    -0.402155558     0.222944641    -0.196383793
   26    11.984055380    11.130873440     7.685377275    -0.104146905    -0.382327506     0.304924746
   27    10.648678557    13.131131917     2.973580700    -0.417065311     0.213819346    -0.174177533
   28    17.641839275    15.569945664     1.242859564    -0.423269810     0.198138833    -0.177717954
   29    18.354469096    18.222758567     5.322374390    -0.400688715     0.224631128    -0.197457363
   30    17.124435826    19.136419947     2.019419664    -0.413600344     0.217028596    -0.178419012
   31    15.636804888    20.100170639     9.033810880    -0.407011404     0.227550904    -0.180450279
   32    17.763679776    10.751157876     8.262739382    -0.405827921     0.227071597    -0.183690470
   33    10.826903108    18.125484464     5.664956767    -0.408289234     0.224994299    -0.180769098
   34    20.424207079    13.110250425     8.383189242    -0.483320085    -0.104720004     0.073725274
   35    17.796496290    17.711894690     0.559401741    -0.415936528     0.212771556    -0.178115326
   36    17.310264659    12.698654566     5.893472448    -0.449365308     0.175411364    -0.131535824
   37    17.815824020    15.311534451     7.830183707    -0.410128382     0.214430075    -0.189247068
   38    15.900872210    16.228741222     4.529322454    -0.426841038     0.197155993    -0.170106564
   39    18.087378910    15.924081935     3.954848444    -0.434200795     0.184689623    -0.165406809
   40    12.853789342    18.942837683     6.501813345    -0.407147015     0.223436108    -0.185223146
   41    16.353161386    12.134742247     3.942790458    -0.448444313     0.174508920    -0.135809923
   42    10.637271665    18.576329713     3.391824508    -0.418008981     0.199321369    -0.188519186
   43    14.175082393    17.161020207     5.536215519    -0.423714265     0.200045766    -0.174493304
   44    19.115477601    14.160361596     4.819554353    -0.435920709     0.185278554    -0.160140543
   45    14.454908411    19.677069046     4.995379604    -0.412626394     0.210383969    -0.188356165
   46    17.546934821    11.355572686     2.295120949    -0.446349593     0.181034428    -0.134158775
   47    16.971398851    11.925306426     9.859885678    -0.413687604     0.210323545    -0.186082168
   48    20.176313957    13.582156293     0.780987770    -0.407236087     0.228101151    -0.179244622
   49    13.415780395    15.434314900     1.870882598     0.417620490    -0.182735308     0.205428659
   50    16.570540419    19.508401236     6.991936509    -0.402009627     0.217778718    -0.202387475
   51    19.847510523    15.942013614     0.920321394    -0.418392277     0.196454386    -0.190666140
   52    19.554963093    19.704395372     1.621500023    -0.401985329     0.213039137    -0.207417745
   53    18.824189756    14.384556991     9.544512829    -0.406728830     0.224329035    -0.185062539
   54    14.983301988    12.491266279     9.855930568    -0.403601887     0.243535890    -0.166720685
   55    13.429525134    20.159575507     2.757337102    -0.403646773     0.221486625    -0.194969120
   56    16.540666667    14.152197157     9.721389815    -0.414067792     0.212074756    -0.183227077
   57    15.430333186    16.078364861     7.351158471    -0.416404901     0.207654811    -0.182993000
   58    14.303293531    10.366496677     7.141488142    -0.405103920     0.225819109    -0.186806167
   59    15.955023572    11.845526451     7.856601854    -0.411476956     0.218915875    -0.181004293
   60    19.060329491    16.524841611     9.102223103    -0.407454169     0.219095956    -0.189678840
   61    19.225206795    11.898337945    10.005632929    -0.422905830     0.205868618    -0.169613594
   62    19.056975991    17.414248407     2.439794997    -0.420471587     0.198288905    -0.184079207
   63    12.319555294    17.947879924     9.633630955    -0.399658750     0.227017327    -0.196814677
   64    13.659514778    19.269572078     0.700449794    -0.406217332     0.212103366    -0.199999103
   65    14.786460488    13.996195994     3.547402365    -0.376232831     0.267613815    -0.191915874
   66    11.184770064    16.877943445     8.140758312    -0.396253983     0.231652473    -0.198292493
   67    18.015753530    12.906847504     8.252554417    -0.413237028     0.221673060    -0.173482602
   68    11.178794336    12.437333614     5.351922349    -0.471073589     0.151052453    -0.072614254
   21    22.072656737    16.650643672     4.418425094     0.412108109    -0.204645058     0.195671424
   22    29.404962407    12.034266126     6.458351814    -0.457606819     0.168454714    -0.110539625
   23    29.289035989    19.561591838     7.323191445    -0.408525614     0.217810662    -0.188852688
   24    24.235826563    14.449305486     8.151302866    -0.417424812     0.201970474    -0.186987843
   25    25.514485373    10.693155768     1.436318937    -0.402158497     0.222942497    -0.196380208
   26    22.073711330    11.275533651     7.973464144    -0.104151824    -0.382657714     0.304508574
   27    20.738334507    13.275792129     3.261667569    -0.417063362     0.213848969    -0.174145831
   28    27.731495225    15.714605876     1.530946434    -0.423266801     0.198151695    -0.177710780
   29    28.444125046    18.367418778     5.610461260    -0.400683833     0.224646406    -0.197449887
   30    27.214091776    19.281080158     2.307506534    -0.413596677     0.217037296    -0.178416931
   31    25.726460837    20.244830851     9.321897749    -0.407009420     0.227552889    -0.180452251
   32    27.853335726    10.895818088     8.550826252    -0.405828643     0.227079036    -0.183679678
   33    20.916559057    18.270144675     5.953043636    -0.408289039     0.224993439    -0.180770608
   34    30.513863029    13.254910636     8.671276111    -0.483311075    -0.104589725     0.073968875
   35    27.886152240    17.856554902     0.847488611    -0.415932258     0.212783065    -0.178111549
   36    27.399920609    12.843314778     6.181559318    -0.449366914     0.175436779    -0.131496438
   37    27.905479970    15.456194662     8.118270577    -0.410123914     0.214435061    -0.189251102
   38    25.990528160    16.373401433     4.817409323    -0.426838052     0.197163438    -0.170105425
   39    28.177034860    16.068742147     4.242935314    -0.434197734     0.184699302    -0.165404039
   40    22.943445292    19.087497894     6.789900215    -0.407145113     0.223437995    -0.185225050
   41    26.442817336    12.279402459     4.230877327    -0.448446784     0.174527368    -0.135778054
   42    20.726927615    18.720989925     3.679911378    -0.418010687     0.199317223    -0.188519787
   43    24.264738342    17.305680419     5.824302389    -0.423711086     0.200052619    -0.174493167
   44    29.205133551    14.305021807     5.107641222    -0.435917968     0.185288172    -0.160136874
   45    24.544564360    19.821729257     5.283466474    -0.412624604     0.210386178    -0.188357618
   46    27.636590771    11.500232898     2.583207819    -0.446351910     0.181048102    -0.134132612
   47    27.061054801    12.069966637    10.147972548    -0.413687308     0.210329733    -0.186075830
   48    30.265969907    13.726816504     1.069074640    -0.407235583     0.228110024    -0.179234474
   49    23.505436345    15.578975112     2.158969467     0.417644359    -0.182775251     0.205344581
   50    26.660196369    19.653061447     7.280023379    -0.402007641     0.217779907    -0.202390141
   51    29.937166472    16.086673826     1.208408264    -0.418387752     0.196468451    -0.190661576
   52    29.644619042    19.849055584     1.909586892    -0.401982422     0.213043386    -0.207419017
   53    28.913845706    14.529217203     9.832599699    -0.406724650     0.224329295    -0.185071409
   54    25.072957938    12.635926491    10.144017437    -0.403598417     0.243546671    -0.166713338
   55    23.519181084    20.304235718     3.045423971    -0.403646662     0.221485546    -0.194970575
   56    26.630322617    14.296857369    10.009476684    -0.414066276     0.212081490    -0.183222708
   57    25.519989135    16.223025073     7.639245340    -0.416402385     0.207662057    -0.182990503
   58    24.392949481    10.511156888     7.429575012    -0.405104786     0.225831505    -0.186789303
   59    26.044679522    11.990186662     8.144688724    -0.411476997     0.218927743    -0.180989846
   60    29.149985441    16.669501822     9.390309973    -0.407448940     0.219100800    -0.189684477
   61    29.314862745    12.042998156    10.293719799    -0.422907025     0.205874685    -0.169603250
   62    29.146631940    17.558908618     2.727881867    -0.420467713     0.198301598    -0.184074382
   63    22.409211244    18.092540136     9.921717824    -0.399658418     0.227020292    -0.196811930
   64    23.749170728    19.414232290     0.988536664    -0.406218075     0.212100804    -0.200000312
   65    24.876116438    14.140856206     3.835489234    -0.376119488     0.267715021    -0.191996870
   66    21.274426013    17.022603656     8.428845182    -0.396254267     0.231656100    -0.198287689
   67    28.105409480    13.051507715     8.540641286    -0.413234606     0.221677501    -0.173482697
   68    21.268450286    12.581993825     5.640009219    -0.471088400     0.150937084    -0.072757931
   21    32.162312687    16.795303883     4.706511964     0.412103101    -0.204656521     0.195669984
   22    39.494618357    12.178926338     6.746438684    -0.457588074     0.168510950    -0.110531509
   23    39.378691939    19.706252050     7.611278315    -0.408524453     0.217822964    -0.188841011
   24    34.325482513    14.593965698     8.439389735    -0.417414952     0.201979779    -0.186999804
   25    35.604141323    10.837815980     1.724405806    -0.402148312     0.222962882    -0.196377923
   26    32.163367280    11.420193863     8.261551014    -0.104261593    -0.382342112     0.304867233
   27    30.827990457    13.420452340     3.549754439    -0.417060404     0.213837495    -0.174167003
   28    37.821151175    15.859266087     1.819033303    -0.423262375     0.198162509    -0.177709262
   29    38.533780996    18.512078990     5.898548129    -0.400683971     0.224654775    -0.197440084
   30    37.303747726    19.425740370     2.595593404    -0.413590912     0.217055330    -0.178408355
   31    35.816116787    20.389491062     9.609984619    -0.407002702     0.227569774    -0.180446109
   32    37.942991676    11.040478299     8.838913121    -0.405814544     0.227093860    -0.183692499
   33    31.006215007    18.414804887     6.241130506    -0.408283036     0.225007338    -0.180766867
   34    40.603518978    13.399570848     8.959362981    -0.483327587    -0.104472647     0.074026409
   35    37.975808190    18.001215114     1.135575480    -0.415928233     0.212795386    -0.178106230
   36    37.489576558    12.987974989     6.469646188    -0.449352011     0.175477863    -0.131492546
   37    37.995135920    15.600854874     8.406357446    -0.410116147     0.214441167    -0.189261015
   38    36.080184109    16.518061645     5.105496193    -0.426831709     0.197175835    -0.170106973
   39    38.266690810    16.213402359     4.531022183    -0.434192122     0.184711601    -0.165405035
   40    33.033101242    19.232158106     7.077987084    -0.407138856     0.223452628    -0.185221152
   41    36.532473285    12.424062670     4.518964197    -0.448432603     0.174566145    -0.135775041
   42    30.816583565    18.865650136     3.967998247    -0.418006217     0.199330420    -0.188515745
   43    34.354394292    17.450340630     6.112389258    -0.423704642     0.200065712    -0.174493802
   44    39.294789500    14.449682019     5.395728092    -0.435910529     0.185302953    -0.160140020
   45    34.634220310    19.966389469     5.571553343    -0.412618543     0.210402593    -0.188352561
   46    37.726246721    11.644893110     2.871294688    -0.446338395     0.181083149    -0.134130275
   47    37.150710751    12.214626849    10.436059418    -0.413674997     0.210343425    -0.186087723
   48    40.355625857    13.871476716     1.357161509    -0.407225633     0.228126011    -0.179236734
   49    33.595092294    15.723635323     2.447056337     0.417723418    -0.182681730     0.205266977
   50    36.749852319    19.797721659     7.568110248    -0.402000879     0.217798775    -0.202383269
   51    40.026822422    16.231334038     1.496495133    -0.418384904     0.196476469    -0.190659565
   52    39.734274992    19.993715795     2.197673762    -0.401977262     0.213060320    -0.207411622
   53    39.003501656    14.673877415    10.120686568    -0.406715487     0.224335106    -0.185084501
   54    35.162613888    12.780586703    10.432104307    -0.403585097     0.243558295    -0.166728599
   55    33.608837034    20.448895930     3.333510841    -0.403639132     0.221505621    -0.194963359
   56    36.719978567    14.441517581    10.297563554    -0.414054756     0.212092177    -0.183236371
   57    35.609645085    16.367685285     7.927332210    -0.416393450     0.207671615    -0.182999986
   58    34.482605430    10.655817100     7.717661881    -0.405092084     0.225839355    -0.186807359
   59    36.134335471    12.134846874     8.432775593    -0.411464260     0.218939401    -0.181004701
   60    39.239641391    16.814162034     9.678396842    -0.407444972     0.219103854    -0.189689472
   61    39.404518695    12.187658368    10.581806669    -0.422895238     0.205890919    -0.169612933
   62    39.236287890    17.703568830     3.015968736    -0.420464711     0.198308834    -0.184073444
   63    32.498867194    18.237200348    10.209804694    -0.399650305     0.227032868    -0.196813897
   64    33.838826678    19.558892502     1.276623533    -0.406210576     0.212121302    -0.199993803
   65    34.965772388    14.285516417     4.123576104    -0.376172499     0.267612171    -0.192036395
   66    31.364081963    17.167263868     8.716932052    -0.396246778     0.231666620    -0.198290363
   67    38.195065430    13.196167927     8.828728156    -0.413222374     0.221690344    -0.173495421
   68    31.358106236    12.726654037     5.928096088    -0.471084052     0.151001052    -0.072653273
   21     2.028420309    26.386416769     3.872876778     0.412094491    -0.204660809     0.195683632
   22     9.360725979    21.770039224     5.912803499    -0.457602144     0.168453330    -0.110561083
   23     9.244799561    29.297364936     6.777643130    -0.408524456     0.217811717    -0.188853977
   24     4.191590134    24.185078584     7.605754550    -0.417421947     0.201968918    -0.186995920
   25     5.470248944    20.428928866     0.890770621    -0.402153447     0.222953386    -0.196378188
   26     2.029474901    21.011306749     7.427915829    -0.104143254    -0.382280068     0.304985462
   27     0.694098079    23.011565226     2.716119254    -0.417050636     0.213830437    -0.174199055
   28     7.687258796    25.450378973     0.985398118    -0.423266983     0.198148424    -0.177713993
   29     8.399888618    28.103191876     5.064912944    -0.400682525     0.224645799    -0.197453233
   30     7.169855347    29.016853256     1.761958218    -0.413595067     0.217042204    -0.178414692
   31     5.682224409    29.980603948     8.776349434    -0.407003075     0.227554851    -0.180464087
   32     7.809099297    20.631591185     8.005277936    -0.405825410     0.227076537    -0.183689910
   33     0.872322629    28.005917773     5.407495321    -0.408277979     0.225009972    -0.180775011
   34    10.469626600    22.990683734     8.125727796    -0.483314271    -0.104637068     0.073880982
   35     7.841915812    27.592328000     0.301940295    -0.415931659     0.212782625    -0.178113474
   36     7.355684180    22.579087875     5.636011002    -0.449361602     0.175440486    -0.131509645
   37     7.861243541    25.191967760     7.572722261    -0.410124568     0.214429963    -0.189255462
   38     5.946291731    26.109174531     4.271861008    -0.426834487     0.197164934    -0.170112638
   39     8.132798432    25.804515245     3.697386998    -0.434194943     0.184701140    -0.165409310
   40     2.899208864    28.823270992     6.244351899    -0.407136901     0.223448951    -0.185229886
   41     6.398580907    22.015175556     3.685329012    -0.448441080     0.174534795    -0.135787344
   42     0.682691187    28.456763022     3.134363062    -0.417997157     0.199339458    -0.188526277
   43     4.220501914    27.041453516     5.278754073    -0.423706845     0.200054984    -0.174500752
   44     9.160897122    24.040794905     4.562092906    -0.435913993     0.185292370    -0.160142836
   45     4.500327932    29.557502355     4.737918158    -0.412617174     0.210395150    -0.188363874
   46     7.592354342    21.236005996     2.037659503    -0.446346613     0.181056533    -0.134138858
   47     7.016818372    21.805739735     9.602424232    -0.413687008     0.210325358    -0.186081442
   48    10.221733479    23.462589602     0.523526324    -0.407233472     0.228105985    -0.179244411
   49     3.461199916    25.314748209     1.613421152     0.417765708    -0.182541940     0.205305268
   50     6.615959940    29.388834545     6.734475063    -0.401999558     0.217786023    -0.202399613
   51     9.892930044    25.822446924     0.662859948    -0.418388109     0.196464583    -0.190664778
   52     9.600382614    29.584828681     1.364038577    -0.401983521     0.213046532    -0.207413654
   53     8.869609278    24.264990301     9.287051383    -0.406725343     0.224325952    -0.185073939
   54     5.028721509    22.371699589     9.598469122    -0.403595822     0.243545575    -0.166721221
   55     3.474944655    30.040008816     2.499875656    -0.403637940     0.221498656    -0.194973738
   56     6.586086188    24.032630467     9.463928369    -0.414065376     0.212077388    -0.183229490
   57     5.475752707    25.958798171     7.093697025    -0.416399699     0.207660700    -0.182998154
   58     4.348713052    20.246929986     6.884026696    -0.405101677     0.225821929    -0.186807621
   59     6.000443093    21.725959760     7.599140408    -0.411474011     0.218921498    -0.181004189
   60     9.105749012    26.405274920     8.844761657    -0.407450855     0.219094130    -0.189688067
   61     9.270626317    21.778771254     9.748171483    -0.422907310     0.205868934    -0.169609519
   62     9.102395512    27.294681716     2.182333551    -0.420467892     0.198298795    -0.184076994
   63     2.364974815    27.828313234     9.376169509    -0.399647170     0.227031000    -0.196822419
   64     3.704934300    29.150005388     0.442988348    -0.406208181     0.212116828    -0.200003412
   65     4.831880009    23.876629303     3.289940919    -0.376136730     0.267696277    -0.191989227
   66     1.230189585    26.758376754     7.883296866    -0.396242306     0.231668612    -0.198296973
   67     8.061173051    22.787280813     7.995092971    -0.413233089     0.221676463    -0.173487635
   68     1.224213858    22.317766923     5.094460903    -0.471063758     0.151089476    -0.072601007
   21    12.118076258    26.531076981     4.160963648     0.412107884    -0.204648260     0.195668550
   22    19.450381929    21.914699436     6.200890368    -0.457608744     0.168421519    -0.110582229
   23    19.334455510    29.442025147     7.065729999    -0.408532073     0.217794189    -0.188857715
   24    14.281246084    24.329738795     7.893841420    -0.417427007     0.201965484    -0.186988335
   25    15.559904894    20.573589078     1.178857491    -0.402159602     0.222941278    -0.196379328
   26    12.119130851    21.155966961     7.716002698    -0.104179461    -0.382530496     0.304658924
   27    10.783754028    23.156225438     3.004206123    -0.417055725     0.213844839    -0.174169190
   28    17.776914746    25.595039185     1.273484988    -0.423271345     0.198135921    -0.177717544
   29    18.489544567    28.247852088     5.352999814    -0.400690823     0.224628081    -0.197456552
   30    17.259511297    29.161513468     2.050045088    -0.413598737     0.217030663    -0.178420223
   31    15.771880359    30.125264160     9.064436303    -0.407011268     0.227547226    -0.180455223
   32    17.898755247    20.776251397     8.293364805    -0.405827825     0.227079302    -0.183681155
   33    10.961978579    28.150577985     5.695582190    -0.408288268     0.224997246    -0.180767613
   34    20.559282550    23.135343946     8.413814665    -0.483313535    -0.104689580     0.073811369
   35    17.931571761    27.736988211     0.590027165    -0.415937147     0.212769568    -0.178116256
   36    17.445340130    22.723748087     5.924097872    -0.449367723     0.175416466    -0.131520770
   37    17.950899491    25.336627972     7.860809131    -0.410128135     0.214431410    -0.189246092
   38    16.035947681    26.253834743     4.559947877    -0.426840350     0.197156010    -0.170108268
   39    18.222454381    25.949175456     3.985473868    -0.434200684     0.184687850    -0.165409081
   40    12.988864813    28.967931204     6.532438768    -0.407146173     0.223437896    -0.185222840
   41    16.488236857    22.159835768     3.973415881    -0.448447684     0.174510877    -0.135796276
   42    10.772347136    28.601423234     3.422449932    -0.418008392     0.199324196    -0.188517502
   43    14.310157864    27.186113728     5.566840943    -0.423713431     0.200046090    -0.174494957
   44    19.250553072    24.185455117     4.850179776    -0.435920579     0.185277446    -0.160142177
   45    14.589983882    29.702162567     5.026005028    -0.412625585     0.210384618    -0.188357211
   46    17.682010292    21.380666207     2.325746373    -0.446353366     0.181034388    -0.134146276
   47    17.106474322    21.950399947     9.890511102    -0.413687742     0.210331697    -0.186072645
   48    20.311389428    23.607249814     0.811613194    -0.407239279     0.228098515    -0.179240725
   49    13.550855866    25.459408421     1.901508021     0.417596907    -0.182754947     0.205459127
   50    16.705615890    29.533494757     7.022561933    -0.402009260     0.217775086    -0.202392112
   51    19.982585994    25.967107135     0.950946818    -0.418393044     0.196451501    -0.190667429
   52    19.690038564    29.729488893     1.652125446    -0.401985344     0.213036769    -0.207420150
   53    18.959265227    24.409650512     9.575138253    -0.406728054     0.224331526    -0.185061224
   54    15.118377459    22.516359800     9.886555991    -0.403597044     0.243549761    -0.166712147
   55    13.564600605    30.184669028     2.787962525    -0.403644495     0.221490379    -0.194969571
   56    16.675742138    24.177290678     9.752015238    -0.414067826     0.212081137    -0.183219614
   57    15.565408657    26.103458382     7.381783894    -0.416405041     0.207656484    -0.182990783
   58    14.438369002    20.391590198     7.172113565    -0.405103571     0.225830504    -0.186793149
   59    16.090099043    21.870619972     7.887227278    -0.411476448     0.218925816    -0.180993425
   60    19.195404962    26.549935132     9.132848527    -0.407455028     0.219098298    -0.189674291
   61    19.360282266    21.923431466    10.036258353    -0.422906241     0.205876816    -0.169602618
   62    19.192051462    27.439341928     2.470420421    -0.420472247     0.198286493    -0.184080299
   63    12.454630765    27.972973445     9.664256378    -0.399657134     0.227019660    -0.196815267
   64    13.794590249    29.294665599     0.731075218    -0.406214777     0.212108223    -0.199999141
   65    14.921535959    24.021289515     3.578027788    -0.376230654     0.267587225    -0.191957214
   66    11.319845535    26.903036966     8.171383736    -0.396252125     0.231655525    -0.198292641
   67    18.150829001    22.931941025     8.283179840    -0.413235918     0.221679205    -0.173477394
   68    11.313869807    22.462427135     5.382547773    -0.471081373     0.150993352    -0.072686642
   21    22.207732208    26.675737193     4.449050518     0.412107923    -0.204637919     0.195679284
   22    29.540037878    22.059359647     6.488977238    -0.457601374     0.168440041    -0.110584516
   23    29.424111460    29.586685359     7.353816869    -0.408532697     0.217794710    -0.188855765
   24    24.370902034    24.474399007     8.181928289    -0.417425527     0.201968429    -0.186988457
   25    25.649560844    20.718249289     1.466944360    -0.402155772     0.222945725    -0.196382124
   26    22.208786801    21.300627172     8.004089568    -0.104036374    -0.382574985     0.304651955
   27    20.873409978    23.300885650     3.292292993    -0.417062904     0.213841336    -0.174156300
   28    27.866570696    25.739699397     1.561571857    -0.423267698     0.198151576    -0.177708775
   29    28.579200517    28.392512299     5.641086683    -0.400689675     0.224630041    -0.197456652
   30    27.349167247    29.306173679     2.338131958    -0.413598122     0.217037618    -0.178413188
   31    25.861536308    30.269924372     9.352523173    -0.407012220     0.227551050    -0.180448254
   32    27.988411197    20.920911609     8.581451675    -0.405824278     0.227085356    -0.183681508
   33    21.051634528    28.295238196     5.983669060    -0.408290123     0.224990001    -0.180772439
   34    30.648938500    23.280004157     8.701901535    -0.483320157    -0.104681676     0.073779214
   35    28.021227711    27.881648423     0.878114034    -0.415933543     0.212782603    -0.178109101
   36    27.534996080    22.868408299     6.212184742    -0.449361007     0.175432486    -0.131522349
   37    28.040555441    25.481288183     8.148896000    -0.410125818     0.214435300    -0.189246704
   38    26.125603631    26.398494954     4.848034747    -0.426837917     0.197161963    -0.170107476
   39    28.312110331    26.093835668     4.273560737    -0.434196484     0.184699281    -0.165407342
   40    23.078520763    29.112591416     6.820525638    -0.407146824     0.223434615    -0.185225368
   41    26.577892807    22.304495980     4.261502751    -0.448441284     0.174524905    -0.135799382
   42    20.862003086    28.746083446     3.710536801    -0.418011605     0.199312862    -0.188522362
   43    24.399813813    27.330773940     5.854927812    -0.423711931     0.200049516    -0.174494673
   44    29.340209022    24.330115329     5.138266646    -0.435916115     0.185288464    -0.160141582
   45    24.679639831    29.846822778     5.314091897    -0.412625784     0.210384647    -0.188356742
   46    27.771666242    21.525326419     2.613833242    -0.446346747     0.181047273    -0.134150908
   47    27.196130272    22.095060158    10.178597972    -0.413686001     0.210331664    -0.186076554
   48    30.401045378    23.751910026     1.099700063    -0.407232924     0.228118153    -0.179230170
   49    23.640511816    25.604068633     2.189594891     0.417610021    -0.182752424     0.205434715
   50    26.795271840    29.678154968     7.310648802    -0.402008806     0.217780488    -0.202387200
   51    30.072241943    26.111767347     1.239033687    -0.418388740     0.196465451    -0.190662500
   52    29.779694513    29.874149105     1.940212316    -0.401982943     0.213046122    -0.207415196
   53    29.048921177    24.554310724     9.863225122    -0.406726236     0.224335047    -0.185060951
   54    25.208033409    22.661020012    10.174642861    -0.403592575     0.243558786    -0.166709781
   55    23.654256555    30.329329239     3.076049395    -0.403646952     0.221487167    -0.194968134
   56    26.765398088    24.321950890    10.040102108    -0.414065489     0.212085389    -0.183219974
   57    25.655064606    26.248118594     7.669870764    -0.416403355     0.207659906    -0.182990736
   58    24.528024952    20.536250409     7.460200435    -0.405101645     0.225833464    -0.186793747
   59    26.179754993    22.015280183     8.175314147    -0.411473216     0.218931418    -0.180993996
   60    29.285060912    26.694595343     9.420935396    -0.407452324     0.219101119    -0.189676839
   61    29.449938216    22.068091677    10.324345223    -0.422905988     0.205873323    -0.169607489
   62    29.281707411    27.584002139     2.758507290    -0.420468557     0.198297102    -0.184077299
   63    22.544286715    28.117633657     9.952343248    -0.399657862     0.227023471    -0.196809393
   64    23.884246199    29.439325811     1.019162087    -0.406218311     0.212102539    -0.199997992
   65    25.011191909    24.165949727     3.866114658    -0.376268432     0.267591228    -0.191877570
   66    21.409501484    27.047697177     8.459470606    -0.396252998     0.231659500    -0.198286252
   67    28.240484951    23.076601236     8.571266710    -0.413234258     0.221681204    -0.173478794
   68    21.403525757    22.607087346     5.670634642    -0.471088858     0.150953126    -0.072721675
   21    32.297388158    26.820397404     4.737137387     0.412103112    -0.204651016     0.195675718
   22    39.629693828    22.204019859     6.777064107    -0.457590644     0.168519899    -0.110507225
   23    39.513767410    29.731345571     7.641903738    -0.408517428     0.217823367    -0.188855743
   24    34.460557984    24.619059219     8.470015159    -0.417418183     0.201978922    -0.186993517
   25    35.739216794    20.862909501     1.755031230    -0.402147850     0.222969142    -0.196371761
   26    32.298442751    21.445287384     8.292176437    -0.104197709    -0.382659813     0.304490238
   27    30.963065928    23.445545861     3.580379863    -0.417059312     0.213848568    -0.174156023
   28    37.956226646    25.884359608     1.849658727    -0.423257000     0.198164108    -0.177720280
   29    38.668856467    28.537172511     5.929173553    -0.400672639     0.224659375    -0.197457847
   30    37.438823197    29.450833891     2.626218827    -0.413586120     0.217056314    -0.178418267
   31    35.951192258    30.414584583     9.640610042    -0.407000651     0.227565511    -0.180456110
   32    38.078067147    21.065571820     8.869538545    -0.405819990     0.227096845    -0.183676777
   33    31.141290478    28.439898408     6.271755930    -0.408284218     0.225000997    -0.180772090
   34    40.738594449    23.424664369     8.989988404    -0.483323015    -0.104457804     0.074077189
   35    38.110883661    28.026308635     1.166200904    -0.415922045     0.212797806    -0.178117788
   36    37.624652029    23.013068510     6.500271611    -0.449354566     0.175482588    -0.131477510
   37    38.130211391    25.625948395     8.436982870    -0.410118781     0.214441278    -0.189255181
   38    36.215259580    26.543155166     5.136121616    -0.426829715     0.197175640    -0.170112202
   39    38.401766281    26.238495880     4.561647607    -0.434187494     0.184715717    -0.165412587
   40    33.168176713    29.257251627     7.108612508    -0.407137602     0.223448624    -0.185228738
   41    36.667548756    22.449156191     4.549589621    -0.448435130     0.174569697    -0.135762126
   42    30.951659036    28.890743657     3.998623671    -0.418007477     0.199323496    -0.188520272
   43    34.489469763    27.475434151     6.143014682    -0.423703375     0.200063673    -0.174499218
   44    39.429864971    24.474775540     5.426353515    -0.435907087     0.185306244    -0.160145581
   45    34.769295781    29.991482990     5.602178767    -0.412615900     0.210399189    -0.188362152
   46    37.861322192    21.669986631     2.901920112    -0.446340041     0.181087447    -0.134118995
   47    37.285786222    22.239720370    10.466684841    -0.413681899     0.210342263    -0.186073693
   48    40.490701328    23.896570237     1.387786933    -0.407223474     0.228121135    -0.179247846
   49    33.730167765    25.748728844     2.477681760     0.417699520    -0.182568340     0.205416436
   50    36.884927790    29.822815180     7.598735672    -0.401997615     0.217793976    -0.202394915
   51    40.161897893    26.256427559     1.527120557    -0.418377704     0.196480851    -0.190670846
   52    39.869350463    30.018809316     2.228299185    -0.401970712     0.213064949    -0.207419561
   53    39.138577127    24.698970936    10.151311992    -0.406719832     0.224333258    -0.185077195
   54    35.297689359    22.805680224    10.462729730    -0.403591818     0.243559576    -0.166710459
   55    33.743912505    30.473989451     3.364136264    -0.403634525     0.221504931    -0.194973680
   56    36.855054038    24.466611102    10.328188977    -0.414060652     0.212091452    -0.183223885
   57    35.744720556    26.392778806     7.957957633    -0.416395597     0.207670667    -0.182996178
   58    34.617680902    20.680910621     7.748287305    -0.405095116     0.225852420    -0.186784988
   59    36.269410942    22.159940395     8.463401017    -0.411467840     0.218947676    -0.180986550
   60    39.374716862    26.839255555     9.709022266    -0.407445006     0.219105513    -0.189687482
   61    39.539594166    22.212751889    10.612432092    -0.422903072     0.205887071    -0.169598070
   62    39.371363361    27.728662351     3.046594160    -0.420457345     0.198315215    -0.184083395
   63    32.633942665    28.262293869    10.240430118    -0.399653334     0.227027195    -0.196814292
   64    33.973902149    29.583986023     1.307248957    -0.406206203     0.212121457    -0.200002519
   65    35.100847859    24.310609938     4.154201528    -0.376202114     0.267576224    -0.192028471
   66    31.499157434    27.192357389     8.747557475    -0.396248921     0.231663441    -0.198289794
   67    38.330140901    23.221261448     8.859353579    -0.413227749     0.221688636    -0.173484800
   68    31.493181707    22.751747558     5.958721512    -0.471082060     0.150971879    -0.072726783
   21     2.163495780    36.411510290     3.903502202     0.412101844    -0.204648191     0.195681343
   22     9.495801450    31.795132745     5.943428922    -0.457598638     0.168478879    -0.110536662
   23     9.379875032    39.322458457     6.808268553    -0.408528568     0.217798604    -0.188860204
   24     4.326665605    34.210172105     7.636379974    -0.417417849     0.201973992    -0.186999589
   25     5.605324415    30.454022387     0.921396045    -0.402151430     0.222955081    -0.196380394
   26     2.164550372    31.036400270     7.458541252    -0.104063251    -0.382338410     0.304939634
   27     0.829173550    33.036658747     2.746744677    -0.417048708     0.213836873    -0.174195772
   28     7.822334267    35.475472494     1.016023542    -0.423265935     0.198145244    -0.177720034
   29     8.534964089    38.128285397     5.095538368    -0.400688976     0.224628084    -0.197460296
   30     7.304930818    39.041946777     1.792583642    -0.413594457     0.217039292    -0.178419648
   31     5.817299880    40.005697469     8.806974857    -0.407005090     0.227550969    -0.180464437
   32     7.944174769    30.656684706     8.035903359    -0.405819275     0.227086676    -0.183690930
   33     1.007398100    38.031011294     5.438120744    -0.408281552     0.225007248    -0.180770332
   34    10.604702071    33.015777255     8.156353219    -0.483316338    -0.104551063     0.073989138
   35     7.976991283    37.617421521     0.332565719    -0.415931602     0.212780449    -0.178116207
   36     7.490759651    32.604181396     5.666636426    -0.449360215     0.175453408    -0.131497144
   37     7.996319012    35.217061281     7.603347685    -0.410117302     0.214440690    -0.189259052
   38     6.081367202    36.134268052     4.302486431    -0.426832971     0.197167306    -0.170113693
   39     8.267873903    35.829608766     3.728012422    -0.434194397     0.184699613    -0.165412450
   40     3.034284335    38.848364513     6.274977322    -0.407139274     0.223447175    -0.185226812
   41     6.533656378    32.040269077     3.715954435    -0.448440390     0.174543405    -0.135778556
   42     0.817766658    38.481856543     3.164988486    -0.418001599     0.199335460    -0.188520656
   43     4.355577385    37.066547037     5.309379497    -0.423705844     0.200057000    -0.174500873
   44     9.295972593    34.065888426     4.592718330    -0.435913970     0.185288458    -0.160147426
   45     4.635403403    39.582595876     4.768543582    -0.412618236     0.210393337    -0.188363572
   46     7.727429813    31.261099517     2.068284927    -0.446346074     0.181062846    -0.134132129
   47     7.151893843    31.830833256     9.633049656    -0.413680006     0.210334765    -0.186086376
   48    10.356808950    33.487683123     0.554151748    -0.407231527     0.228102095    -0.179253780
   49     3.596275387    35.339841730     1.644046575     0.417689758    -0.182483671     0.205511499
   50     6.751035411    39.413928066     6.765100486    -0.402002138     0.217781739    -0.202399099
   51    10.028005515    35.847540445     0.693485372    -0.418387561     0.196463037    -0.190667574
   52     9.735458085    39.609922202     1.394664000    -0.401981040     0.213048045    -0.207416909
   53     9.004684749    34.290083822     9.317676806    -0.406716936     0.224334615    -0.185081913
   54     5.163796980    32.396793110     9.629094545    -0.403589795     0.243553016    -0.166724940
   55     3.610020126    40.065102337     2.530501079    -0.403637691     0.221497954    -0.194975052
   56     6.721161659    34.057723988     9.494553792    -0.414059021     0.212084913    -0.183235140
   57     5.610828178    35.983891692     7.124322448    -0.416395885     0.207666053    -0.183000757
   58     4.483788523    30.272023507     6.914652119    -0.405095311     0.225832391    -0.186808780
   59     6.135518564    31.751053281     7.629765832    -0.411467973     0.218932058    -0.181005140
   60     9.240824483    36.430368441     8.875387081    -0.407443724     0.219106412    -0.189689198
   61     9.405701788    31.803864775     9.778796907    -0.422900357     0.205880227    -0.169613148
   62     9.237470983    37.319775237     2.212958975    -0.420466980     0.198297149    -0.184080850
   63     2.500050287    37.853406755     9.406794932    -0.399648801     0.227033033    -0.196816762
   64     3.840009771    39.175098909     0.473613771    -0.406207905     0.212115955    -0.200004899
   65     4.966955480    33.901722824     3.320566342    -0.376155650     0.267553495    -0.192151125
   66     1.365265056    36.783470275     7.913922290    -0.396244652     0.231669107    -0.198291706
   67     8.196248522    32.812374334     8.025718394    -0.413226172     0.221684802    -0.173493456
   68     1.359289329    32.342860444     5.125086327    -0.471069611     0.151047692    -0.072649955
   21    12.253151729    36.556170502     4.191589072     0.412102883    -0.204652622     0.195674522
   22    19.585457400    31.939792957     6.231515792    -0.457604847     0.168416196    -0.110606459
   23    19.469530981    39.467118668     7.096355423    -0.408522557     0.217840265    -0.188825156
   24    14.416321555    34.354832316     7.924466843    -0.417423522     0.201974811    -0.186986041
   25    15.694980365    30.598682599     1.209482914    -0.402154987     0.222947432    -0.196381794
   26    12.254206322    31.181060482     7.746628122    -0.104191232    -0.382359767     0.304869145
   27    10.918829499    33.181318959     3.034831547    -0.417058309     0.213823515    -0.174189183
   28    17.911990217    35.620132706     1.304110411    -0.423266352     0.198160468    -0.177702064
   29    18.624620038    38.272945609     5.383625237    -0.400679249     0.224674636    -0.197427069
   30    17.394586768    39.186606989     2.080670512    -0.413593664     0.217056817    -0.178400166
   31    15.906955830    40.150357681     9.095061727    -0.407002744     0.227573835    -0.180440894
   32    18.033830718    30.801344918     8.323990229    -0.405827627     0.227077862    -0.183683374
   33    11.097054050    38.175671506     5.726207614    -0.408282732     0.225006422    -0.180768694
   34    20.694358021    33.160437467     8.444440089    -0.483320913    -0.104722471     0.073716342
   35    18.066647233    37.762081732     0.620652588    -0.415930993     0.212794528    -0.178100808
   36    17.580415601    32.748841608     5.954723296    -0.449362209     0.175419673    -0.131535331
   37    18.085974962    35.361721493     7.891434554    -0.410125926     0.214441590    -0.189239343
   38    16.171023152    36.278928264     4.590573301    -0.426835391     0.197173789    -0.170100104
   39    18.357529852    35.974268977     4.016099291    -0.434195637     0.184707587    -0.165400290
   40    13.123940284    38.993024725     6.563064192    -0.407138935     0.223454301    -0.185218959
   41    16.623312328    32.184929289     4.004041305    -0.448441358     0.174516492    -0.135809951
   42    10.907422607    38.626516755     3.453075355    -0.418007070     0.199324386    -0.188520234
   43    14.445233335    37.211207249     5.597466366    -0.423708046     0.200064093    -0.174487393
   44    19.385628543    34.210548638     4.880805200    -0.435915608     0.185294144    -0.160136387
   45    14.725059353    39.727256088     5.056630451    -0.412619615     0.210403976    -0.188348667
   46    17.817085763    31.405759728     2.356371796    -0.446347131     0.181040801    -0.134158367
   47    17.241549793    31.975493468     9.921136526    -0.413687926     0.210330514    -0.186073573
   48    20.446464899    33.632343335     0.842238617    -0.407233041     0.228117619    -0.179230585
   49    13.685931337    35.484501942     1.932133445     0.417638611    -0.182693860     0.205428685
   50    16.840691361    39.558588278     7.053187356    -0.402000926     0.217801715    -0.202380011
   51    20.117661465    35.992200656     0.981572241    -0.418387803     0.196476296    -0.190653381
   52    19.825114035    39.754582414     1.682750870    -0.401981467     0.213059179    -0.207404644
   53    19.094340698    34.434744033     9.605763676    -0.406727473     0.224339223    -0.185053170
   54    15.253452930    32.541453321     9.917181415    -0.403596891     0.243550339    -0.166711674
   55    13.699676076    40.209762549     2.818587949    -0.403641382     0.221505968    -0.194958306
   56    16.810817609    34.202384199     9.782640662    -0.414067029     0.212083029    -0.183219225
   57    15.700484128    36.128551903     7.412409318    -0.416400956     0.207668289    -0.182986682
   58    14.573444473    30.416683719     7.202738989    -0.405102229     0.225826145    -0.186801328
   59    16.225174514    31.895713493     7.917852701    -0.411475220     0.218923935    -0.180998492
   60    19.330480433    36.575028653     9.163473950    -0.407452033     0.219107018    -0.189670650
   61    19.495357737    31.948524987    10.066883776    -0.422906775     0.205874508    -0.169604088
   62    19.327126933    37.464435449     2.501045844    -0.420467525     0.198310921    -0.184064767
   63    12.589706236    37.998066966     9.694881802    -0.399647829     0.227036574    -0.196814651
   64    13.929665720    39.319759120     0.761700641    -0.406213117     0.212121482    -0.199988451
   65    15.056611430    34.046383036     3.608653212    -0.376143225     0.267753263    -0.191897015
   66    11.454921006    36.928130487     8.202009160    -0.396242487     0.231671614    -0.198293103
   67    18.285904472    32.957034546     8.313805264    -0.413234829     0.221682606    -0.173475642
   68    11.448945278    32.487520656     5.413173196    -0.471074736     0.151034125    -0.072644936
   21    22.342807679    36.700830714     4.479675941     0.412113236    -0.204655452     0.195649755
   22    29.675113349    32.084453168     6.519602661    -0.457614161     0.168399915    -0.110592715
   23    29.559186931    39.611778880     7.384442292    -0.408536039     0.217793170    -0.188850310
   24    24.505977505    34.499492528     8.212553713    -0.417430163     0.201964050    -0.186982839
   25    25.784636315    30.743342810     1.497569784    -0.402158777     0.222948908    -0.196372357
   26    22.343862272    31.325720693     8.034714991    -0.104355876    -0.382643202     0.304456945
   27    21.008485449    33.325979171     3.322918417    -0.417057166     0.213863673    -0.174142614
   28    28.001646167    35.764792918     1.592197281    -0.423272526     0.198144045    -0.177705673
   29    28.714275988    38.417605820     5.671712107    -0.400694257     0.224629732    -0.197447704
   30    27.484242718    39.331267200     2.368757381    -0.413602485     0.217034750    -0.178406563
   31    25.996611779    40.295017893     9.383148596    -0.407018351     0.227530162    -0.180460765
   32    28.123486668    30.946005130     8.612077099    -0.405829702     0.227077424    -0.183679332
   33    21.186710000    38.320331717     6.014294484    -0.408291644     0.225003972    -0.180751613
   34    30.784013971    33.305097678     8.732526958    -0.483310285    -0.104747543     0.073750396
   35    28.156303182    37.906741944     0.908739458    -0.415938184     0.212778020    -0.178103738
   36    27.670071551    32.893501820     6.242810165    -0.449371523     0.175405166    -0.131522858
   37    28.175630912    35.506381704     8.179521424    -0.410133592     0.214426359    -0.189239989
   38    26.260679102    36.423588475     4.878660170    -0.426843619     0.197157713    -0.170098093
   39    28.447185802    36.118929189     4.304186161    -0.434202980     0.184692124    -0.165398281
   40    23.213596234    39.137684937     6.851151062    -0.407152520     0.223437703    -0.185209120
   41    26.712968278    32.329589501     4.292128175    -0.448450730     0.174503274    -0.135795988
   42    20.997078557    38.771176967     3.741162225    -0.418009285     0.199337047    -0.188501934
   43    24.534889284    37.355867461     5.885553236    -0.423717271     0.200046802    -0.174484817
   44    29.475284493    34.355208850     5.168892069    -0.435923479     0.185279335    -0.160132098
   45    24.814715302    39.871916299     5.344717321    -0.412631694     0.210378652    -0.188350493
   46    27.906741713    31.550419940     2.644458666    -0.446355632     0.181030458    -0.134144038
   47    27.331205743    32.120153679    10.209223395    -0.413692293     0.210323538    -0.186071751
   48    30.536120849    33.777003547     1.130325487    -0.407239714     0.228103142    -0.179233847
   49    23.775587287    35.629162154     2.220220314     0.417697967    -0.182913844     0.205112003
   50    26.930347311    39.703248490     7.341274226    -0.402015098     0.217762044    -0.202394549
   51    30.207317415    36.136860868     1.269659111    -0.418393770     0.196460864    -0.190656188
   52    29.914769984    39.899242626     1.970837739    -0.401989510     0.213043481    -0.207405181
   53    29.183996648    34.579404245     9.893850546    -0.406735244     0.224324573    -0.185053849
   54    25.343108880    32.686113533    10.205268284    -0.403601363     0.243546263    -0.166706802
   55    23.789332026    40.354422760     3.106674818    -0.403650923     0.221486763    -0.194960371
   56    26.900473559    34.347044411    10.070727531    -0.414071973     0.212076192    -0.183215966
   57    25.790140077    36.273212115     7.700496187    -0.416408635     0.207655036    -0.182984248
   58    24.663100423    30.561343930     7.490825859    -0.405102802     0.225834914    -0.186789483
   59    26.314830464    32.040373704     8.205939571    -0.411477634     0.218926237    -0.180990219
   60    29.420136383    36.719688864     9.451560820    -0.407460672     0.219091585    -0.189669918
   61    29.585013687    32.093185198    10.354970646    -0.422912223     0.205863927    -0.169603348
   62    29.416782882    37.609095660     2.789132714    -0.420473909     0.198293389    -0.184069074
   63    22.679362186    38.142727178     9.982968672    -0.399659901     0.227025896    -0.196802454
   64    24.019321670    39.464419332     1.049787511    -0.406221239     0.212104951    -0.199989487
   65    25.146267380    34.191043248     3.896740082    -0.376281941     0.267495891    -0.191983982
   66    21.544576955    37.072790698     8.490096029    -0.396254513     0.231664898    -0.198276917
   67    28.375560422    33.101694757     8.601892133    -0.413241643     0.221672411    -0.173472437
   68    21.538601228    32.632180867     5.701260066    -0.471086810     0.150940828    -0.072760454
   21    32.432463629    36.845490925     4.767762811     0.412109821    -0.204643912     0.195669018
   22    39.764769299    32.229113380     6.807689531    -0.457592378     0.168493445    -0.110540374
   23    39.648842881    39.756439092     7.672529162    -0.408518270     0.217831797    -0.188844200
   24    34.595633455    34.644152740     8.500640582    -0.417418513     0.201977887    -0.186993900
   25    35.874292265    30.888003022     1.785656654    -0.402143982     0.222967322    -0.196381750
   26    32.433518222    31.470380905     8.322801861    -0.104261736    -0.382563096     0.304589835
   27    31.098141399    33.470639382     3.611005286    -0.417064751     0.213849309    -0.174142087
   28    38.091302117    35.909453129     1.880284150    -0.423257853     0.198158184    -0.177724854
   29    38.803931938    38.562266032     5.959798976    -0.400675508     0.224666086    -0.197444390
   30    37.573898668    39.475927412     2.656844251    -0.413588713     0.217050410    -0.178419438
   31    36.086267729    40.439678104     9.671235466    -0.407001873     0.227571787    -0.180445440
   32    38.213142618    31.090665341     8.900163968    -0.405816116     0.227095466    -0.183687043
   33    31.276365949    38.464991929     6.302381353    -0.408289137     0.224997897    -0.180764840
   34    40.873669920    33.449757890     9.020613828    -0.483319975    -0.104542515     0.073977456
   35    38.245959132    38.051402156     1.196826327    -0.415924339     0.212791618    -0.178119823
   36    37.759727501    33.038162031     6.530897035    -0.449354883     0.175466294    -0.131498170
   37    38.265286862    35.651041916     8.467608294    -0.410119926     0.214441260    -0.189252721
   38    36.350335051    36.568248687     5.166747040    -0.426831331     0.197173320    -0.170110837
   39    38.536841752    36.263589401     4.592273030    -0.434188973     0.184710388    -0.165414655
   40    33.303252184    39.282345148     7.139237931    -0.407141564     0.223448202    -0.185220538
   41    36.802624227    32.474249712     4.580215044    -0.448434795     0.174556683    -0.135779965
   42    31.086734507    38.915837178     4.029249094    -0.418012774     0.199319977    -0.188512247
   43    34.624545234    37.500527672     6.173640105    -0.423705292     0.200062214    -0.174496236
   44    39.564940442    34.499869061     5.456978939    -0.435907689     0.185300534    -0.160150551
   45    34.904371252    40.016576511     5.632804190    -0.412620081     0.210398342    -0.188353938
   46    37.996397663    31.695080152     2.932545535    -0.446339704     0.181077111    -0.134134070
   47    37.420861693    32.264813891    10.497310265    -0.413679910     0.210339792    -0.186080908
   48    40.625776799    33.921663758     1.418412356    -0.407221858     0.228114160    -0.179260393
   49    33.865243236    35.773822365     2.508307184     0.417712481    -0.182601389     0.205360696
   50    37.020003261    39.847908701     7.629361095    -0.401999980     0.217800430    -0.202383273
   51    40.296973364    36.281521080     1.557745980    -0.418380083     0.196475107    -0.190671545
   52    40.004425934    40.043902837     2.258924609    -0.401975602     0.213054196    -0.207421129
   53    39.273652598    34.724064457    10.181937415    -0.406719135     0.224336814    -0.185074414
   54    35.432764830    32.830773745    10.493355154    -0.403587605     0.243558925    -0.166721609
   55    33.878987976    40.499082972     3.394761688    -0.403641959     0.221498032    -0.194966128
   56    36.990129509    34.491704623    10.358814401    -0.414058671     0.212090300    -0.183229696
   57    35.879796027    36.417872327     7.988583057    -0.416396585     0.207669205    -0.182995589
   58    34.752756373    30.706004142     7.778912728    -0.405092372     0.225847139    -0.186797323
   59    36.404486414    32.185033916     8.494026440    -0.411465164     0.218943454    -0.180997741
   60    39.509792333    36.864349076     9.739647689    -0.407446078     0.219106371    -0.189684189
   61    39.674669637    32.237845410    10.643057516    -0.422900839     0.205884506    -0.169606752
   62    39.506438832    37.753755872     3.077219583    -0.420460113     0.198309604    -0.184083117
   63    32.769018136    38.287387390    10.271055541    -0.399657674     0.227026914    -0.196805803
   64    34.108977620    39.609079544     1.337874380    -0.406213650     0.212114416    -0.199994863
   65    35.235923330    34.335703459     4.184826951    -0.376159584     0.267588351    -0.192094877
   66    31.634232905    37.217450910     8.778182899    -0.396255373     0.231659218    -0.198281835
   67    38.465216372    33.246354969     8.889979003    -0.413225751     0.221690021    -0.173487789
   68    31.628257178    32.776841079     5.989346936    -0.471096015     0.150920488    -0.072743046
   21     2.045140537     6.368365464    13.823611293     0.412093562    -0.204655634     0.195691001
   22     9.377446208     1.751987918    15.863538013    -0.457594647     0.168472189    -0.110563377
   23     9.261519789     9.279313630    16.728377644    -0.408524979     0.217814633    -0.188849483
   24     4.208310363     4.167027278    17.556489065    -0.417419280     0.201972677    -0.186997815
   25     5.486969173     0.410877561    10.841505136    -0.402149357     0.222952672    -0.196387374
   26     2.046195130     0.993255443    17.378650343    -0.104063389    -0.382593697     0.304619228
   27     0.710818307     2.993513921    12.666853769    -0.417039929     0.213878223    -0.174166021
   28     7.703979025     5.432327668    10.936132633    -0.423261308     0.198153892    -0.177721411
   29     8.416608846     8.085140570    15.015647459    -0.400684124     0.224647109    -0.197448497
   30     7.186575576     8.998801951    11.712692733    -0.413592557     0.217041162    -0.178421779
   31     5.698944638     9.962552643    18.727083948    -0.407003711     0.227564406    -0.180450603
   32     7.825819526     0.613539880    17.956012451    -0.405821582     0.227087623    -0.183684661
   33     0.889042858     7.987866467    15.358229835    -0.408276066     0.225010846    -0.180778243
   34    10.486346829     2.972632428    18.076462310    -0.483328942    -0.104563717     0.073888858
   35     7.858636041     7.574276694    10.252674810    -0.415927332     0.212785590    -0.178120037
   36     7.372404409     2.561036570    15.586745517    -0.449355960     0.175451739    -0.131513911
   37     7.877963770     5.173916455    17.523456776    -0.410121438     0.214436717    -0.189254591
   38     5.963011960     6.091123225    14.222595522    -0.426830068     0.197171693    -0.170115890
   39     8.149518660     5.786463939    13.648121513    -0.434189540     0.184707143    -0.165416792
   40     2.915929093     8.805219687    16.195086414    -0.407135979     0.223449145    -0.185231677
   41     6.415301136     1.997124251    13.636063527    -0.448436596     0.174541709    -0.135793268
   42     0.699411415     8.438711717    13.085097577    -0.417996788     0.199336847    -0.188529855
   43     4.237222143     7.023402211    15.229488588    -0.423703024     0.200061230    -0.174502871
   44     9.177617351     4.022743600    14.512827421    -0.435908061     0.185298890    -0.160151438
   45     4.517048161     9.539451049    14.688652673    -0.412616657     0.210396074    -0.188363974
   46     7.609074571     1.217954690    11.988394018    -0.446342151     0.181062030    -0.134146285
   47     7.033538601     1.787688429    19.553158747    -0.413684540     0.210332394    -0.186078977
   48    10.238453707     3.444538297    10.474260839    -0.407226522     0.228115511    -0.179248077
   49     3.477920145     5.296696904    11.564155666     0.417593412    -0.182761440     0.205460453
   50     6.632680169     9.370783240    16.685209578    -0.402000799     0.217791261    -0.202391512
   51     9.909650273     5.804395618    10.613594463    -0.418382627     0.196469577    -0.190671662
   52     9.617102843     9.566777376    11.314773091    -0.401979269     0.213044640    -0.207423838
   53     8.886329506     4.246938995    19.237785898    -0.406722452     0.224333077    -0.185071655
   54     5.045441738     2.353648283    19.549203636    -0.403595466     0.243550207    -0.166715317
   55     3.491664884    10.021957510    12.450610170    -0.403638341     0.221494234    -0.194977932
   56     6.602806417     4.014579161    19.414662883    -0.414062855     0.212084222    -0.183227276
   57     5.492472936     5.940746865    17.044431539    -0.416396922     0.207664836    -0.182999778
   58     4.365433281     0.228878680    16.834761211    -0.405098314     0.225838640    -0.186794713
   59     6.017163322     1.707908454    17.549874923    -0.411470339     0.218934920    -0.180996301
   60     9.122469241     6.387223614    18.795496172    -0.407447924     0.219102642    -0.189684531
   61     9.287346545     1.760719949    19.698905998    -0.422905113     0.205875884    -0.169606561
   62     9.119115741     7.276630410    12.133068066    -0.420462484     0.198303901    -0.184083847
   63     2.381695044     7.810261928    19.326904024    -0.399646666     0.227040824    -0.196812110
   64     3.721654528     9.131954082    10.393722863    -0.406209418     0.212110220    -0.200007908
   65     4.848600238     3.858577998    13.240675434    -0.376239835     0.267522917    -0.192028839
   66     1.246909814     6.740325449    17.834031381    -0.396241291     0.231677316    -0.198288832
   67     8.077893280     2.769229508    17.945827485    -0.413229507     0.221684242    -0.173486227
   68     1.240934086     2.299715618    15.045195418    -0.471092208     0.150950305    -0.072705823
   21    12.134796487     6.513025675    14.111698163     0.412102700    -0.204648404     0.195679317
   22    19.467102157     1.896648130    16.151624883    -0.457597834     0.168494781    -0.110515748
   23    19.351175739     9.423973842    17.016464514    -0.408523158     0.217804008    -0.188865676
   24    14.297966313     4.311687490    17.844575934    -0.417420655     0.201971450    -0.186996069
   25    15.576625123     0.555537772    11.129592005    -0.402149573     0.222967510    -0.196370084
   26    12.135851080     1.137915655    17.666737213    -0.104307478    -0.382459172     0.304704663
   27    10.800474257     3.138174132    12.954940638    -0.417045804     0.213852819    -0.174183148
   28    17.793634975     5.576987879    11.224219502    -0.423261682     0.198142391    -0.177733343
   29    18.506264796     8.229800782    15.303734328    -0.400679706     0.224638753    -0.197466970
   30    17.276231526     9.143462162    12.000779603    -0.413593758     0.217033581    -0.178428215
   31    15.788600587    10.107212855    19.015170818    -0.407006711     0.227546615    -0.180466272
   32    17.915475476     0.758200091    18.244099320    -0.405820950     0.227094036    -0.183678130
   33    10.978698808     8.132526679    15.646316705    -0.408282417     0.225001413    -0.180775642
   34    20.576002779     3.117292640    18.364549180    -0.483313987    -0.104536515     0.074025043
   35    17.948291990     7.718936906    10.540761679    -0.415928637     0.212776989    -0.178127264
   36    17.462060359     2.705696781    15.874832387    -0.449359926     0.175465229    -0.131482358
   37    17.967619720     5.318576666    17.811543646    -0.410120965     0.214434924    -0.189257648
   38    16.052667910     6.235783437    14.510682392    -0.426832734     0.197163922    -0.170118210
   39    18.239174610     5.931124151    13.936208382    -0.434192477     0.184697701    -0.165419624
   40    13.005585042     8.949879898    16.483173283    -0.407140372     0.223440316    -0.185232673
   41    16.504957086     2.141784462    13.924150396    -0.448439837     0.174556823    -0.135763131
   42    10.789067365     8.583371928    13.373184446    -0.418003000     0.199329139    -0.188524232
   43    14.326878093     7.168062422    15.517575457    -0.423706232     0.200052636    -0.174504933
   44    19.267273301     4.167403811    14.800914291    -0.435911803     0.185288387    -0.160153407
   45    14.606704110     9.684111261    14.976739542    -0.412620463     0.210385205    -0.188367776
   46    17.698730521     1.362614902    12.276480887    -0.446344606     0.181077694    -0.134116971
   47    17.123194551     1.932348641    19.841245617    -0.413683941     0.210336795    -0.186075332
   48    20.328109657     3.589198508    10.762347708    -0.407225435     0.228096650    -0.179274548
   49    13.567576095     5.441357116    11.852242536     0.417632075    -0.182756359     0.205386374
   50    16.722336119     9.515443451    16.973296447    -0.402005114     0.217773179    -0.202402398
   51    19.999306223     5.949055830    10.901681332    -0.418384081     0.196459437    -0.190678920
   52    19.706758793     9.711437587    11.602859961    -0.401980759     0.213039102    -0.207426638
   53    18.975985456     4.391599207    19.525872767    -0.406721046     0.224330991    -0.185077275
   54    15.135097688     2.498308495    19.837290506    -0.403589899     0.243559192    -0.166715667
   55    13.581320834    10.166617722    12.738697040    -0.403642299     0.221486854    -0.194978122
   56    16.692462367     4.159239373    19.702749753    -0.414061443     0.212087777    -0.183226351
   57    15.582128885     6.085407077    17.332518409    -0.416398288     0.207662339    -0.182999504
   58    14.455089231     0.373538892    17.122848080    -0.405095793     0.225845430    -0.186791970
   59    16.106819272     1.852568666    17.837961792    -0.411469236     0.218941779    -0.180990512
   60    19.212125191     6.531883826    19.083583041    -0.407447655     0.219098884    -0.189689451
   61    19.377002495     1.905380160    19.986992868    -0.422905529     0.205879355    -0.169601311
   62    19.208771690     7.421290622    12.421154935    -0.420463882     0.198294537    -0.184090740
   63    12.471350994     7.954922140    19.614990893    -0.399650023     0.227027919    -0.196820180
   64    13.811310478     9.276614294    10.681809732    -0.406212840     0.212104258    -0.200007280
   65    14.938256188     4.003238210    13.528762303    -0.376260876     0.267524777    -0.191985018
   66    11.336565763     6.884985660    18.122118251    -0.396245516     0.231664191    -0.198295723
   67    18.167549230     2.913889719    18.233914355    -0.413229148     0.221685802    -0.173485090
   68    11.330590036     2.444375829    15.333282288    -0.471071961     0.151022675    -0.072686720
   21    22.224452437     6.657685887    14.399785032     0.412102992    -0.204643238     0.195684106
   22    29.556758107     2.041308342    16.439711752    -0.457615902     0.168419125    -0.110556249
   23    29.440831689     9.568634053    17.304551384    -0.408523129     0.217811343    -0.188857280
   24    24.387622263     4.456347701    18.132662804    -0.417429137     0.201963311    -0.186985926
   25    25.666281073     0.700197984    11.417678875    -0.402163448     0.222936652    -0.196376706
   26    22.225507030     1.282575867    17.954824083    -0.104099939    -0.382374020     0.304882455
   27    20.890130207     3.282834344    13.243027508    -0.417054318     0.213814615    -0.174209662
   28    27.883290925     5.721648091    11.512306372    -0.423269589     0.198140337    -0.177716803
   29    28.595920746     8.374460994    15.591821198    -0.400681815     0.224645552    -0.197454955
   30    27.365887476     9.288122374    12.288866472    -0.413597205     0.217035308    -0.178418123
   31    25.878256537    10.251873066    19.303257687    -0.407001982     0.227559305    -0.180460936
   32    28.005131426     0.902860303    18.532186190    -0.405835268     0.227070746    -0.183675287
   33    21.068354757     8.277186891    15.934403575    -0.408283168     0.224996790    -0.180779698
   34    30.665658728     3.261952852    18.652636049    -0.483302005    -0.104692850     0.073882195
   35    28.037947940     7.863597117    10.828848549    -0.415934668     0.212775887    -0.178114497
   36    27.551716309     2.850356993    16.162919256    -0.449373951     0.175412710    -0.131504498
   37    28.057275670     5.463236878    18.099630515    -0.410126679     0.214431706    -0.189248912
   38    26.142323859     6.380443649    14.798769261    -0.426840409     0.197158087    -0.170105714
   39    28.328830560     6.075784362    14.224295252    -0.434200431     0.184691564    -0.165405599
   40    23.095240992     9.094540110    16.771260153    -0.407140981     0.223439752    -0.185232014
   41    26.594613035     2.286444674    14.212237266    -0.448453411     0.174506662    -0.135782777
   42    20.878723315     8.728032140    13.661271316    -0.418003906     0.199321151    -0.188530669
   43    24.416534042     7.312722634    15.805662327    -0.423712936     0.200048100    -0.174493856
   44    29.356929250     4.312064023    15.089001160    -0.435921639     0.185278215    -0.160138402
   45    24.696360060     9.828771473    15.264826412    -0.412621263     0.210387091    -0.188363918
   46    27.788386471     1.507275113    12.564567757    -0.446358522     0.181030155    -0.134134830
   47    27.212850501     2.077008853    20.129332486    -0.413694037     0.210322015    -0.186069594
   48    30.417765607     3.733858720    11.050434578    -0.407239813     0.228096462    -0.179242123
   49    23.657232044     5.586017327    12.140329406     0.417629540    -0.182659720     0.205477479
   50    26.811992069     9.660103663    17.261383317    -0.402000708     0.217783751    -0.202399773
   51    30.088962172     6.093716041    11.189768202    -0.418390319     0.196458837    -0.190665849
   52    29.796414742     9.856097799    11.890946830    -0.401982236     0.213046295    -0.207416388
   53    29.065641406     4.536259418    19.813959637    -0.406727861     0.224328780    -0.185064976
   54    25.224753638     2.642968706    20.125377375    -0.403606229     0.243538057    -0.166707010
   55    23.670976784    10.311277934    13.026783910    -0.403643288     0.221487347    -0.194975515
   56    26.782118317     4.303899584    19.990836622    -0.414072407     0.212073688    -0.183217884
   57    25.671784835     6.230067288    17.620605278    -0.416406157     0.207655849    -0.182988964
   58    24.544745181     0.518199104    17.410934950    -0.405110889     0.225818825    -0.186791396
   59    26.196475222     1.997228878    18.126048662    -0.411483755     0.218915351    -0.180989470
   60    29.301781141     6.676544038    19.371669911    -0.407450370     0.219099952    -0.189682384
   61    29.466658445     2.050040372    20.275079737    -0.422912844     0.205866046    -0.169599226
   62    29.298427640     7.565950834    12.709241805    -0.420469296     0.198294407    -0.184078515
   63    22.561006944     8.099582351    19.903077763    -0.399650800     0.227025208    -0.196821729
   64    23.900966428     9.421274505    10.969896602    -0.406213775     0.212104073    -0.200005578
   65    25.027912138     4.147898421    13.816849173    -0.376096584     0.267749351    -0.191993865
   66    21.426221713     7.029645872    18.410205120    -0.396246263     0.231660333    -0.198298737
   67    28.257205180     3.058549931    18.522001224    -0.413240411     0.221671681    -0.173476306
   68    21.420245986     2.589036041    15.621369157    -0.471073139     0.151052649    -0.072616768
   21    32.314108387     6.802346099    14.687871902     0.412098738    -0.204657068     0.195678602
   22    39.646414057     2.185968553    16.727798622    -0.457609156     0.168428612    -0.110569720
   23    39.530487639     9.713294265    17.592638253    -0.408513974     0.217821068    -0.188865865
   24    34.477278212     4.601007913    18.420749674    -0.417419642     0.201982577    -0.186986313
   25    35.755937022     0.844858196    11.705765745    -0.402149193     0.222965878    -0.196372717
   26    32.315162980     1.427236078    18.242910952    -0.104052326    -0.382521913     0.304713143
   27    30.979786157     3.427494556    13.531114377    -0.417061995     0.213837683    -0.174162962
   28    37.972946874     5.866308303    11.800393242    -0.423256547     0.198159811    -0.177726152
   29    38.685576696     8.519121205    15.879908068    -0.400670934     0.224654161    -0.197467239
   30    37.455543426     9.432782586    12.576953342    -0.413585166     0.217051630    -0.178426175
   31    35.967912487    10.396533278    19.591344557    -0.406996603     0.227569938    -0.180459658
   32    38.094787376     1.047520515    18.820273059    -0.405824894     0.227089440    -0.183675098
   33    31.158010707     8.421847102    16.222490444    -0.408280925     0.225006039    -0.180773252
   34    40.755314678     3.406613063    18.940722919    -0.483300338    -0.104742800     0.073822278
   35    38.127603890     8.008257329    11.116935418    -0.415922262     0.212793291    -0.178122675
   36    37.641372258     2.995017205    16.451006126    -0.449364991     0.175430146    -0.131511856
   37    38.146931619     5.607897089    18.387717385    -0.410118279     0.214451594    -0.189244580
   38    36.231979809     6.525103860    15.086856131    -0.426829111     0.197178504    -0.170110398
   39    38.418486510     6.220444574    14.512382122    -0.434187684     0.184715154    -0.165412716
   40    33.184896942     9.239200322    17.059347022    -0.407134969     0.223452434    -0.185229930
   41    36.684268985     2.431104886    14.500324135    -0.448444497     0.174525896    -0.135787498
   42    30.968379265     8.872692352    13.949358185    -0.418006344     0.199325721    -0.188520432
   43    34.506189992     7.457382846    16.093749196    -0.423702643     0.200066751    -0.174497465
   44    39.446585200     4.456724235    15.377088030    -0.435907479     0.185305988    -0.160144812
   45    34.786016010     9.973431684    15.552913282    -0.412614418     0.210401407    -0.188362922
   46    37.878042420     1.651935325    12.852654626    -0.446348091     0.181053823    -0.134137596
   47    37.302506451     2.221669064    20.417419356    -0.413685727     0.210339414    -0.186068402
   48    40.507421557     3.878518932    11.338521447    -0.407223662     0.228117231    -0.179252387
   49    33.746887994     5.730677539    12.428416275     0.417498611    -0.182939226     0.205494890
   50    36.901648019     9.804763875    17.549470186    -0.401994498     0.217798324    -0.202396427
   51    40.178618122     6.238376253    11.477855072    -0.418377894     0.196477518    -0.190673864
   52    39.886070692    10.000758011    12.179033700    -0.401971611     0.213058059    -0.207424897
   53    39.155297356     4.680919630    20.102046506    -0.406719527     0.224349788    -0.185057825
   54    35.314409587     2.787628918    20.413464245    -0.403597718     0.243554767    -0.166703201
   55    33.760632733    10.455938145    13.314870779    -0.403635671     0.221501368    -0.194975354
   56    36.871774267     4.448559796    20.278923492    -0.414064381     0.212092150    -0.183214651
   57    35.761440785     6.374727500    17.908692148    -0.416396190     0.207675451    -0.182989399
   58    34.634401130     0.662859315    17.699021819    -0.405104561     0.225834521    -0.186786145
   59    36.286131171     2.141889089    18.414135532    -0.411475656     0.218932965    -0.180986578
   60    39.391437091     6.821204249    19.659756781    -0.407443298     0.219117864    -0.189676885
   61    39.556314395     2.194700584    20.563166607    -0.422904839     0.205882264    -0.169599501
   62    39.388083590     7.710611045    12.997328674    -0.420457455     0.198311919    -0.184086694
   63    32.650662894     8.244242563    20.191164632    -0.399649216     0.227033419    -0.196815474
   64    33.990622378     9.565934717    11.257983471    -0.406207638     0.212116860    -0.200004482
   65    35.117568087     4.292558633    14.104936042    -0.376641086     0.266923620    -0.192076218
   66    31.515877663     7.174306084    18.698291990    -0.396246020     0.231666616    -0.198291882
   67    38.346861130     3.203210143    18.810088094    -0.413229999     0.221693869    -0.173472754
   68    31.509901936     2.733696253    15.909456027    -0.471095265     0.150951044    -0.072684479
   21     2.180216008    16.393458985    13.854236717     0.412107262    -0.204643324     0.195675022
   22     9.512521679    11.777081439    15.894163437    -0.457598559     0.168478878    -0.110536994
   23     9.396595261    19.304407151    16.759003068    -0.408535743     0.217798694    -0.188844581
   24     4.343385834    14.192120799    17.587114488    -0.417425613     0.201967866    -0.186988873
   25     5.622044644    10.435971082    10.872130559    -0.402151734     0.222949139    -0.196386516
   26     2.181270601    11.018348964    17.409275767    -0.104118892    -0.382690003     0.304479257
   27     0.845893778    13.018607442    12.697479192    -0.417054275     0.213844231    -0.174173409
   28     7.839054496    15.457421189    10.966758056    -0.423270603     0.198133967    -0.177721490
   29     8.551684317    18.110234091    15.046272882    -0.400696042     0.224630003    -0.197443774
   30     7.321651047    19.023895472    11.743318157    -0.413600621     0.217026782    -0.178420577
   31     5.834020109    19.987646164    18.757709372    -0.407013040     0.227549587    -0.180448251
   32     7.960894997    10.638633401    17.986637874    -0.405821053     0.227091510    -0.183681025
   33     1.024118329    18.012959989    15.388855259    -0.408285168     0.225000742    -0.180770262
   34    10.621422300    12.997725949    18.107087734    -0.483318692    -0.104552789     0.073971320
   35     7.993711512    17.599370215    10.283300233    -0.415936924     0.212768090    -0.178118542
   36     7.507479880    12.586130091    15.617370941    -0.449361988     0.175450333    -0.131495187
   37     8.013039241    15.199009976    17.554082199    -0.410126186     0.214433584    -0.189247853
   38     6.098087431    16.116216746    14.253220946    -0.426840783     0.197155472    -0.170107806
   39     8.284594131    15.811557460    13.678746936    -0.434200649     0.184686924    -0.165410207
   40     3.051004564    18.830313208    16.225711837    -0.407145598     0.223438454    -0.185223432
   41     6.550376607    12.022217772    13.666688950    -0.448442698     0.174538440    -0.135777316
   42     0.834486886    18.463805238    13.115723000    -0.418004513     0.199327586    -0.188522520
   43     4.372297614    17.048495732    15.260114011    -0.423713974     0.200045731    -0.174494051
   44     9.312692822    14.047837121    14.543452845    -0.435919827     0.185276108    -0.160145772
   45     4.652123632    19.564544570    14.719278096    -0.412626275     0.210383103    -0.188357392
   46     7.744150042    11.243048211    12.019019441    -0.446348449     0.181056779    -0.134132415
   47     7.168614072    11.812781950    19.583784171    -0.413682690     0.210340191    -0.186074276
   48    10.373529178    13.469631818    10.504886262    -0.407235439     0.228089986    -0.179260300
   49     3.612995616    15.321790425    11.594781090     0.417684532    -0.182673463     0.205353446
   50     6.767755640    19.395876761    16.715835001    -0.402010890     0.217777898    -0.202385848
   51    10.044725744    15.829489139    10.644219886    -0.418392833     0.196451120    -0.190668284
   52     9.752178314    19.591870897    11.345398515    -0.401987846     0.213032265    -0.207419926
   53     9.021404977    14.272032516    19.268411321    -0.406725230     0.224331670    -0.185067255
   54     5.180517209    12.378741804    19.579829060    -0.403593614     0.243555066    -0.166712701
   55     3.626740355    20.047051031    12.481235594    -0.403644776     0.221485724    -0.194974277
   56     6.737881888    14.039672682    19.445288307    -0.414063771     0.212086996    -0.183221994
   57     5.627548407    15.965840386    17.075056963    -0.416404108     0.207657850    -0.182991354
   58     4.500508752    10.253972201    16.865386634    -0.405095730     0.225846134    -0.186791256
   59     6.152238793    11.733001975    17.580500346    -0.411469891     0.218939822    -0.180991390
   60     9.257544712    16.412317135    18.826121595    -0.407453844     0.219098610    -0.189676472
   61     9.422422016    11.785813470    19.729531422    -0.422903014     0.205885212    -0.169600473
   62     9.254191212    17.301723931    12.163693489    -0.420473375     0.198285956    -0.184078300
   63     2.516770515    17.835355449    19.357529447    -0.399651035     0.227031872    -0.196813566
   64     3.856729999    19.157047603    10.424348286    -0.406214889     0.212102810    -0.200004655
   65     4.983675709    13.883671519    13.271300857    -0.376155466     0.267693000    -0.191957087
   66     1.381985285    16.765418970    17.864656805    -0.396244918     0.231668894    -0.198291424
   67     8.212968751    12.794323029    17.976452909    -0.413230973     0.221685730    -0.173480834
   68     1.376009558    12.324809139    15.075820841    -0.471072161     0.150998198    -0.072736259
   21    12.269871958    16.538119196    14.142323586     0.412115626    -0.204633528     0.195667652
   22    19.602177629    11.921741651    16.182250306    -0.457594103     0.168461110    -0.110582511
   23    19.486251210    19.449067363    17.047089938    -0.408529620     0.217811781    -0.188842732
   24    14.433041784    14.336781011    17.875201358    -0.417423391     0.201966575    -0.186995227
   25    15.711700594    10.580631293    11.160217429    -0.402154852     0.222942823    -0.196387302
   26    12.270926551    11.163009176    17.697362637    -0.104089028    -0.382354268     0.304910951
   27    10.935549728    13.163267653    12.985566062    -0.417064314     0.213808452    -0.174193296
   28    17.928710446    15.602081400    11.254844926    -0.423269664     0.198143888    -0.177712664
   29    18.641340267    18.254894303    15.334359752    -0.400689794     0.224642239    -0.197442531
   30    17.411306997    19.168555683    12.031405026    -0.413598169     0.217037819    -0.178412835
   31    15.923676059    20.132306376    19.045796241    -0.407011208     0.227556482    -0.180443687
   32    18.050550947    10.783293613    18.274724744    -0.405822207     0.227078384    -0.183694702
   33    11.113774279    18.157620200    15.676942129    -0.408292673     0.224992172    -0.180763978
   34    20.711078250    13.142386161    18.395174603    -0.483336110    -0.104570908     0.073831767
   35    18.083367461    17.744030427    10.571387103    -0.415935912     0.212778170    -0.178108864
   36    17.597135830    12.730790302    15.905457810    -0.449356833     0.175443226    -0.131522283
   37    18.102695191    15.343670187    17.842169069    -0.410123712     0.214433063    -0.189253803
   38    16.187743381    16.260876958    14.541307815    -0.426838061     0.197161506    -0.170107642
   39    18.374250081    15.956217672    13.966833806    -0.434198047     0.184696266    -0.165406605
   40    13.140660513    18.974973419    16.513798707    -0.407148373     0.223438032    -0.185217839
   41    16.640032557    12.166877983    13.954775820    -0.448437845     0.174534188    -0.135798810
   42    10.924142836    18.608465450    13.403809870    -0.418014758     0.199313154    -0.188515062
   43    14.461953564    17.193155943    15.548200881    -0.423712056     0.200050353    -0.174493410
   44    19.402348772    14.192497332    14.831539714    -0.435917132     0.185285929    -0.160141745
   45    14.741779581    19.709204782    15.007364966    -0.412627815     0.210385032    -0.188351863
   46    17.833805992    11.387708423    12.307106311    -0.446344701     0.181052910    -0.134150107
   47    17.258270022    11.957442162    19.871871040    -0.413682969     0.210329266    -0.186086005
   48    20.463185128    13.614292029    10.792973132    -0.407235724     0.228105498    -0.179239914
   49    13.702651566    15.466450637    11.882867960     0.417660603    -0.182675014     0.205400731
   50    16.857411590    19.540536972    17.003921871    -0.402009454     0.217784692    -0.202381390
   51    20.134381694    15.974149351    10.932306756    -0.418391462     0.196460900    -0.190661217
   52    19.841834264    19.736531108    11.633485384    -0.401984251     0.213043363    -0.207415494
   53    19.111060927    14.416692728    19.556498191    -0.406723954     0.224329488    -0.185072704
   54    15.270173159    12.523402016    19.867915929    -0.403592316     0.243546512    -0.166728339
   55    13.716396305    20.191711243    12.769322464    -0.403648927     0.221484918    -0.194966600
   56    16.827537838    14.184332894    19.733375176    -0.414062966     0.212079330    -0.183232689
   57    15.717204356    16.110500598    17.363143832    -0.416401595     0.207658562    -0.182996267
   58    14.590164702    10.398632413    17.153473504    -0.405098492     0.225824231    -0.186811746
   59    16.241894743    11.877662187    17.868587216    -0.411471028     0.218923494    -0.181008555
   60    19.347200662    16.556977347    19.114208465    -0.407450239     0.219099763    -0.189682884
   61    19.512077966    11.930473681    20.017618291    -0.422901961     0.205876197    -0.169614041
   62    19.343847161    17.446384143    12.451780359    -0.420469874     0.198295464    -0.184076055
   63    12.606426465    17.980015661    19.645616317    -0.399656787     0.227024889    -0.196809938
   64    13.946385949    19.301707815    10.712435156    -0.406219490     0.212100927    -0.199997308
   65    15.073331659    14.028331731    13.559387727    -0.376312433     0.267537662    -0.191865976
   66    11.471641234    16.910079181    18.152743674    -0.396252288     0.231660669    -0.198286305
   67    18.302624701    12.938983240    18.264539778    -0.413231053     0.221678252    -0.173490201
   68    11.465665507    12.469469350    15.363907711    -0.471073829     0.151035274    -0.072648427
   21    22.359527908    16.682779408    14.430410456     0.412112000    -0.204641042     0.195667430
   22    29.691833578    12.066401863    16.470337176    -0.457598525     0.168458980    -0.110567454
   23    29.575907160    19.593727574    17.335176807    -0.408524054     0.217804019    -0.188863725
   24    24.522697734    14.481441222    18.163288228    -0.417418896     0.201973593    -0.186997682
   25    25.801356544    10.725291505    11.448304299    -0.402155842     0.222947446    -0.196380028
   26    22.360582501    11.307669388    17.985449506    -0.104495148    -0.382451433     0.304650070
   27    21.025205678    13.307927865    13.273652931    -0.417066635     0.213830995    -0.174160062
   28    28.018366396    15.746741612    11.542931795    -0.423264650     0.198145776    -0.177722502
   29    28.730996217    18.399554515    15.622446622    -0.400681815     0.224637559    -0.197464049
   30    27.500962947    19.313215895    12.319491896    -0.413594440     0.217038465    -0.178420695
   31    26.013332008    20.276966587    19.333883111    -0.407006882     0.227554425    -0.180456038
   32    28.140206897    10.927953824    18.562811613    -0.405818687     0.227088597    -0.183689854
   33    21.203430228    18.302280412    15.965028998    -0.408288157     0.224997980    -0.180766949
   34    30.800734199    13.287046373    18.683261473    -0.483317658    -0.104631626     0.073866528
   35    28.173023411    17.888690638    10.859473972    -0.415930734     0.212780856    -0.178117746
   36    27.686791780    12.875450514    16.193544680    -0.449359240     0.175442988    -0.131514379
   37    28.192351141    15.488330399    18.130255939    -0.410119101     0.214438252    -0.189257916
   38    26.277399330    16.405537170    14.829394685    -0.426834875     0.197164174    -0.170112545
   39    28.463906031    16.100877883    14.254920676    -0.434194389     0.184698459    -0.165413760
   40    23.230316463    19.119633631    16.801885576    -0.407144137     0.223440979    -0.185223596
   41    26.729688506    12.311538195    14.242862689    -0.448440326     0.174533219    -0.135791860
   42    21.013798786    18.753125661    13.691896739    -0.418010446     0.199322439    -0.188514805
   43    24.551609513    17.337816155    15.836287750    -0.423708639     0.200053462    -0.174498142
   44    29.492004722    14.337157544    15.119626584    -0.435914069     0.185287285    -0.160148514
   45    24.831435531    19.853864994    15.295451836    -0.412623489     0.210387887    -0.188358151
   46    27.923461942    11.532368635    12.595193180    -0.446346640     0.181053429    -0.134142956
   47    27.347925972    12.102102374    20.159957910    -0.413679051     0.210338746    -0.186083999
   48    30.552841078    13.758952241    11.081060001    -0.407232589     0.228102312    -0.179251091
   49    23.792307516    15.611110848    12.170954829     0.417686277    -0.182694615     0.205331078
   50    26.947067540    19.685197184    17.292008740    -0.402004055     0.217783576    -0.202393315
   51    30.224037643    16.118809562    11.220393626    -0.418386336     0.196463133    -0.190670162
   52    29.931490213    19.881191320    11.921572254    -0.401979878     0.213048285    -0.207418914
   53    29.200716877    14.561352939    19.844585060    -0.406718494     0.224336525    -0.185076173
   54    25.359829109    12.668062227    20.156002799    -0.403588103     0.243559173    -0.166720044
   55    23.806052255    20.336371455    13.057409333    -0.403645487     0.221489485    -0.194968534
   56    26.917193788    14.328993105    20.021462046    -0.414058019     0.212089571    -0.183232013
   57    25.806860306    16.255160809    17.651230702    -0.416397551     0.207664033    -0.182999259
   58    24.679820652    10.543292625    17.441560373    -0.405093376     0.225839524    -0.186804352
   59    26.331550693    12.022322399    18.156674085    -0.411466537     0.218936736    -0.181002746
   60    29.436856612    16.701637559    19.402295334    -0.407445401     0.219102943    -0.189689603
   61    29.601733916    12.075133893    20.305705161    -0.422898963     0.205883094    -0.169613145
   62    29.433503111    17.591044355    12.739867228    -0.420465557     0.198297051    -0.184084207
   63    22.696082415    18.124675872    19.933703186    -0.399652381     0.227026445    -0.196817093
   64    24.036041899    19.446368026    11.000522025    -0.406216983     0.212105301    -0.199997761
   65    25.162987609    14.172991942    13.847474596    -0.376304825     0.267446301    -0.192008216
   66    21.561297184    17.054739393    18.440830544    -0.396248487     0.231661925    -0.198292433
   67    28.392280651    13.083643452    18.552626648    -0.413226527     0.221687052    -0.173489736
   68    21.555321457    12.614129562    15.651994581    -0.471071105     0.151010946    -0.072716630
   21    32.449183858    16.827439620    14.718497325     0.412106187    -0.204646675     0.195673782
   22    39.781489528    12.211062074    16.758424046    -0.457590561     0.168462778    -0.110594624
   23    39.665563110    19.738387786    17.623263677    -0.408522047     0.217818840    -0.188850973
   24    34.612353683    14.626101434    18.451375097    -0.417412536     0.201984344    -0.187000267
   25    35.891012493    10.869951717    11.736391168    -0.402143901     0.222961507    -0.196388517
   26    32.450238451    11.452329599    18.273536376    -0.104227929    -0.382544475     0.304624792
   27    31.114861628    13.452588077    13.561739801    -0.417060030     0.213830602    -0.174176363
   28    38.108022345    15.891401824    11.831018665    -0.423259651     0.198150877    -0.177728721
   29    38.820652167    18.544214726    15.910533491    -0.400680116     0.224652403    -0.197450607
   30    37.590618897    19.457876107    12.607578765    -0.413590639     0.217046068    -0.178420255
   31    36.102987958    20.421626799    19.621969981    -0.407001292     0.227566521    -0.180453392
   32    38.229862847    11.072614036    18.850898483    -0.405812045     0.227099470    -0.183691085
   33    31.293086178    18.446940623    16.253115868    -0.408282034     0.225001338    -0.180776600
   34    40.890390149    13.431706584    18.971348343    -0.483325451    -0.104662767     0.073771357
   35    38.262679361    18.033350850    11.147560842    -0.415925393     0.212785818    -0.178124290
   36    37.776447729    13.020110726    16.481631549    -0.449350338     0.175453021    -0.131531407
   37    38.282007090    15.632990610    18.418342808    -0.410115452     0.214447152    -0.189255740
   38    36.367055280    16.550197381    15.117481555    -0.426829184     0.197174181    -0.170115226
   39    38.553561981    16.245538095    14.543007545    -0.434189734     0.184705589    -0.165418018
   40    33.319972413    19.264293843    17.089972446    -0.407137257     0.223447283    -0.185231113
   41    36.819344456    12.456198407    14.530949559    -0.448429896     0.174548036    -0.135807258
   42    31.103454736    18.897785873    13.979983609    -0.418005450     0.199323462    -0.188524803
   43    34.641265463    17.482476367    16.124374620    -0.423702374     0.200063661    -0.174501661
   44    39.581660671    14.481817756    15.407713454    -0.435908945     0.185295357    -0.160153120
   45    34.921091481    19.998525205    15.583538705    -0.412617268     0.210397397    -0.188361158
   46    38.013117892    11.677028846    12.883280050    -0.446335765     0.181069801    -0.134157043
   47    37.437581922    12.246762585    20.448044779    -0.413673836     0.210348271    -0.186084826
   48    40.642497028    13.903612453    11.369146871    -0.407222184     0.228109696    -0.179265333
   49    33.881963465    15.755771060    12.459041699     0.417709783    -0.182708377     0.205271007
   50    37.036723490    19.829857396    17.580095610    -0.401999779     0.217792437    -0.202392272
   51    40.313693593    16.263469774    11.508480495    -0.418381251     0.196468849    -0.190675431
   52    40.021146163    20.025851532    12.209659124    -0.401978978     0.213048161    -0.207420785
   53    39.290372827    14.706013151    20.132671930    -0.406714459     0.224347667    -0.185071536
   54    35.449485059    12.812722439    20.444089669    -0.403580285     0.243568995    -0.166724618
   55    33.895708204    20.481031666    13.345496203    -0.403638975     0.221500228    -0.194969809
   56    37.006849738    14.473653317    20.309548916    -0.414052823     0.212099706    -0.183232024
   57    35.896516256    16.399821021    17.939317572    -0.416391198     0.207675313    -0.183000915
   58    34.769476601    10.687952836    17.729647243    -0.405088821     0.225850598    -0.186800842
   59    36.421206642    12.166982610    18.444760955    -0.411461314     0.218946933    -0.181002287
   60    39.526512562    16.846297770    19.690382204    -0.407443380     0.219109893    -0.189685916
   61    39.691389866    12.219794105    20.593792030    -0.422893808     0.205892530    -0.169614544
   62    39.523159061    17.735704566    13.027954098    -0.420462628     0.198302864    -0.184084634
   63    32.785738365    18.269336084    20.221790056    -0.399647411     0.227029471    -0.196823693
   64    34.125697849    19.591028238    11.288608895    -0.406210266     0.212116915    -0.199999086
   65    35.252643558    14.317652154    14.135561466    -0.376180975     0.267614230    -0.192016922
   66    31.650953134    17.199399605    18.728917413    -0.396243284     0.231664827    -0.198299440
   67    38.481936601    13.228303664    18.840713518    -0.413221338     0.221697625    -0.173488584
   68    31.644977407    12.758789774    15.940081450    -0.471077902     0.151000018    -0.072695288
   21     2.315291480    26.418552506    13.884862140     0.412098986    -0.204655458     0.195679762
   22     9.647597150    21.802174960    15.924788860    -0.457607173     0.168441112    -0.110558885
   23     9.531670732    29.329500672    16.789628491    -0.408528799     0.217802142    -0.188855627
   24     4.478461305    24.217214320    17.617739912    -0.417427160     0.201968098    -0.186985169
   25     5.757120115    20.461064603    10.902755983    -0.402156002     0.222942682    -0.196385108
   26     2.316346072    21.043442485    17.439901190    -0.104104185    -0.382469378     0.304761371
   27     0.980969250    23.043700963    12.728104616    -0.417060466     0.213823064    -0.174184571
   28     7.974129967    25.482514710    10.997383480    -0.423266137     0.198140995    -0.177724290
   29     8.686759788    28.135327612    15.076898306    -0.400688037     0.224632353    -0.197457344
   30     7.456726518    29.048988993    11.773943580    -0.413593285     0.217036690    -0.178425531
   31     5.969095580    30.012739685    18.788334795    -0.407010655     0.227551171    -0.180451631
   32     8.095970468    20.663726922    18.017263298    -0.405831103     0.227078441    -0.183674978
   33     1.159193800    28.038053510    15.419480683    -0.408284982     0.224999683    -0.180772001
   34    10.756497771    23.022819470    18.137713157    -0.483311956    -0.104657948     0.073866550
   35     8.128786983    27.624463736    10.313925657    -0.415932604     0.212775163    -0.178120182
   36     7.642555351    22.611223612    15.647996364    -0.449366378     0.175429397    -0.131508117
   37     8.148114712    25.224103497    17.584707623    -0.410128535     0.214435590    -0.189240489
   38     6.233162902    26.141310267    14.283846369    -0.426838646     0.197159093    -0.170108973
   39     8.419669602    25.836650981    13.709372360    -0.434197638     0.184692328    -0.165412077
   40     3.186080035    28.855406729    16.256337261    -0.407143914     0.223438511    -0.185227063
   41     6.685452078    22.047311293    13.697314374    -0.448445733     0.174522462    -0.135787830
   42     0.969562358    28.488898759    13.146348424    -0.418003857     0.199328760    -0.188522732
   43     4.507373085    27.073589253    15.290739435    -0.423711431     0.200049519    -0.174495884
   44     9.447768293    24.072930642    14.574078268    -0.435917370     0.185280846    -0.160146978
   45     4.787199103    29.589638091    14.749903520    -0.412622652     0.210387218    -0.188360732
   46     7.879225513    21.268141732    12.049644865    -0.446350624     0.181045074    -0.134140978
   47     7.303689543    21.837875471    19.614409594    -0.413691966     0.210330090    -0.186065071
   48    10.508604649    23.494725339    10.535511686    -0.407233610     0.228099604    -0.179252218
   49     3.748071087    25.346883946    11.625406514     0.417602623    -0.182808410     0.205399939
   50     6.902831111    29.420970282    16.746460425    -0.402008495     0.217777261    -0.202391292
   51    10.179801215    25.854582660    10.674845310    -0.418388714     0.196457346    -0.190670908
   52     9.887253785    29.616964418    11.376023938    -0.401978363     0.213043235    -0.207427037
   53     9.156480448    24.297126037    19.299036745    -0.406730002     0.224332223    -0.185056097
   54     5.315592680    22.403835325    19.610454483    -0.403599347     0.243551341    -0.166704264
   55     3.761815826    30.072144552    12.511861017    -0.403639259     0.221492870    -0.194977581
   56     6.872957359    24.064766203    19.475913730    -0.414070647     0.212081077    -0.183213306
   57     5.762623878    25.990933907    17.105682386    -0.416404981     0.207659538    -0.182987453
   58     4.635584223    20.279065722    16.896012058    -0.405104948     0.225827777    -0.186793459
   59     6.287314264    21.758095496    17.611125770    -0.411478127     0.218925106    -0.180990466
   60     9.392620183    26.437410656    18.856747019    -0.407453745     0.219102163    -0.189672581
   61     9.557497487    21.810906991    19.760156845    -0.422911818     0.205874157    -0.169591938
   62     9.389266683    27.326817452    12.194318913    -0.420468109     0.198291683    -0.184084159
   63     2.651845986    27.860448970    19.388154871    -0.399654624     0.227024920    -0.196814296
   64     3.991805470    29.182141124    10.454973710    -0.406209237     0.212110421    -0.200008063
   65     5.118751180    23.908765040    13.301926281    -0.376164845     0.267659894    -0.191984871
   66     1.517060756    26.790512491    17.895282228    -0.396248917     0.231661839    -0.198291675
   67     8.348044222    22.819416550    18.007078332    -0.413238574     0.221678547    -0.173471909
   68     1.511085029    22.349902660    15.106446265    -0.471071132     0.151040747    -0.072654531
   21    12.404947429    26.563212718    14.172949010     0.412103385    -0.204649692     0.195676528
   22    19.737253100    21.946835172    16.212875730    -0.457595110     0.168491314    -0.110532315
   23    19.621326681    29.474160884    17.077715361    -0.408531639     0.217803187    -0.188848277
   24    14.568117255    24.361874532    17.905826782    -0.417423806     0.201975821    -0.186984315
   25    15.846776065    20.605724814    11.190842853    -0.402157466     0.222948256    -0.196375782
   26    12.406002022    21.188102697    17.727988060    -0.104086022    -0.382554388     0.304660862
   27    11.070625199    23.188361175    13.016191485    -0.417055792     0.213835517    -0.174180474
   28    18.063785917    25.627174921    11.285470349    -0.423269631     0.198146684    -0.177709626
   29    18.776415738    28.279987824    15.364985175    -0.400689692     0.224638041    -0.197447515
   30    17.546382468    29.193649204    12.062030450    -0.413598992     0.217036438    -0.178412607
   31    16.058751530    30.157399897    19.076421665    -0.407009643     0.227553353    -0.180451162
   32    18.185626418    20.808387134    18.305350167    -0.405826662     0.227087454    -0.183673648
   33    11.248849750    28.182713721    15.707567552    -0.408288017     0.224996560    -0.180769033
   34    20.846153721    23.167479682    18.425800027    -0.483323912    -0.104529421     0.073970237
   35    18.218442932    27.769123948    10.602012526    -0.415935164     0.212778416    -0.178110319
   36    17.732211301    22.755883824    15.936083234    -0.449358267     0.175462454    -0.131491731
   37    18.237770662    25.368763708    17.872794493    -0.410125481     0.214437551    -0.189244885
   38    16.322818852    26.285970479    14.571933239    -0.426837899     0.197164763    -0.170104274
   39    18.509325552    25.981311193    13.997459230    -0.434197462     0.184699005    -0.165405084
   40    13.275735984    29.000066940    16.544424130    -0.407145209     0.223440167    -0.185222220
   41    16.775108028    22.191971504    13.985401243    -0.448438088     0.174550943    -0.135776468
   42    11.059218307    28.633558971    13.434435293    -0.418008941     0.199318802    -0.188521990
   43    14.597029035    27.218249464    15.578826304    -0.423710873     0.200054126    -0.174491957
   44    19.537424243    24.217590853    14.862165138    -0.435916240     0.185290059    -0.160139394
   45    14.876855053    29.734298303    15.037990389    -0.412624784     0.210387626    -0.188355607
   46    17.968881463    21.412801944    12.337731734    -0.446344569     0.181067598    -0.134130720
   47    17.393345493    21.982535683    19.902496464    -0.413686278     0.210339954    -0.186066567
   48    20.598260599    23.639385550    10.823598555    -0.407235017     0.228107165    -0.179239399
   49    13.837727037    25.491544158    11.913493383     0.417510212    -0.182889913     0.205515212
   50    16.992487061    29.565630493    17.034547294    -0.402007488     0.217781111    -0.202389148
   51    20.269457165    25.999242872    10.962932180    -0.418391313     0.196461485    -0.190660942
   52    19.976909735    29.761624629    11.664110808    -0.401985763     0.213043126    -0.207412807
   53    19.246136398    24.441786249    19.587123614    -0.406724606     0.224334825    -0.185064802
   54    15.405248630    22.548495537    19.898541353    -0.403595259     0.243558239    -0.166704081
   55    13.851471776    30.216804764    12.799947887    -0.403646543     0.221488248    -0.194967753
   56    16.962613309    24.209426415    19.764000600    -0.414065384     0.212089490    -0.183215463
   57    15.852279828    26.135594119    17.393769256    -0.416401885     0.207666060    -0.182987096
   58    14.725240173    20.423725934    17.184098927    -0.405104657     0.225834896    -0.186785484
   59    16.376970214    21.902755708    17.899212639    -0.411475975     0.218933753    -0.180984899
   60    19.482276133    26.582070868    19.144833888    -0.407451751     0.219102374    -0.189676620
   61    19.647153437    21.955567202    20.048243715    -0.422905523     0.205886683    -0.169592431
   62    19.478922633    27.471477664    12.482405782    -0.420471245     0.198295975    -0.184072373
   63    12.741501936    28.005109182    19.676241740    -0.399654636     0.227032124    -0.196805960
   64    14.081461420    29.326801336    10.743060579    -0.406217562     0.212103930    -0.199998038
   65    15.208407130    24.053425252    13.590013150    -0.375884065     0.267584287    -0.192639089
   66    11.606716706    26.935172702    18.183369098    -0.396250822     0.231666578    -0.198282330
   67    18.437700172    22.964076761    18.295165202    -0.413232657     0.221686553    -0.173475772
   68    11.600740978    22.494562871    15.394533135    -0.471085654     0.150979952    -0.072686731
   21    22.494603379    26.707872929    14.461035879     0.412113095    -0.204638102     0.195668199
   22    29.826909049    22.091495384    16.500962600    -0.457604774     0.168414683    -0.110609064
   23    29.710982631    29.618821095    17.365802231    -0.408532295     0.217799166    -0.188851495
   24    24.657773205    24.506534743    18.193913651    -0.417423360     0.201974640    -0.186986585
   25    25.936432015    20.750385026    11.478929722    -0.402154829     0.222950486    -0.196378651
   26    22.495657972    21.332762909    18.016074930    -0.104203815    -0.382423725     0.304784612
   27    21.160281149    23.333021386    13.304278355    -0.417063239     0.213821341    -0.174180047
   28    28.153441867    25.771835133    11.573557219    -0.423267746     0.198149075    -0.177711449
   29    28.866071688    28.424648036    15.653072045    -0.400690996     0.224632102    -0.197451626
   30    27.636038418    29.338309416    12.350117319    -0.413598817     0.217036522    -0.178412911
   31    26.148407479    30.302060108    19.364508535    -0.407012167     0.227550961    -0.180448486
   32    28.275282368    20.953047345    18.593437037    -0.405821602     0.227086298    -0.183686256
   33    21.338505699    28.327373933    15.995654422    -0.408291149     0.224995097    -0.180763780
   34    30.935809670    23.312139894    18.713886897    -0.483322804    -0.104729816     0.073693503
   35    28.308098882    27.913784159    10.890099396    -0.415933749     0.212780986    -0.178110553
   36    27.821867251    22.900544035    16.224170103    -0.449362986     0.175418446    -0.131534314
   37    28.327426612    25.513423920    18.160881362    -0.410123094     0.214440980    -0.189246172
   38    26.412474801    26.430630691    14.860020109    -0.426838725     0.197164329    -0.170102706
   39    28.598981502    26.125971404    14.285546099    -0.434198097     0.184699034    -0.165403383
   40    23.365391934    29.144727152    16.832511000    -0.407147518     0.223438879    -0.185218698
   41    26.864763978    22.336631716    14.273488113    -0.448442589     0.174516161    -0.135806310
   42    21.148874257    28.778219182    13.722522163    -0.418011865     0.199320711    -0.188513488
   43    24.686684984    27.362909676    15.866913174    -0.423712144     0.200053319    -0.174489796
   44    29.627080193    24.362251065    15.150252007    -0.435918293     0.185287499    -0.160136768
   45    24.966511002    29.878958515    15.326077259    -0.412627253     0.210386290    -0.188351690
   46    28.058537413    21.557462156    12.625818604    -0.446348205     0.181041659    -0.134153635
   47    27.483001443    22.127195895    20.190583333    -0.413682274     0.210338565    -0.186077038
   48    30.687916549    23.784045762    11.111685425    -0.407234536     0.228109931    -0.179236971
   49    23.927382987    25.636204369    12.201580253     0.417650374    -0.182662919     0.205432284
   50    27.082143011    29.710290705    17.322634164    -0.402011539     0.217777903    -0.202384554
   51    30.359113114    26.143903083    11.251019049    -0.418389342     0.196464234    -0.190662433
   52    30.066565684    29.906284841    11.952197678    -0.401986769     0.213040885    -0.207413160
   53    29.335792348    24.586446460    19.875210484    -0.406722710     0.224341366    -0.185061040
   54    25.494904580    22.693155748    20.186628223    -0.403592014     0.243555725    -0.166715610
   55    23.941127726    30.361464976    13.088034757    -0.403649024     0.221487211    -0.194963793
   56    27.052269259    24.354086626    20.052087469    -0.414062664     0.212088993    -0.183222186
   57    25.941935777    26.280254330    17.681856126    -0.416401710     0.207665565    -0.182988057
   58    24.814896123    20.568386146    17.472185797    -0.405099454     0.225832363    -0.186799829
   59    26.466626164    22.047415920    18.187299509    -0.411471739     0.218930215    -0.180998808
   60    29.571932083    26.726731080    19.432920758    -0.407448491     0.219105985    -0.189679451
   61    29.736809387    22.100227414    20.336330584    -0.422900451     0.205883591    -0.169608831
   62    29.568578582    27.616137876    12.770492652    -0.420469964     0.198297131    -0.184074053
   63    22.831157886    28.149769393    19.964328610    -0.399657122     0.227024737    -0.196809434
   64    24.171117370    29.471461547    11.031147449    -0.406219856     0.212103619    -0.199993708
   65    25.298063080    24.198085463    13.878100020    -0.376025084     0.267744024    -0.192141286
   66    21.696372655    27.079832914    18.471455967    -0.396252541     0.231661148    -0.198285239
   67    28.527356122    23.108736973    18.583252072    -0.413231263     0.221686900    -0.173478648
   68    21.690396928    22.639223083    15.682620004    -0.471069985     0.151049643    -0.072643474
   21    32.584259329    26.852533141    14.749122749     0.412106549    -0.204647711     0.195671936
   22    39.916564999    22.236155595    16.789049469    -0.457595610     0.168485195    -0.110539573
   23    39.800638581    29.763481307    17.653889100    -0.408526590     0.217807710    -0.188853982
   24    34.747429155    24.651194955    18.482000521    -0.417419685     0.201977332    -0.186991881
   25    36.026087965    20.895045238    11.767016592    -0.402148748     0.222962235    -0.196377764
   26    32.585313922    21.477423120    18.304161799    -0.104225410    -0.382705357     0.304423511
   27    31.249937099    23.477681598    13.592365224    -0.417062038     0.213857445    -0.174138594
   28    38.243097817    25.916495345    11.861644089    -0.423261460     0.198151029    -0.177724242
   29    38.955727638    28.569308247    15.941158915    -0.400682749     0.224645063    -0.197453615
   30    37.725694368    29.482969628    12.638204189    -0.413590215     0.217045861    -0.178421489
   31    36.238063429    30.446720320    19.652595404    -0.407007415     0.227558711    -0.180449430
   32    38.364938318    21.097707557    18.881523906    -0.405818000     0.227094837    -0.183683657
   33    31.428161649    28.472034144    16.283741291    -0.408286726     0.225000866    -0.180766589
   34    41.025465620    23.456800105    19.001973766    -0.483324072    -0.104548236     0.073942599
   35    38.397754832    28.058444371    11.178186266    -0.415927061     0.212786324    -0.178119792
   36    37.911523200    23.045204247    16.512256973    -0.449358378     0.175459604    -0.131495152
   37    38.417082561    25.658084132    18.448968232    -0.410121645     0.214438826    -0.189251753
   38    36.502130751    26.575290902    15.148106978    -0.426834675     0.197168259    -0.170108312
   39    38.688637452    26.270631616    14.573632969    -0.434193653     0.184703006    -0.165410615
   40    33.455047884    29.289387364    17.120597869    -0.407142778     0.223445097    -0.185221615
   41    36.954419927    22.481291928    14.561574982    -0.448439062     0.174548886    -0.135775896
   42    31.238530207    28.922879394    14.010609033    -0.418009819     0.199322279    -0.188516366
   43    34.776340934    27.507569888    16.155000044    -0.423708548     0.200056898    -0.174494425
   44    39.716736142    24.506911277    15.438338877    -0.435913857     0.185291395    -0.160144334
   45    35.056166952    30.023618726    15.614164129    -0.412622304     0.210393160    -0.188354857
   46    38.148193363    21.702122367    12.913905474    -0.446344422     0.181068804    -0.134129583
   47    37.572657393    22.271856106    20.478670203    -0.413678114     0.210345025    -0.186078984
   48    40.777572499    23.928705974    11.399772295    -0.407229329     0.228102433    -0.179258342
   49    34.017038936    25.780864581    12.489667122     0.417635730    -0.182746805     0.205387445
   50    37.171798961    29.854950917    17.610721034    -0.402005854     0.217784680    -0.202388553
   51    40.448769064    26.288563295    11.539105919    -0.418383626     0.196468054    -0.190671039
   52    40.156221634    30.050945053    12.240284547    -0.401975943     0.213055098    -0.207419541
   53    39.425448298    24.731106672    20.163297354    -0.406720247     0.224335896    -0.185073084
   54    35.584560530    22.837815960    20.474715092    -0.403586953     0.243566597    -0.166711979
   55    34.030783676    30.506125187    13.376121626    -0.403641640     0.221495740    -0.194969392
   56    37.141925209    24.498746838    20.340174339    -0.414057883     0.212094789    -0.183226282
   57    36.031591727    26.424914542    17.969942995    -0.416398217     0.207667555    -0.182993748
   58    34.904552072    20.713046357    17.760272666    -0.405093465     0.225849654    -0.186791911
   59    36.556282113    22.192076131    18.475386379    -0.411466839     0.218943982    -0.180993295
   60    39.661588033    26.871391291    19.721007628    -0.407449095     0.219102171    -0.189682560
   61    39.826465337    22.244887626    20.624417454    -0.422897949     0.205890208    -0.169607035
   62    39.658234532    27.760798087    13.058579522    -0.420463820     0.198302417    -0.184082392
   63    32.920813836    28.294429605    20.252415479    -0.399650999     0.227035091    -0.196809925
   64    34.260773320    29.616121759    11.319234319    -0.406212801     0.212111653    -0.199999519
   65    35.387719029    24.342745675    14.166186889    -0.376367501     0.267347807    -0.192022536
   66    31.786028605    27.224493126    18.759542837    -0.396246385     0.231670406    -0.198286724
   67    38.617012072    23.253397185    18.871338941    -0.413227119     0.221689767    -0.173484856
   68    31.780052878    22.783883295    15.970706874    -0.471086988     0.150937088    -0.072767062
   21     2.450366951    36.443646027    13.915487564     0.412100878    -0.204655765     0.195675456
   22     9.782672621    31.827268481    15.955414284    -0.457599068     0.168455015    -0.110571249
   23     9.666746203    39.354594193    16.820253915    -0.408523461     0.217814444    -0.188852984
   24     4.613536776    34.242307841    17.648365336    -0.417420590     0.201975705    -0.186991620
   25     5.892195586    30.486158124    10.933381407    -0.402148642     0.222952256    -0.196389312
   26     2.451421543    31.068536007    17.470526614    -0.104054280    -0.382610481     0.304601259
   27     1.116044721    33.068794484    12.758730039    -0.417053036     0.213849035    -0.174170477
   28     8.109205438    35.507608231    11.028008903    -0.423259637     0.198152136    -0.177727349
   29     8.821835260    38.160421133    15.107523729    -0.400681239     0.224647184    -0.197454266
   30     7.591801989    39.074082514    11.804569004    -0.413590078     0.217043246    -0.178424989
   31     6.104171051    40.037833206    18.818960219    -0.407006297     0.227557331    -0.180453692
   32     8.231045939    30.688820443    18.047888721    -0.405826401     0.227079972    -0.183683474
   33     1.294269271    38.063147031    15.450106106    -0.408282736     0.225004751    -0.180770765
   34    10.891573242    33.047912991    18.168338581    -0.483320639    -0.104611911     0.073874948
   35     8.263862454    37.649557257    10.344551080    -0.415925652     0.212786333    -0.178123072
   36     7.777630822    32.636317133    15.678621788    -0.449358423     0.175442250    -0.131518154
   37     8.283190183    35.249197018    17.615333047    -0.410123213     0.214438452    -0.189248780
   38     6.368238373    36.166403788    14.314471793    -0.426831643     0.197171020    -0.170112719
   39     8.554745073    35.861744502    13.739997784    -0.434190387     0.184705748    -0.165416124
   40     3.321155506    38.880500250    16.286962684    -0.407139986     0.223445717    -0.185227004
   41     6.820527549    32.072404814    13.727939797    -0.448437588     0.174536052    -0.135797262
   42     1.104637829    38.513992280    13.176973847    -0.418004502     0.199330896    -0.188519046
   43     4.642448556    37.098682774    15.321364858    -0.423705146     0.200060237    -0.174498857
   44     9.582843764    34.098024163    14.604703692    -0.435909660     0.185295222    -0.160151331
   45     4.922274574    39.614731612    14.780528943    -0.412619400     0.210393985    -0.188360298
   46     8.014300984    31.293235253    12.080270288    -0.446342961     0.181057732    -0.134149390
   47     7.438765014    31.862968992    19.645035018    -0.413686566     0.210330940    -0.186076115
   48    10.643680120    33.519818860    10.566137109    -0.407224736     0.228106320    -0.179263830
   49     3.883146558    35.371977467    11.656031937     0.417629301    -0.182671366     0.205467610
   50     7.037906582    39.446063803    16.777085848    -0.402003104     0.217785702    -0.202392915
   51    10.314876686    35.879676181    10.705470734    -0.418381616     0.196469408    -0.190674055
   52    10.022329256    39.642057939    11.406649362    -0.401977205     0.213045087    -0.207427379
   53     9.291555919    34.322219558    19.329662168    -0.406725061     0.224333617    -0.185065268
   54     5.450668151    32.428928846    19.641079907    -0.403597053     0.243550633    -0.166710850
   55     3.896891297    40.097238073    12.542486441    -0.403638799     0.221496740    -0.194974137
   56     7.008032830    34.089859724    19.506539154    -0.414065267     0.212083750    -0.183222372
   57     5.897699349    36.016027428    17.136307810    -0.416397937     0.207667990    -0.182993891
   58     4.770659694    30.304159243    16.926637481    -0.405102821     0.225831892    -0.186793097
   59     6.422389735    31.783189017    17.641751193    -0.411475101     0.218927940    -0.180993920
   60     9.527695654    36.462504177    18.887372442    -0.407450320     0.219102502    -0.189679547
   61     9.692572958    31.836000512    19.790782269    -0.422905568     0.205876989    -0.169604087
   62     9.524342154    37.351910974    12.224944336    -0.420461803     0.198303948    -0.184085351
   63     2.786921457    37.885542491    19.418780294    -0.399651067     0.227032024    -0.196813325
   64     4.126880941    39.207234645    10.485599133    -0.406209412     0.212114035    -0.200003874
   65     5.253826651    33.933858561    13.332551704    -0.375991785     0.267789348    -0.192143287
   66     1.652136227    36.815606012    17.925907652    -0.396246370     0.231668635    -0.198288825
   67     8.483119693    32.844510071    18.037703756    -0.413232841     0.221680909    -0.173482547
   68     1.646160500    32.374996181    15.137071689    -0.471085184     0.150965047    -0.072720723
   21    12.540022900    36.588306239    14.203574433     0.412088688    -0.204673107     0.195682989
   22    19.872328571    31.971928693    16.243501154    -0.457604163     0.168446632    -0.110562931
   23    19.756402152    39.499254405    17.108340785    -0.408525056     0.217821627    -0.188841250
   24    14.703192726    34.386968053    17.936452205    -0.417422095     0.201976865    -0.186987006
   25    15.981851536    30.630818335    11.221468276    -0.402156915     0.222947306    -0.196377990
   26    12.541077493    31.213196218    17.758613484    -0.104132450    -0.382445911     0.304781164
   27    11.205700670    33.213454696    13.046816909    -0.417049055     0.213847091    -0.174182397
   28    18.198861388    35.652268442    11.316095773    -0.423267552     0.198156773    -0.177703327
   29    18.911491209    38.305081345    15.395610599    -0.400681888     0.224658046    -0.197440591
   30    17.681457939    39.218742725    12.092655873    -0.413594242     0.217052793    -0.178403722
   31    16.193827001    40.182493418    19.107047089    -0.407004634     0.227564052    -0.180448969
   32    18.320701889    30.833480655    18.335975591    -0.405826477     0.227083390    -0.183679081
   33    11.383925221    38.207807242    15.738192976    -0.408280829     0.225010797    -0.180767546
   34    20.981229192    33.192573203    18.456425451    -0.483314400    -0.104654326     0.073855692
   35    18.353518403    37.794217469    10.632637950    -0.415933029     0.212792367    -0.178098636
   36    17.867286772    32.780977345    15.966708657    -0.449363499     0.175437245    -0.131507487
   37    18.372846133    35.393857229    17.903419916    -0.410124983     0.214439310    -0.189243970
   38    16.457894323    36.311064000    14.602558662    -0.426835747     0.197172688    -0.170100490
   39    18.644401023    36.006404714    14.028084653    -0.434196686     0.184708228    -0.165396821
   40    13.410811455    39.025160461    16.575049554    -0.407139452     0.223452394    -0.185220123
   41    16.910183499    32.217065025    14.016026667    -0.448442959     0.174531041    -0.135785964
   42    11.194293778    38.658652492    13.465060717    -0.418001713     0.199333452    -0.188522526
   43    14.732104506    37.243342985    15.609451728    -0.423708082     0.200062853    -0.174488727
   44    19.672499714    34.242684374    14.892790561    -0.435916874     0.185295811    -0.160131013
   45    15.011930524    39.759391824    15.068615813    -0.412619398     0.210400756    -0.188352739
   46    18.103956934    31.437895465    12.368357158    -0.446348305     0.181052618    -0.134138511
   47    17.528420964    32.007629204    19.933121887    -0.413686177     0.210335228    -0.186072133
   48    20.733336070    33.664479071    10.854223979    -0.407236002     0.228113599    -0.179228972
   49    13.972802508    35.516637679    11.944118807     0.417113011    -0.183318000     0.205939912
   50    17.127562532    39.590724014    17.065172718    -0.402001910     0.217794142    -0.202386205
   51    20.404532636    36.024336393    10.993557603    -0.418389285     0.196474909    -0.190651557
   52    20.111985206    39.786718150    11.694736231    -0.401980280     0.213063836    -0.207402161
   53    19.381211869    34.466879770    19.617749038    -0.406725594     0.224335708    -0.185061561
   54    15.540324101    32.573589058    19.929166776    -0.403593560     0.243557785    -0.166708858
   55    13.986547247    40.241898285    12.830573311    -0.403639542     0.221504035    -0.194964311
   56    17.097688780    34.234519936    19.794626023    -0.414065096     0.212086849    -0.183219172
   57    15.987355299    36.160687640    17.424394680    -0.416400014     0.207668729    -0.182988326
   58    14.860315644    30.448819455    17.214724351    -0.405102259     0.225830935    -0.186795473
   59    16.512045685    31.927849229    17.929838063    -0.411474689     0.218929267    -0.180993250
   60    19.617351604    36.607164389    19.175459312    -0.407452346     0.219102869    -0.189674770
   61    19.782228908    31.980660723    20.078869138    -0.422906438     0.205878136    -0.169600525
   62    19.613998104    37.496571185    12.513031206    -0.420467725     0.198308002    -0.184067456
   63    12.876577407    38.030202703    19.706867164    -0.399654396     0.227029658    -0.196809294
   64    14.216536891    39.351894857    10.773686003    -0.406210390     0.212120477    -0.199995056
   65    15.343482601    34.078518773    13.620638574    -0.376162778     0.267653471    -0.191997874
   66    11.741792177    36.960266223    18.213994521    -0.396249268     0.231666111    -0.198285981
   67    18.572775643    32.989170282    18.325790626    -0.413233460     0.221684351    -0.173476674
   68    11.735816449    32.519656392    15.425158558    -0.471078147     0.150997729    -0.072698451
   21    22.629678850    36.732966450    14.491661303     0.412113301    -0.204644072     0.195661522
   22    29.961984520    32.116588905    16.531588023    -0.457604924     0.168431468    -0.110582883
   23    29.846058102    39.643914616    17.396427654    -0.408539502     0.217793323    -0.188842643
   24    24.792848676    34.531628264    18.224539075    -0.417433638     0.201960925    -0.186978454
   25    26.071507486    30.775478547    11.509555146    -0.402159188     0.222946454    -0.196374301
   26    22.630733443    31.357856430    18.046700353    -0.104224913    -0.382525306     0.304649894
   27    21.295356620    33.358114907    13.334903778    -0.417061853     0.213850343    -0.174147758
   28    28.288517338    35.796928654    11.604182643    -0.423277509     0.198135076    -0.177703804
   29    29.001147159    38.449741557    15.683697469    -0.400698270     0.224627920    -0.197441622
   30    27.771113889    39.363402937    12.380742743    -0.413606116     0.217026275    -0.178408455
   31    26.283482950    40.327153629    19.395133958    -0.407018645     0.227540938    -0.180446512
   32    28.410357839    30.978140866    18.624062460    -0.405829805     0.227077766    -0.183678679
   33    21.473581170    38.352467454    16.026279845    -0.408290652     0.225000645    -0.180757996
   34    31.070885142    33.337233415    18.744512320    -0.483320348    -0.104656596     0.073813537
   35    28.443174353    37.938877680    10.920724820    -0.415942854     0.212769883    -0.178102552
   36    27.956942722    32.925637556    16.254795527    -0.449366590     0.175421763    -0.131517575
   37    28.462502083    35.538517441    18.191506786    -0.410133584     0.214427783    -0.189238392
   38    26.547550273    36.455724212    14.890645532    -0.426848326     0.197150799    -0.170094296
   39    28.734056973    36.151064925    14.316171523    -0.434207658     0.184684951    -0.165394011
   40    23.500467405    39.169820673    16.863136423    -0.407151619     0.223436720    -0.185212288
   41    26.999839449    32.361725237    14.304113536    -0.448446912     0.174515442    -0.135792959
   42    21.283949728    38.803312703    13.753147587    -0.418008975     0.199332961    -0.188506943
   43    24.821760455    37.388003197    15.897538598    -0.423721059     0.200041666    -0.174481505
   44    29.762155664    34.387344586    15.180877431    -0.435927800     0.185273156    -0.160127484
   45    25.101586473    39.904052036    15.356702683    -0.412631960     0.210381000    -0.188347286
   46    28.193612884    31.582555677    12.656444028    -0.446352488     0.181038578    -0.134143541
   47    27.618076914    32.152289416    20.221208757    -0.413691537     0.210322967    -0.186074077
   48    30.822992020    33.809139283    11.142310849    -0.407243438     0.228099943    -0.179229458
   49    24.062458458    35.661297890    12.232205676     0.417711657    -0.182556050     0.205402679
   50    27.217218482    39.735384226    17.353259587    -0.402017877     0.217767889    -0.202382740
   51    30.494188585    36.168996604    11.281644473    -0.418399540     0.196452095    -0.190652561
   52    30.201641155    39.931378362    11.982823101    -0.401992515     0.213036940    -0.207406075
   53    29.470867819    34.611539981    19.905835907    -0.406734071     0.224324576    -0.185056425
   54    25.629980051    32.718249269    20.217253646    -0.403601388     0.243542532    -0.166712192
   55    24.076203197    40.386558497    13.118660180    -0.403652412     0.221484029    -0.194960394
   56    27.187344730    34.379180147    20.082712893    -0.414072427     0.212074259    -0.183217177
   57    26.077011248    36.305347851    17.712481549    -0.416412079     0.207652161    -0.182979671
   58    24.949971594    30.593479667    17.502811220    -0.405104145     0.225831765    -0.186790379
   59    26.601701635    32.072509441    18.217924933    -0.411477773     0.218925958    -0.180990241
   60    29.707007554    36.751824601    19.463546182    -0.407460083     0.219093348    -0.189669147
   61    29.871884858    32.125320935    20.366956008    -0.422911882     0.205864038    -0.169604061
   62    29.703654053    37.641231397    12.801118076    -0.420479180     0.198285631    -0.184065389
   63    22.966233357    38.174862914    19.994954033    -0.399660819     0.227023154    -0.196803754
   64    24.306192841    39.496555068    11.061772872    -0.406222540     0.212102487    -0.199989457
   65    25.433138551    34.223178984    13.908725443    -0.376062249     0.267807305    -0.191980290
   66    21.831448126    37.104926435    18.502081391    -0.396254300     0.231661892    -0.198280856
   67    28.662431593    33.133830494    18.613877495    -0.413239836     0.221673901    -0.173474839
   68    21.825472399    32.664316604    15.713245428    -0.471083233     0.150983669    -0.072694698
   21    32.719334800    36.877626662    14.779748173     0.412115458    -0.204642185     0.195658951
   22    40.051640470    32.261249116    16.819674893    -0.457604374     0.168433653    -0.110581830
   23    39.935714052    39.788574828    17.684514524    -0.408527483     0.217809836    -0.188849598
   24    34.882504626    34.676288476    18.512625944    -0.417424899     0.201972656    -0.186985293
   25    36.161163436    30.920138759    11.797642015    -0.402147870     0.222959555    -0.196382604
   26    32.720389393    31.502516641    18.334787223    -0.104186069    -0.382550058     0.304632099
   27    31.385012570    33.502775119    13.622990648    -0.417078703     0.213827993    -0.174134847
   28    38.378173288    35.941588866    11.892269512    -0.423262404     0.198152875    -0.177719934
   29    39.090803109    38.594401768    15.971784338    -0.400684129     0.224645906    -0.197449857
   30    37.860769839    39.508063149    12.668829613    -0.413592075     0.217048628    -0.178413812
   31    36.373138900    40.471813841    19.683220828    -0.407010714     0.227557009    -0.180444136
   32    38.500013789    31.122801078    18.912149330    -0.405823902     0.227087489    -0.183679704
   33    31.563237120    38.497127665    16.314366715    -0.408296534     0.224990222    -0.180757684
   34    41.160541091    33.481893626    19.032599190    -0.483314799    -0.104689498     0.073803211
   35    38.532830303    38.083537892    11.208811689    -0.415928613     0.212788390    -0.178113699
   36    38.046598671    33.070297768    16.542882397    -0.449362648     0.175429443    -0.131520801
   37    38.552158033    35.683177653    18.479593655    -0.410124046     0.214440654    -0.189244479
   38    36.637206222    36.600384423    15.178732402    -0.426837621     0.197166129    -0.170103389
   39    38.823712923    36.295725137    14.604258392    -0.434195116     0.184701755    -0.165408170
   40    33.590123355    39.314480885    17.151223293    -0.407149726     0.223438833    -0.185213900
   41    37.089495398    32.506385449    14.592200406    -0.448441528     0.174526005    -0.135797162
   42    31.373605678    38.947972915    14.041234456    -0.418019186     0.199312708    -0.188505715
   43    34.911416405    37.532663409    16.185625467    -0.423711910     0.200054570    -0.174488928
   44    39.851811613    34.532004798    15.468964301    -0.435914747     0.185289389    -0.160144234
   45    35.191242423    40.048712247    15.644789552    -0.412627133     0.210389917    -0.188347902
   46    38.283268834    31.727215888    12.944530897    -0.446346175     0.181051022    -0.134147751
   47    37.707732864    32.296949627    20.509295627    -0.413684706     0.210338139    -0.186072114
   48    40.912647970    33.953799495    11.430397718    -0.407226991     0.228110049    -0.179253964
   49    34.152114407    35.805958102    12.520292546     0.417698744    -0.182675442     0.205322776
   50    37.306874432    39.880044438    17.641346457    -0.402008297     0.217786863    -0.202381353
   51    40.583844535    36.313656816    11.569731342    -0.418384958     0.196469725    -0.190666394
   52    40.291297105    40.076038574    12.270909971    -0.401975939     0.213060719    -0.207413775
   53    39.560523769    34.756200193    20.193922777    -0.406725041     0.224338269    -0.185059673
   54    35.719636001    32.862909481    20.505340516    -0.403595317     0.243555390    -0.166708104
   55    34.165859147    40.531218708    13.406747050    -0.403644652     0.221499044    -0.194959401
   56    37.277000680    34.523840359    20.370799763    -0.414064868     0.212088690    -0.183217555
   57    36.166667198    36.450008063    18.000568419    -0.416402608     0.207664460    -0.182987268
   58    35.039627543    30.738139878    17.790898090    -0.405099553     0.225839715    -0.186790726
   59    36.691357584    32.217169652    18.506011802    -0.411472800     0.218934604    -0.180991089
   60    39.796663504    36.896484812    19.751633051    -0.407449921     0.219105753    -0.189676648
   61    39.961540808    32.269981147    20.655042877    -0.422903710     0.205882071    -0.169602550
   62    39.793310003    37.785891608    13.089204945    -0.420464956     0.198303394    -0.184078746
   63    33.055889307    38.319523126    20.283040903    -0.399660468     0.227024848    -0.196802511
   64    34.395848791    39.641215280    11.349859742    -0.406215460     0.212115940    -0.199989569
   65    35.522794500    34.367839196    14.196812313    -0.376266872     0.267520466    -0.191979273
   66    31.921104076    37.249586647    18.790168261    -0.396257227     0.231658646    -0.198278798
   67    38.752087543    33.278490706    18.901964365    -0.413232458     0.221686577    -0.173476216
   68    31.915128349    32.808976816    16.001332297    -0.471083079     0.150969432    -0.072725258
   21     2.332011708     6.400501200    23.835596655     0.412095801    -0.204666962     0.195674437
   22     9.664317379     1.784123655    25.875523375    -0.457605602     0.168423983    -0.110591476
   23     9.548390960     9.311449367    26.740363006    -0.408524092     0.217818959    -0.188846412
   24     4.495181534     4.199163015    27.568474427    -0.417420819     0.201979471    -0.186987039
   25     5.773840344     0.443013297    20.853490498    -0.402152974     0.222953379    -0.196379164
   26     2.333066301     1.025391180    27.390635705    -0.104186892    -0.382538033     0.304646918
   27     0.997689478     3.025649657    22.678839130    -0.417048725     0.213871538    -0.174153169
   28     7.990850196     5.464463404    20.948117995    -0.423263785     0.198150842    -0.177718914
   29     8.703480017     8.117276307    25.027632821    -0.400684188     0.224649211    -0.197445977
   30     7.473446747     9.030937687    21.724678095    -0.413592584     0.217045267    -0.178416723
   31     5.985815809     9.994688379    28.739069310    -0.407002306     0.227572720    -0.180443287
   32     8.112690697     0.645675616    27.967997812    -0.405823247     0.227087947    -0.183680582
   33     1.175914029     8.020002204    25.370215197    -0.408278577     0.225015490    -0.180766792
   34    10.773218000     3.004768165    28.088447672    -0.483315675    -0.104711588     0.073766125
   35     8.145507211     7.606412431    20.264660171    -0.415929732     0.212784449    -0.178115795
   36     7.659275580     2.593172306    25.598730879    -0.449364421     0.175421321    -0.131525578
   37     8.164834941     5.206052191    27.535442138    -0.410122503     0.214445060    -0.189242830
   38     6.249883131     6.123258962    24.234580884    -0.426833828     0.197172581    -0.170105428
   39     8.436389831     5.818599676    23.660106875    -0.434196038     0.184700403    -0.165407259
   40     3.202800263     8.837355423    26.207071775    -0.407136809     0.223457164    -0.185220178
   41     6.702172307     2.029259987    23.648048888    -0.448444616     0.174515582    -0.135800361
   42     0.986282586     8.470847453    23.097082939    -0.417999509     0.199341820    -0.188518564
   43     4.524093314     7.055537947    25.241473950    -0.423706266     0.200064094    -0.174491715
   44     9.464488522     4.054879336    24.524812783    -0.435917127     0.185286044    -0.160141627
   45     4.803919332     9.571586786    24.700638035    -0.412617534     0.210404805    -0.188352299
   46     7.895945742     1.250090427    22.000379380    -0.446349632     0.181041035    -0.134149730
   47     7.320409772     1.819824166    29.565144109    -0.413684713     0.210336553    -0.186073892
   48    10.525324878     3.476674033    20.486246201    -0.407232922     0.228103954    -0.179248245
   49     3.764791316     5.328832640    21.576141028     0.417684253    -0.182675106     0.205352552
   50     6.919551340     9.402918976    26.697194939    -0.401999533     0.217802143    -0.202382317
   51    10.196521444     5.836531355    20.625579825    -0.418386111     0.196466769    -0.190666910
   52     9.903974014     9.598913112    21.326758453    -0.401979654     0.213051532    -0.207416013
   53     9.173200677     4.279074732    29.249771259    -0.406722874     0.224343814    -0.185057713
   54     5.332312909     2.385784020    29.561188998    -0.403594776     0.243553961    -0.166711502
   55     3.778536055    10.054093247    22.462595532    -0.403638536     0.221505082    -0.194965203
   56     6.889677588     4.046714898    29.426648245    -0.414063262     0.212090731    -0.183218821
   57     5.779344107     5.972882602    27.056416901    -0.416398525     0.207671414    -0.182988666
   58     4.652304452     0.261014417    26.846746572    -0.405098522     0.225840038    -0.186792571
   59     6.304034493     1.740044191    27.561860285    -0.411471453     0.218935694    -0.180992832
   60     9.409340412     6.419359351    28.807481534    -0.407448366     0.219111152    -0.189673752
   61     9.574217716     1.792855685    29.710891360    -0.422904083     0.205879204    -0.169605100
   62     9.405986912     7.308766147    22.145053428    -0.420466354     0.198300834    -0.184078310
   63     2.668566215     7.842397665    29.338889385    -0.399648420     0.227043591    -0.196805357
   64     4.008525699     9.164089819    20.405708224    -0.406209223     0.212122133    -0.199995671
   65     5.135471409     3.890713734    23.252660795    -0.376484558     0.267244581    -0.191936738
   66     1.533780985     6.772461185    27.846016743    -0.396243085     0.231680174    -0.198281907
   67     8.364764451     2.801365244    27.957812847    -0.413231943     0.221687745    -0.173475948
   68     1.527805257     2.331851354    25.057180780    -0.471088377     0.150964110    -0.072701982
   21    12.421667658     6.545161412    24.123683524     0.412110045    -0.204641419     0.195671153
   22    19.753973328     1.928783866    26.163610245    -0.457618168     0.168396321    -0.110581605
   23    19.638046910     9.456109578    27.028449876    -0.408528861     0.217798559    -0.188859624
   24    14.584837484     4.343823226    27.856561296    -0.417424328     0.201972063    -0.186987209
   25    15.863496294     0.587673509    21.141577367    -0.402152216     0.222958319    -0.196375107
   26    12.422722251     1.170051392    27.678722575    -0.104048738    -0.382628018     0.304581123
   27    11.087345428     3.170309869    22.966926000    -0.417064413     0.213840786    -0.174153362
   28    18.080506146     5.609123616    21.236204864    -0.423263343     0.198144737    -0.177726773
   29    18.793135967     8.261936519    25.315719690    -0.400685218     0.224632636    -0.197462743
   30    17.563102697     9.175597899    22.012764964    -0.413593613     0.217035389    -0.178426353
   31    16.075471758    10.139348591    29.027156180    -0.407010242     0.227550800    -0.180453030
   32    18.202346647     0.790335828    28.256084682    -0.405827678     0.227084214    -0.183675407
   33    11.265569978     8.164662416    25.658302067    -0.408286410     0.225000799    -0.180767385
   34    20.862873950     3.149428376    28.376534542    -0.483297845    -0.104802080     0.073754437
   35    18.235163161     7.751072642    20.552747041    -0.415929268     0.212778663    -0.178123791
   36    17.748931530     2.737832518    25.886817749    -0.449372046     0.175406559    -0.131519211
   37    18.254490891     5.350712403    27.823529007    -0.410125255     0.214436112    -0.189247006
   38    16.339539081     6.267919174    24.522667754    -0.426837870     0.197161969    -0.170107586
   39    18.526045781     5.963259887    23.948193744    -0.434196207     0.184696337    -0.165411358
   40    13.292456213     8.982015635    26.495158645    -0.407143778     0.223441991    -0.185223165
   41    16.791828257     2.173920199    23.936135758    -0.448450021     0.174506984    -0.135793562
   42    11.075938536     8.615507665    23.385169808    -0.418007809     0.199325860    -0.188517037
   43    14.613749263     7.200198159    25.529560819    -0.423711160     0.200051708    -0.174494033
   44    19.554144472     4.199539548    24.812899653    -0.435916920     0.185284441    -0.160144044
   45    14.893575281     9.716246998    24.988724904    -0.412623272     0.210388219    -0.188358257
   46    17.985601692     1.394750638    22.288466249    -0.446354029     0.181035542    -0.134142510
   47    17.410065722     1.964484377    29.853230979    -0.413685299     0.210338516    -0.186070370
   48    20.614980828     3.621334245    20.774333070    -0.407230073     0.228104357    -0.179254204
   49    13.854447266     5.473492852    21.864227898     0.417699892    -0.182586610     0.205399441
   50    17.009207290     9.547579188    26.985281809    -0.402008409     0.217778847    -0.202389755
   51    20.286177393     5.981191566    20.913666694    -0.418385105     0.196461754    -0.190674286
   52    19.993629963     9.743573324    21.614845323    -0.401977437     0.213046635    -0.207425340
   53    19.262856627     4.423734943    29.537858129    -0.406724692     0.224339117    -0.185059410
   54    15.421968859     2.530444231    29.849275868    -0.403593821     0.243558610    -0.166707021
   55    13.868192005    10.198753458    22.750682402    -0.403641493     0.221490430    -0.194975728
   56    16.979333538     4.191375109    29.714735115    -0.414065540     0.212088772    -0.183215943
   57    15.869000056     6.117542813    27.344503771    -0.416402291     0.207662549    -0.182990159
   58    14.741960402     0.405674629    27.134833442    -0.405103414     0.225837991    -0.186784437
   59    16.393690443     1.884704402    27.849947154    -0.411476319     0.218931388    -0.180986978
   60    19.498996362     6.564019562    29.095568403    -0.407451302     0.219100225    -0.189680066
   61    19.663873666     1.937515897    29.998978229    -0.422903208     0.205882268    -0.169603564
   62    19.495642861     7.453426359    22.433140297    -0.420465997     0.198294943    -0.184085472
   63    12.758222165     7.987057876    29.626976255    -0.399652584     0.227033258    -0.196808820
   64    14.098181649     9.308750030    20.693795094    -0.406211448     0.212107873    -0.200006274
   65    15.225127359     4.035373946    23.540747665    -0.376056594     0.267739358    -0.192086112
   66    11.623436934     6.917121397    28.134103612    -0.396247385     0.231670681    -0.198284406
   67    18.454420401     2.946025456    28.245899717    -0.413234705     0.221683813    -0.173474394
   68    11.617461207     2.476511566    25.345267649    -0.471086452     0.150952593    -0.072738360
   21    22.511323608     6.689821624    24.411770394     0.412106144    -0.204636507     0.195684506
   22    29.843629278     2.073444078    26.451697114    -0.457601970     0.168454002    -0.110560779
   23    29.727702860     9.600769790    27.316536745    -0.408523498     0.217806704    -0.188861831
   24    24.674493434     4.488483438    28.144648166    -0.417426462     0.201968241    -0.186986572
   25    25.953152244     0.732333720    21.429664237    -0.402163849     0.222941254    -0.196370660
   26    22.512378201     1.314711603    27.966809444    -0.104152555    -0.382734331     0.304412019
   27    21.177001378     3.314970081    23.255012870    -0.417051958     0.213856471    -0.174163928
   28    28.170162096     5.753783827    21.524291734    -0.423265826     0.198147134    -0.177718185
   29    28.882791917     8.406596730    25.603806560    -0.400680120     0.224642485    -0.197461884
   30    27.652758647     9.320258110    22.300851834    -0.413592700     0.217041625    -0.178420883
   31    26.165127708    10.284008803    29.315243049    -0.407008670     0.227545995    -0.180462636
   32    28.292002597     0.934996040    28.544171552    -0.405829446     0.227086370    -0.183668836
   33    21.355225928     8.309322627    25.946388936    -0.408286004     0.224994341    -0.180776341
   34    30.952529899     3.294088588    28.664621411    -0.483324563    -0.104606283     0.073857240
   35    28.324819111     7.895732854    20.840833911    -0.415931077     0.212781366    -0.178116337
   36    27.838587479     2.882492730    26.174904618    -0.449363745     0.175437245    -0.131506643
   37    28.344146841     5.495372614    28.111615877    -0.410126591     0.214432825    -0.189247835
   38    26.429195030     6.412579385    24.810754623    -0.426836344     0.197161550    -0.170111900
   39    28.615701731     6.107920099    24.236280614    -0.434195059     0.184698946    -0.165411458
   40    23.382112163     9.126675846    26.783245515    -0.407142874     0.223436888    -0.185231308
   41    26.881484206     2.318580410    24.224222628    -0.448445259     0.174526755    -0.135783879
   42    21.165594486     8.760167877    23.673256678    -0.418006167     0.199319337    -0.188527575
   43    24.703405213     7.344858371    25.817647689    -0.423709798     0.200050113    -0.174499168
   44    29.643800421     4.344199759    25.100986522    -0.435915024     0.185288365    -0.160144664
   45    24.983231231     9.860907209    25.276811774    -0.412621784     0.210385550    -0.188364497
   46    28.075257642     1.539410850    22.576553119    -0.446351678     0.181046902    -0.134135001
   47    27.499721672     2.109144589    30.141317848    -0.413689118     0.210337181    -0.186063388
   48    30.704636778     3.765994456    21.062419940    -0.407236808     0.228102010    -0.179241890
   49    23.944103215     5.618153064    22.152314767     0.417638992    -0.182576186     0.205532501
   50    27.098863240     9.692239399    27.273368679    -0.402006890     0.217772274    -0.202399843
   51    30.375833343     6.125851778    21.201753564    -0.418386626     0.196464304    -0.190668320
   52    30.083285913     9.888233536    21.902932192    -0.401976920     0.213049870    -0.207423018
   53    29.352512577     4.568395155    29.825944999    -0.406728671     0.224329148    -0.185062749
   54    25.511624809     2.675104443    30.137362737    -0.403599593     0.243552073    -0.166702597
   55    23.957847955    10.343413670    23.038769271    -0.403641170     0.221491022    -0.194975724
   56    27.068989488     4.336035321    30.002821984    -0.414069450     0.212083897    -0.183212748
   57    25.958656006     6.262203025    27.632590640    -0.416403331     0.207659756    -0.182990962
   58    24.831616351     0.550334840    27.422920312    -0.405105726     0.225841109    -0.186775653
   59    26.483346392     2.029364614    28.138034024    -0.411477857     0.218934588    -0.180979611
   60    29.588652312     6.708679774    29.383655273    -0.407452350     0.219097187    -0.189681326
   61    29.753529616     2.082176108    30.287065099    -0.422908058     0.205881121    -0.169592861
   62    29.585298811     7.598086570    22.721227167    -0.420465477     0.198298791    -0.184082516
   63    22.847878115     8.131718088    29.915063125    -0.399655663     0.227021767    -0.196815823
   64    24.187837599     9.453410242    20.981881964    -0.406211775     0.212108190    -0.200005273
   65    25.314783308     4.180034158    23.828834535    -0.376217488     0.267713013    -0.191807572
   66    21.713092884     7.061781608    28.422190482    -0.396250337     0.231659833    -0.198291179
   67    28.544076351     3.090685667    28.533986586    -0.413236787     0.221680959    -0.173473083
   68    21.707117157     2.621171777    25.633354519    -0.471102124     0.150909009    -0.072727296
   21    32.600979558     6.834481835    24.699857264     0.412103509    -0.204654929     0.195670790
   22    39.933285228     2.218104290    26.739783984    -0.457607559     0.168435686    -0.110565555
   23    39.817358810     9.745430001    27.604623615    -0.408518275     0.217818983    -0.188858967
   24    34.764149383     4.633143649    28.432735035    -0.417418681     0.201987518    -0.186983120
   25    36.042808193     0.876993932    21.717751106    -0.402156361     0.222955755    -0.196369531
   26    32.602034150     1.459371815    28.254896314    -0.104159306    -0.382553917     0.304636406
   27    31.266657328     3.459630292    23.543099739    -0.417058020     0.213840045    -0.174169581
   28    38.259818045     5.898444039    21.812378603    -0.423259017     0.198167393    -0.177711815
   29    38.972447867     8.551256942    25.891893429    -0.400673076     0.224657837    -0.197458710
   30    37.742414596     9.464918322    22.588938704    -0.413586080     0.217057253    -0.178417217
   31    36.254783658    10.428669014    29.603329919    -0.407002768     0.227560202    -0.180458032
   32    38.381658547     1.079656251    28.832258421    -0.405825706     0.227092489    -0.183669534
   33    31.444881878     8.453982839    26.234475806    -0.408282226     0.225004621    -0.180772079
   34    41.042185849     3.438748800    28.952708281    -0.483312026    -0.104683444     0.073829956
   35    38.414475061     8.040393065    21.128920780    -0.415923793     0.212799925    -0.178111173
   36    37.928243429     3.027152941    26.462991488    -0.449364354     0.175434861    -0.131507743
   37    38.433802790     5.640032826    28.399702747    -0.410119560     0.214452561    -0.189240709
   38    36.518850980     6.557239597    25.098841493    -0.426832024     0.197177941    -0.170103741
   39    38.705357681     6.252580310    24.524367483    -0.434191375     0.184714997    -0.165403204
   40    33.471768113     9.271336058    27.071332384    -0.407138257     0.223449232    -0.185226564
   41    36.971140156     2.463240622    24.512309497    -0.448443710     0.174530297    -0.135784442
   42    31.255250436     8.904828088    23.961343547    -0.418004593     0.199327074    -0.188522884
   43    34.793061163     7.489518582    26.105734558    -0.423705253     0.200066374    -0.174491561
   44    39.733456371     4.488859971    25.389073392    -0.435911674     0.185304251    -0.160135402
   45    35.072887181    10.005567421    25.564898643    -0.412617611     0.210398422    -0.188359262
   46    38.164913591     1.684071062    22.864639988    -0.446348879     0.181053554    -0.134135338
   47    37.589377621     2.253804801    30.429404718    -0.413683250     0.210347665    -0.186064582
   48    40.794292728     3.910654668    21.350506809    -0.407227677     0.228124435    -0.179234097
   49    34.033759165     5.762813275    22.440401637     0.417765879    -0.182628897     0.205227573
   50    37.188519189     9.836899611    27.561455548    -0.402000849     0.217787551    -0.202395404
   51    40.465489293     6.270511990    21.489840433    -0.418380816     0.196482304    -0.190662521
   52    40.172941863    10.032893747    22.191019062    -0.401970657     0.213065578    -0.207419021
   53    39.442168527     4.713055366    30.114031868    -0.406720241     0.224351086    -0.185054684
   54    35.601280758     2.819764655    30.425449607    -0.403592396     0.243565171    -0.166700887
   55    34.047503904    10.488073882    23.326856141    -0.403636400     0.221503744    -0.194971147
   56    37.158645437     4.480695532    30.290908854    -0.414062758     0.212098339    -0.183211154
   57    36.048311956     6.406863237    27.920677510    -0.416396358     0.207678295    -0.182985789
   58    34.921272301     0.694995052    27.711007181    -0.405103491     0.225840853    -0.186780810
   59    36.573002342     2.174024826    28.426120893    -0.411475064     0.218938533    -0.180981189
   60    39.678308261     6.853339986    29.671742142    -0.407445598     0.219118195    -0.189671561
   61    39.843185566     2.226836320    30.575151969    -0.422901024     0.205894032    -0.169594726
   62    39.674954761     7.742746782    23.009314036    -0.420460406     0.198315521    -0.184076075
   63    32.937534065     8.276378300    30.203149994    -0.399652185     0.227026894    -0.196816973
   64    34.277493549     9.598070453    21.269968833    -0.406207748     0.212120000    -0.200000927
   65    35.404439258     4.324694369    24.116921404    -0.376060880     0.267744804    -0.192070128
   66    31.802748834     7.206441820    28.710277352    -0.396248238     0.231662048    -0.198292786
   67    38.633732300     3.235345879    28.822073456    -0.413230287     0.221696353    -0.173468892
   68    31.796773107     2.765831989    25.921441389    -0.471078691     0.150999684    -0.072690864
   21     2.467087179    16.425594721    23.866222078     0.412101616    -0.204650547     0.195679360
   22     9.799392850    11.809217176    25.906148799    -0.457593476     0.168476673    -0.110561393
   23     9.683466431    19.336542888    26.770988430    -0.408532835     0.217809812    -0.188838048
   24     4.630257005    14.224256536    27.599099850    -0.417421763     0.201982479    -0.186981684
   25     5.908915815    10.468106818    20.884115921    -0.402149456     0.222961369    -0.196377298
   26     2.468141772    11.050484701    27.421261129    -0.104188777    -0.382590124     0.304580852
   27     1.132764949    13.050743178    22.709464554    -0.417055011     0.213843873    -0.174172087
   28     8.125925667    15.489556925    20.978743418    -0.423269091     0.198146171    -0.177711483
   29     8.838555488    18.142369828    25.058258244    -0.400692236     0.224641959    -0.197437894
   30     7.608522218    19.056031208    21.755303518    -0.413600407     0.217036879    -0.178408790
   31     6.120891280    20.019781900    28.769694734    -0.407011446     0.227554385    -0.180445794
   32     8.247766168    10.670769137    27.998623236    -0.405819684     0.227099743    -0.183673872
   33     1.310989500    18.045095725    25.400840621    -0.408283434     0.225003820    -0.180770347
   34    10.908293471    13.029861686    28.119073096    -0.483324647    -0.104592867     0.073875689
   35     8.280582682    17.631505952    20.295285595    -0.415935223     0.212779461    -0.178108932
   36     7.794351051    12.618265827    25.629356302    -0.449356507     0.175456529    -0.131505649
   37     8.299910412    15.231145712    27.566067561    -0.410122553     0.214446893    -0.189240644
   38     6.384958602    16.148352483    24.265206308    -0.426837499     0.197166823    -0.170102891
   39     8.571465302    15.843693197    23.690732298    -0.434197937     0.184699641    -0.165403125
   40     3.337875734    18.862448944    26.237697199    -0.407143557     0.223445031    -0.185219983
   41     6.837247778    12.054353508    23.678674312    -0.448437173     0.174547158    -0.135784357
   42     1.121358057    18.495940974    23.127708362    -0.418002553     0.199330087    -0.188524221
   43     4.659168785    17.080631468    25.272099373    -0.423710479     0.200056522    -0.174490166
   44     9.599563993    14.079972857    24.555438207    -0.435917851     0.185288487    -0.160136829
   45     4.938994803    19.596680307    24.731263458    -0.412624609     0.210390050    -0.188353282
   46     8.031021213    11.275183948    22.031004803    -0.446342847     0.181067461    -0.134136638
   47     7.455485243    11.844917687    29.595769533    -0.413681160     0.210350398    -0.186066139
   48    10.660400349    13.501767554    20.516871624    -0.407232233     0.228106089    -0.179247093
   49     3.899866787    15.353926161    21.606766452     0.417604458    -0.182673165     0.205516500
   50     7.054626811    19.428012497    26.727820363    -0.402009935     0.217783037    -0.202382214
   51    10.331596915    15.861624876    20.656205248    -0.418390526     0.196463499    -0.190660592
   52    10.039049485    19.624006633    21.357383877    -0.401986706     0.213043840    -0.207410247
   53     9.308276148    14.304168253    29.280396683    -0.406721538     0.224346004    -0.185057994
   54     5.467388380    12.410877541    29.591814422    -0.403590957     0.243566644    -0.166702219
   55     3.913611526    20.079186768    22.493220956    -0.403645660     0.221491387    -0.194966014
   56     7.024753059    14.071808419    29.457273669    -0.414060823     0.212100307    -0.183213248
   57     5.914419578    15.997976123    27.087042325    -0.416400012     0.207672200    -0.182984391
   58     4.787379923    10.286107938    26.877371996    -0.405094521     0.225853342    -0.186785164
   59     6.439109964    11.765137712    27.592485708    -0.411468151     0.218948044    -0.180985398
   60     9.544415883    16.444452872    28.838106957    -0.407449156     0.219110279    -0.189673062
   61     9.709293187    11.817949206    29.741516783    -0.422900658     0.205895602    -0.169593733
   62     9.541062383    17.333859668    22.175678851    -0.420471100     0.198296794    -0.184071821
   63     2.803641686    17.867491186    29.369514809    -0.399650315     0.227033592    -0.196813043
   64     4.143601170    19.189183340    20.436333648    -0.406215621     0.212109248    -0.199996341
   65     5.270546880    13.915807255    23.283286219    -0.376311847     0.267465375    -0.191967880
   66     1.668856456    16.797554706    27.876642166    -0.396245099     0.231668609    -0.198291395
   67     8.499839922    12.826458765    27.988438271    -0.413228771     0.221696524    -0.173472285
   68     1.662880728    12.356944875    25.087806203    -0.471074996     0.150999728    -0.072714721
   21    12.556743129    16.570254933    24.154308948     0.412116035    -0.204634933     0.195665322
   22    19.889048799    11.953877388    26.194235668    -0.457604611     0.168429342    -0.110587417
   23    19.773122381    19.481203099    27.059075299    -0.408530877     0.217806559    -0.188846037
   24    14.719912955    14.368916747    27.887186720    -0.417426709     0.201968097    -0.186986178
   25    15.998571765    10.612767030    21.172202791    -0.402151314     0.222947396    -0.196389358
   26    12.557797722    11.195144913    27.709347998    -0.104039550    -0.382507451     0.304735660
   27    11.222420899    13.195403390    22.997551424    -0.417069519     0.213825379    -0.174160051
   28    18.215581617    15.634217137    21.266830288    -0.423266702     0.198145828    -0.177717556
   29    18.928211438    18.287030040    25.346345114    -0.400688263     0.224641387    -0.197446608
   30    17.698178168    19.200691420    22.043390388    -0.413595300     0.217043576    -0.178412483
   31    16.210547229    20.164442112    29.057781603    -0.407015430     0.227546086    -0.180447274
   32    18.337422118    10.815429349    28.286710106    -0.405826602     0.227079085    -0.183684127
   33    11.400645449    18.189755937    25.688927490    -0.408291799     0.224996284    -0.180760834
   34    20.997949421    13.174521897    28.407159965    -0.483316593    -0.104672967     0.073814908
   35    18.370238632    17.776166163    20.583372465    -0.415931799     0.212781730    -0.178114216
   36    17.884007001    12.762926039    25.917443172    -0.449363108     0.175425078    -0.131525054
   37    18.389566362    15.375805924    27.854154431    -0.410129193     0.214430596    -0.189244721
   38    16.474614552    16.293012695    24.553293177    -0.426839876     0.197159717    -0.170105163
   39    18.661121252    15.988353408    23.978819168    -0.434197593     0.184695907    -0.165408199
   40    13.427531684    19.007109156    26.525784069    -0.407149178     0.223438652    -0.185215323
   41    16.926903728    12.199013720    23.966761181    -0.448442367     0.174520022    -0.135802081
   42    11.211014007    18.640601186    23.415795232    -0.418012893     0.199320892    -0.188511016
   43    14.748824734    17.225291680    25.560186243    -0.423713803     0.200048734    -0.174491024
   44    19.689219943    14.224633069    24.843525076    -0.435917734     0.185283490    -0.160142927
   45    15.028650752    19.741340519    25.019350328    -0.412628860     0.210383948    -0.188350786
   46    18.120677163    11.419844159    22.319091673    -0.446347189     0.181044848    -0.134152712
   47    17.545141193    11.989577899    29.883856402    -0.413687391     0.210327820    -0.186077808
   48    20.750056299    13.646427766    20.804958494    -0.407231649     0.228104478    -0.179250471
   49    13.989522737    15.498586373    21.894853321     0.417766860    -0.182509406     0.205331847
   50    17.144282761    19.572672709    27.015907233    -0.402011619     0.217777412    -0.202384923
   51    20.421252864    16.006285087    20.944292118    -0.418387300     0.196464424    -0.190666718
   52    20.128705434    19.768666845    21.645470746    -0.401981972     0.213050099    -0.207412993
   53    19.397932098    14.448828464    29.568483553    -0.406729807     0.224327449    -0.185062314
   54    15.557044330    12.555537752    29.879901291    -0.403597460     0.243548833    -0.166712496
   55    14.003267476    20.223846979    22.781307825    -0.403648432     0.221488656    -0.194963377
   56    17.114409009    14.216468630    29.745360538    -0.414067862     0.212079157    -0.183221824
   57    16.004075527    16.142636334    27.375129194    -0.416405002     0.207658793    -0.182988250
   58    14.877035873    10.430768150    27.165458866    -0.405102611     0.225830319    -0.186795454
   59    16.528765914    11.909797924    27.880572578    -0.411475257     0.218926549    -0.180995245
   60    19.634071833    16.589113083    29.126193827    -0.407456085     0.219094615    -0.189676272
   61    19.798949137    11.962609418    30.029603653    -0.422907092     0.205869821    -0.169608986
   62    19.630718332    17.478519880    22.463765721    -0.420468014     0.198297719    -0.184077875
   63    12.893297636    18.012151397    29.657601678    -0.399657903     0.227028310    -0.196803727
   64    14.233257120    19.333843551    20.724420518    -0.406218567     0.212106168    -0.199993624
   65    15.360202830    14.060467467    23.571373089    -0.376323592     0.267469453    -0.191939172
   66    11.758512405    16.942214918    28.164729036    -0.396251410     0.231667080    -0.198280569
   67    18.589495872    12.971118977    28.276525140    -0.413235939     0.221676898    -0.173480291
   68    11.752536678    12.501605087    25.375893073    -0.471070910     0.151024160    -0.072690444
   21    22.646399079    16.714915145    24.442395818     0.412103523    -0.204652800     0.195672986
   22    29.978704749    12.098537599    26.482322538    -0.457591791     0.168473945    -0.110572524
   23    29.862778331    19.625863311    27.347162169    -0.408525485     0.217808408    -0.188855567
   24    24.809568905    14.513576959    28.175273589    -0.417420233     0.201964128    -0.187004920
   25    26.088227715    10.757427241    21.460289660    -0.402148684     0.222955272    -0.196385800
   26    22.647453672    11.339805124    27.997434868    -0.104182864    -0.382485165     0.304714669
   27    21.312076849    13.340063602    23.285638293    -0.417061686     0.213840002    -0.174160856
   28    28.305237567    15.778877348    21.554917157    -0.423260761     0.198150702    -0.177726270
   29    29.017867388    18.431690251    25.634431983    -0.400683971     0.224639467    -0.197457502
   30    27.787834118    19.345351631    22.331477258    -0.413591620     0.217042459    -0.178422373
   31    26.300203179    20.309102324    29.345868473    -0.407008166     0.227548710    -0.180460349
   32    28.427078068    10.960089561    28.574796975    -0.405824191     0.227075964    -0.183693312
   33    21.490301399    18.334416148    25.977014360    -0.408286094     0.224999700    -0.180769468
   34    31.087605370    13.319182109    28.695246835    -0.483332241    -0.104559097     0.073873812
   35    28.459894582    17.920826375    20.871459334    -0.415927302     0.212783413    -0.178122707
   36    27.973662950    12.907586251    26.205530042    -0.449354974     0.175450086    -0.131519485
   37    28.479222312    15.520466135    28.142241300    -0.410123309     0.214424422    -0.189264468
   38    26.564270501    16.437672906    24.841380047    -0.426832540     0.197162725    -0.170120082
   39    28.750777202    16.133013620    24.266906037    -0.434192650     0.184697685    -0.165419189
   40    23.517187634    19.151769367    26.813870938    -0.407142187     0.223440904    -0.185227973
   41    27.016559677    12.343673931    24.254848051    -0.448435798     0.174540455    -0.135797515
   42    21.300669957    18.785261398    23.703882101    -0.418008059     0.199324215    -0.188518221
   43    24.838480684    17.369951892    25.848273112    -0.423706225     0.200051810    -0.174505898
   44    29.778875892    14.369293280    25.131611946    -0.435912571     0.185286766    -0.160153192
   45    25.118306702    19.886000730    25.307437197    -0.412620972     0.210388273    -0.188363233
   46    28.210333113    11.564504371    22.607178542    -0.446341323     0.181062092    -0.134148954
   47    27.634797143    12.134238110    30.171943272    -0.413687664     0.210318909    -0.186087272
   48    30.839712249    13.791087977    21.093045363    -0.407225929     0.228111331    -0.179254745
   49    24.079178686    15.643246585    22.182940191     0.417651137    -0.182710271     0.205388618
   50    27.233938711    19.717332920    27.303994102    -0.402005757     0.217775999    -0.202398088
   51    30.510908814    16.150945299    21.232378987    -0.418382902     0.196465410    -0.190675353
   52    30.218361384    19.913327057    21.933557616    -0.401976227     0.213048527    -0.207425742
   53    29.487588048    14.593488676    29.856570422    -0.406726417     0.224317613    -0.185081685
   54    25.646700280    12.700197964    30.167988161    -0.403596858     0.243539721    -0.166727264
   55    24.092923426    20.368507191    23.069394695    -0.403641311     0.221492432    -0.194973831
   56    27.204064959    14.361128842    30.033447408    -0.414065364     0.212071107    -0.183236787
   57    26.093731477    16.287296546    27.663216064    -0.416398188     0.207655933    -0.183007001
   58    24.966691823    10.575428361    27.453545735    -0.405099435     0.225827736    -0.186805463
   59    26.618421863    12.054458135    28.168659447    -0.411471876     0.218924003    -0.181006011
   60    29.723727783    16.733773295    29.414280696    -0.407450309     0.219088890    -0.189695292
   61    29.888605087    12.107269629    30.317690523    -0.422907964     0.205862619    -0.169615553
   62    29.720374282    17.623180091    22.751852590    -0.420463466     0.198298084    -0.184087868
   63    22.982953586    18.156811609    29.945688548    -0.399658835     0.227019199    -0.196812344
   64    24.322913070    19.478503763    21.012507387    -0.406212098     0.212109452    -0.200003279
   65    25.449858780    14.205127679    23.859459958    -0.376392946     0.267287086    -0.192057190
   66    21.848168355    17.086875129    28.452815906    -0.396253713     0.231657363    -0.198287320
   67    28.679151822    13.115779188    28.564612010    -0.413233232     0.221670833    -0.173494488
   68    21.842192628    12.646265298    25.663979942    -0.471085245     0.150961971    -0.072726717
   21    32.736055029    16.859575356    24.730482687     0.412106549    -0.204638432     0.195681641
   22    40.068360699    12.243197811    26.770409407    -0.457595277     0.168459760    -0.110579707
   23    39.952434281    19.770523523    27.635249039    -0.408519626     0.217814640    -0.188861054
   24    34.899224854    14.658237170    28.463360459    -0.417417419     0.201973809    -0.187000745
   25    36.177883664    10.902087453    21.748376530    -0.402143049     0.222966801    -0.196384250
   26    32.737109622    11.484465336    28.285521738    -0.104214752    -0.382462179     0.304732615
   27    31.401732799    13.484723813    23.573725163    -0.417060871     0.213827394    -0.174178286
   28    38.394893516    15.923537560    21.843004027    -0.423259625     0.198156819    -0.177722156
   29    39.107523338    18.576350463    25.922518853    -0.400676517     0.224649376    -0.197461356
   30    37.877490067    19.490011843    22.619564127    -0.413588884     0.217048712    -0.178421108
   31    36.389859129    20.453762535    29.633955342    -0.407003927     0.227549017    -0.180469521
   32    38.516734018    11.104749772    28.862883845    -0.405817791     0.227091154    -0.183688672
   33    31.579957349    18.479076360    26.265101230    -0.408283105     0.224998287    -0.180777978
   34    41.177261320    13.463842321    28.983333704    -0.483323387    -0.104635590     0.073823419
   35    38.549550532    18.065486586    21.159546204    -0.415925217     0.212790444    -0.178119176
   36    38.063318900    13.052246462    26.493616911    -0.449355588     0.175446790    -0.131521784
   37    38.568878261    15.665126347    28.430328170    -0.410118722     0.214440280    -0.189256440
   38    36.653926451    16.582333118    25.129466916    -0.426831164     0.197167684    -0.170117789
   39    38.840433152    16.277673831    24.554992907    -0.434191218     0.184704181    -0.165415694
   40    33.606843584    19.296429579    27.101957808    -0.407139696     0.223441084    -0.185233231
   41    37.106215627    12.488334143    24.542934921    -0.448435511     0.174540337    -0.135798613
   42    31.390325907    18.929921609    23.991968971    -0.418004693     0.199321910    -0.188528122
   43    34.928136634    17.514612103    26.136359982    -0.423704543     0.200055860    -0.174505338
   44    39.868531842    14.513953492    25.419698815    -0.435911019     0.185293364    -0.160149782
   45    35.207962652    20.030660942    25.595524067    -0.412618373     0.210387958    -0.188369279
   46    38.299989062    11.709164583    22.895265412    -0.446340198     0.181064022    -0.134150094
   47    37.724453093    12.278898322    30.460030141    -0.413680039     0.210336750    -0.186084059
   48    40.929368199    13.935748189    21.381132233    -0.407221758     0.228124369    -0.179247627
   49    34.168834636    15.787906796    22.471027061     0.417754467    -0.182552834     0.205318455
   50    37.323594660    19.861993132    27.592080972    -0.402001464     0.217775410    -0.202407246
   51    40.600564764    16.295605511    21.520465857    -0.418381325     0.196472800    -0.190671199
   52    40.308017334    20.057987268    22.221644485    -0.401974469     0.213053611    -0.207423927
   53    39.577243998    14.738148888    30.144657292    -0.406719239     0.224337325    -0.185073567
   54    35.736356229    12.844858176    30.456075030    -0.403587461     0.243559598    -0.166720975
   55    34.182579375    20.513167403    23.357481564    -0.403637699     0.221494409    -0.194979062
   56    37.293720908    14.505789054    30.321534277    -0.414058816     0.212087477    -0.183232636
   57    36.183387427    16.431956758    27.951302933    -0.416395542     0.207665336    -0.183002351
   58    35.056347772    10.720088573    27.741632605    -0.405094439     0.225840596    -0.186800752
   59    36.708077813    12.199118347    28.456746317    -0.411466969     0.218937190    -0.181001217
   60    39.813383732    16.878433507    29.702367566    -0.407445555     0.219105965    -0.189685783
   61    39.978261037    12.251929841    30.605777392    -0.422900008     0.205880548    -0.169613628
   62    39.810030232    17.767840303    23.039939460    -0.420461717     0.198304870    -0.184084554
   63    33.072609536    18.301471821    30.233775418    -0.399650147     0.227022589    -0.196826076
   64    34.412569020    19.623163974    21.300594257    -0.406208485     0.212111478    -0.200008468
   65    35.539514729    14.349787890    24.147546828    -0.376266522     0.267639105    -0.191814530
   66    31.937824305    17.231535341    28.740902775    -0.396246481     0.231656552    -0.198302719
   67    38.768807772    13.260439400    28.852698879    -0.413227144     0.221686872    -0.173488496
   68    31.931848578    12.790925510    25.952066812    -0.471068615     0.151027263    -0.072698871
   21     2.602162650    26.450688242    23.896847502     0.412108445    -0.204646461     0.195669252
   22     9.934468321    21.834310697    25.936774222    -0.457607044     0.168466433    -0.110520829
   23     9.818541902    29.361636409    26.801613853    -0.408528761     0.217804559    -0.188852922
   24     4.765332476    24.249350057    27.629725274    -0.417427732     0.201974515    -0.186976960
   25     6.043991286    20.493200339    20.914741345    -0.402158207     0.222949288    -0.196373093
   26     2.603217243    21.075578222    27.451886552    -0.104078642    -0.382329056     0.304946108
   27     1.267840420    23.075836699    22.740089977    -0.417065178     0.213811281    -0.174187754
   28     8.261001138    25.514650446    21.009368842    -0.423270226     0.198148180    -0.177706541
   29     8.973630959    28.167463349    25.088883668    -0.400688223     0.224637064    -0.197451608
   30     7.743597689    29.081124729    21.785928942    -0.413599275     0.217037227    -0.178410992
   31     6.255966751    30.044875421    28.800320157    -0.407008058     0.227558159    -0.180448676
   32     8.382841639    20.695862658    28.029248660    -0.405828192     0.227086177    -0.183671845
   33     1.446064971    28.070189246    25.431466044    -0.408286482     0.225001960    -0.180765778
   34    11.043368942    23.054955207    28.149698519    -0.483311025    -0.104566996     0.074001328
   35     8.415658154    27.656599473    20.325911019    -0.415935692     0.212782222    -0.178104538
   36     7.929426522    22.643359348    25.659981726    -0.449369322     0.175443075    -0.131479806
   37     8.434985883    25.256239233    27.596692985    -0.410126700     0.214440818    -0.189238542
   38     6.520034073    26.173446004    24.295831731    -0.426840961     0.197166177    -0.170094952
   39     8.706540773    25.868786718    23.721357722    -0.434200451     0.184701154    -0.165394838
   40     3.472951205    28.887542465    26.268322623    -0.407144649     0.223443790    -0.185219079
   41     6.972323249    22.079447029    23.709299735    -0.448450360     0.174531151    -0.135761378
   42     1.256433528    28.521034495    23.158333786    -0.418007316     0.199326982    -0.188516942
   43     4.794244256    27.105724989    25.302724797    -0.423714200     0.200054826    -0.174483073
   44     9.734639464    24.105066378    24.586063630    -0.435920656     0.185290288    -0.160127110
   45     5.074070274    29.621773828    24.761888882    -0.412625465     0.210389606    -0.188351904
   46     8.166096684    21.300277469    22.061630227    -0.446355349     0.181051536    -0.134116531
   47     7.590560714    21.870011208    29.626394956    -0.413687917     0.210338507    -0.186064559
   48    10.795475820    23.526861075    20.547497048    -0.407239148     0.228105750    -0.179231813
   49     4.034942258    25.379019682    21.637391875     0.417738305    -0.182615842     0.205295306
   50     7.189702282    29.453106018    26.758445787    -0.402006048     0.217788457    -0.202384103
   51    10.466672386    25.886718397    20.686830672    -0.418391579     0.196465962    -0.190655743
   52    10.174124956    29.649100154    21.388009300    -0.401985589     0.213045806    -0.207410392
   53     9.443351619    24.329261774    29.311022107    -0.406726128     0.224336487    -0.185059443
   54     5.602463851    22.435971062    29.622439845    -0.403596664     0.243558491    -0.166700314
   55     4.048686997    30.104280289    22.523846379    -0.403647467     0.221487917    -0.194966216
   56     7.159828530    24.096901940    29.487899092    -0.414067451     0.212088206    -0.183212278
   57     6.049495049    26.023069644    27.117667748    -0.416405615     0.207665564    -0.182979171
   58     4.922455394    20.311201459    26.907997420    -0.405103490     0.225830217    -0.186793671
   59     6.574185435    21.790231233    27.623111132    -0.411476814     0.218930596    -0.180986810
   60     9.679491354    26.469546393    28.868732381    -0.407450632     0.219106882    -0.189673817
   61     9.844368658    21.843042727    29.772142207    -0.422907689     0.205884094    -0.169590173
   62     9.676137854    27.358953189    22.206304275    -0.420470933     0.198299507    -0.184069280
   63     2.938717157    27.892584707    29.400140232    -0.399649734     0.227031646    -0.196816469
   64     4.278676641    29.214276861    20.466959072    -0.406217878     0.212104487    -0.199996806
   65     5.405622351    23.940900776    23.313911642    -0.376479998     0.267235286    -0.191958624
   66     1.803931927    26.822648227    27.907267590    -0.396244650     0.231667326    -0.198293791
   67     8.634915393    22.851552286    28.019063694    -0.413235298     0.221685523    -0.173470797
   68     1.797956199    22.382038396    25.118431627    -0.471061508     0.151066846    -0.072662673
   21    12.691818600    26.595348454    24.184934372     0.412109057    -0.204651074     0.195663138
   22    20.024124270    21.978970909    26.224861092    -0.457598813     0.168475799    -0.110540634
   23    19.908197852    29.506296620    27.089700723    -0.408530593     0.217806922    -0.188846232
   24    14.854988426    24.394010268    27.917812143    -0.417429757     0.201965302    -0.186982393
   25    16.133647236    20.637860551    21.202828214    -0.402156032     0.222954030    -0.196372163
   26    12.692873193    21.220238434    27.739973422    -0.104125239    -0.382343267     0.304912382
   27    11.357496370    23.220496911    23.028176847    -0.417064048     0.213834946    -0.174161408
   28    18.350657088    25.659310658    21.297455711    -0.423266694     0.198150310    -0.177712579
   29    19.063286909    28.312123561    25.376970537    -0.400688133     0.224641309    -0.197446961
   30    17.833253639    29.225784941    22.074015812    -0.413596784     0.217040695    -0.178412548
   31    16.345622700    30.189535633    29.088407027    -0.407008321     0.227565188    -0.180439219
   32    18.472497589    20.840522870    28.317335529    -0.405830509     0.227078187    -0.183676605
   33    11.535720921    28.214849458    25.719552914    -0.408287723     0.225003361    -0.180761232
   34    21.133024892    23.199615419    28.437785389    -0.483321482    -0.104575897     0.073920407
   35    18.505314103    27.801259684    20.613997888    -0.415933282     0.212782569    -0.178109751
   36    18.019082472    22.788019560    25.948068596    -0.449360589     0.175456759    -0.131491394
   37    18.524641833    25.400899445    27.884779854    -0.410131566     0.214426791    -0.189243889
   38    16.609690023    26.318106216    24.583918601    -0.426840447     0.197162293    -0.170100743
   39    18.796196723    26.013446929    24.009444591    -0.434198825     0.184698406    -0.165402175
   40    13.562607155    29.032202677    26.556409492    -0.407144099     0.223447180    -0.185216198
   41    17.061979199    22.224107241    23.997386605    -0.448438671     0.174555180    -0.135769097
   42    11.346089478    28.665694707    23.446420655    -0.418010137     0.199327001    -0.188510668
   43    14.883900205    27.250385201    25.590811666    -0.423713385     0.200053356    -0.174486739
   44    19.824295414    24.249726590    24.874150500    -0.435918445     0.185288118    -0.160135639
   45    15.163726223    29.766434040    25.049975751    -0.412624348     0.210395653    -0.188347596
   46    18.255752634    21.444937680    22.349717096    -0.446343716     0.181075229    -0.134123260
   47    17.680216664    22.014671420    29.914481826    -0.413693235     0.210324175    -0.186068936
   48    20.885131770    23.671521287    20.835583917    -0.407232865     0.228108579    -0.179242489
   49    14.124598208    25.523679894    21.925478745     0.417541742    -0.182897001     0.205444837
   50    17.279358232    29.597766230    27.046532656    -0.402008521     0.217790069    -0.202377457
   51    20.556328336    26.031378608    20.974917541    -0.418389839     0.196464585    -0.190660979
   52    20.263780905    29.793760366    21.676096170    -0.401984625     0.213046373    -0.207411677
   53    19.533007569    24.473921985    29.599108976    -0.406732800     0.224321924    -0.185062432
   54    15.692119801    22.580631273    29.910526715    -0.403607681     0.243537658    -0.166704076
   55    14.138342947    30.248940500    22.811933249    -0.403645113     0.221496361    -0.194961495
   56    17.249484480    24.241562151    29.775985962    -0.414073574     0.212073551    -0.183215404
   57    16.139150998    26.167729855    27.405754618    -0.416407446     0.207657107    -0.182984603
   58    15.012111344    20.455861671    27.196084289    -0.405107365     0.225823622    -0.186793240
   59    16.663841385    21.934891445    27.911198001    -0.411479600     0.218923049    -0.180989607
   60    19.769147304    26.614206605    29.156819250    -0.407458055     0.219090882    -0.189676353
   61    19.934024608    21.987702939    30.060229077    -0.422913121     0.205867569    -0.169596685
   62    19.765793803    27.503613401    22.494391144    -0.420469750     0.198297995    -0.184073612
   63    13.028373107    28.037244918    29.688227102    -0.399653243     0.227034018    -0.196806605
   64    14.368332591    29.358937072    20.755045941    -0.406215930     0.212113308    -0.199991407
   65    15.495278301    24.085560988    23.601998512    -0.375772033     0.268523159    -0.191548146
   66    11.893587876    26.967308439    28.195354460    -0.396249546     0.231669597    -0.198281353
   67    18.724571343    22.996212498    28.307150564    -0.413238817     0.221675608    -0.173475083
   68    11.887612149    22.526698608    25.406518496    -0.471082412     0.151017103    -0.072630544
   21    22.781474550    26.740008666    24.473021241     0.412112169    -0.204640396     0.195667750
   22    30.113780220    22.123631120    26.512947961    -0.457592001     0.168510650    -0.110515705
   23    29.997853802    29.650956832    27.377787592    -0.408530884     0.217792798    -0.188861890
   24    24.944644376    24.538670480    28.205899013    -0.417424299     0.201961524    -0.186998656
   25    26.223303186    20.782520762    21.490915084    -0.402151503     0.222953082    -0.196382514
   26    22.782529143    21.364898645    28.028060291    -0.104287815    -0.382445731     0.304728263
   27    21.447152320    23.365157123    23.316263717    -0.417065275     0.213826289    -0.174169098
   28    28.440313038    25.803970869    21.585542581    -0.423264336     0.198153454    -0.177714688
   29    29.152942859    28.456783772    25.665057407    -0.400687690     0.224628576    -0.197462344
   30    27.922909589    29.370445152    22.362102681    -0.413596079     0.217037963    -0.178417505
   31    26.435278650    30.334195845    29.376493896    -0.407012788     0.227546317    -0.180452943
   32    28.562153539    20.985183082    28.605422399    -0.405824583     0.227076971    -0.183691201
   33    21.625376870    28.359509669    26.007639784    -0.408291168     0.224993142    -0.180766171
   34    31.222680841    23.344275630    28.725872258    -0.483317836    -0.104468201     0.074096316
   35    28.594970053    27.945919896    20.902084758    -0.415930708     0.212785100    -0.178112739
   36    28.108738421    22.932679772    26.236155465    -0.449356420     0.175471216    -0.131486349
   37    28.614297783    25.545559656    28.172866724    -0.410125960     0.214422764    -0.189260601
   38    26.699345972    26.462766427    24.872005470    -0.426835536     0.197163055    -0.170112185
   39    28.885852673    26.158107141    24.297531461    -0.434193305     0.184702485    -0.165412110
   40    23.652263105    29.176862888    26.844496362    -0.407147301     0.223435570    -0.185223167
   41    27.151635148    22.368767453    24.285473475    -0.448436883     0.174557160    -0.135772456
   42    21.435745428    28.810354919    23.734507525    -0.418010807     0.199321797    -0.188514686
   43    24.973556155    27.395045413    25.878898536    -0.423709871     0.200051034    -0.174497934
   44    29.913951363    24.394386801    25.162237369    -0.435911253     0.185294358    -0.160147996
   45    25.253382173    29.911094251    25.338062621    -0.412625536     0.210385127    -0.188356751
   46    28.345408584    21.589597892    22.637803966    -0.446342032     0.181075066    -0.134129082
   47    27.769872614    22.159331631    30.202568695    -0.413688349     0.210317040    -0.186087864
   48    30.974787720    23.816181498    21.123670787    -0.407228657     0.228118468    -0.179239464
   49    24.214254157    25.668340106    22.213565615     0.417727528    -0.182560086     0.205366811
   50    27.369014182    29.742426441    27.334619526    -0.402010058     0.217775668    -0.202389901
   51    30.645984285    26.176038820    21.263004411    -0.418385804     0.196468422    -0.190665880
   52    30.353436855    29.938420578    21.964183039    -0.401983677     0.213046279    -0.207413612
   53    29.622663519    24.618582197    29.887195846    -0.406727184     0.224313734    -0.185084700
   54    25.781775751    22.725291485    30.198613584    -0.403598182     0.243537133    -0.166727839
   55    24.227998897    30.393600712    23.100020118    -0.403646353     0.221489457    -0.194966772
   56    27.339140430    24.386222363    30.064072831    -0.414066726     0.212069082    -0.183236052
   57    26.228806948    26.312390067    27.693841487    -0.416402034     0.207653752    -0.183000725
   58    25.101767294    20.600521882    27.484171159    -0.405098367     0.225831314    -0.186803455
   59    26.753497335    22.079551656    28.199284871    -0.411471606     0.218927722    -0.181002127
   60    29.858803254    26.758866816    29.444906120    -0.407452924     0.219088580    -0.189690034
   61    30.023680558    22.132363150    30.348315946    -0.422910121     0.205860528    -0.169612714
   62    29.855449753    27.648273612    22.782478014    -0.420465851     0.198299339    -0.184081070
   63    23.118029057    28.181905130    29.976313972    -0.399659548     0.227018419    -0.196811796
   64    24.457988541    29.503597284    21.043132811    -0.406217117     0.212106862    -0.199995833
   65    25.584934251    24.230221200    23.890085382    -0.376424691     0.267276945    -0.192009080
   66    21.983243826    27.111968650    28.483441329    -0.396255821     0.231654034    -0.198286997
   67    28.814227293    23.140872709    28.595237433    -0.413233850     0.221668892    -0.173495497
   68    21.977268099    22.671358819    25.694605366    -0.471075006     0.151025270    -0.072661589
   21    32.871130500    26.884668877    24.761108111     0.412108625    -0.204640747     0.195674848
   22    40.203436170    22.268291332    26.801034831    -0.457585623     0.168503778    -0.110552587
   23    40.087509752    29.795617044    27.665874462    -0.408524428     0.217819503    -0.188845057
   24    35.034300325    24.683330692    28.493985883    -0.417417955     0.201971235    -0.187002329
   25    36.312959135    20.927180974    21.779001954    -0.402147126     0.222960283    -0.196383301
   26    32.872185093    21.509558857    28.316147161    -0.104061375    -0.382208863     0.305102631
   27    31.536808270    23.509817334    23.604350586    -0.417053171     0.213823438    -0.174201580
   28    38.529968987    25.948631081    21.873629450    -0.423264651     0.198148278    -0.177719710
   29    39.242598809    28.601443984    25.953144276    -0.400682814     0.224651829    -0.197445785
   30    38.012565538    29.515105364    22.650189551    -0.413594698     0.217042396    -0.178415314
   31    36.524934600    30.478856056    29.664580766    -0.407003442     0.227571895    -0.180441766
   32    38.651809489    21.129843293    28.893509268    -0.405818747     0.227083428    -0.183696112
   33    31.715032820    28.504169881    26.295726653    -0.408286004     0.224997442    -0.180772481
   34    41.312336791    23.488935842    29.013959128    -0.483327792    -0.104501940     0.073983712
   35    38.684626003    28.090580107    21.190171627    -0.415930785     0.212782744    -0.178115373
   36    38.198394371    23.077339983    26.524242335    -0.449350225     0.175471026    -0.131507773
   37    38.703953732    25.690219868    28.460953594    -0.410118369     0.214437710    -0.189260117
   38    36.789001922    26.607426639    25.160092340    -0.426833583     0.197166511    -0.170113079
   39    38.975508623    26.302767353    24.585618331    -0.434193605     0.184700737    -0.165413273
   40    33.741919055    29.321523100    27.132583231    -0.407140726     0.223445234    -0.185225960
   41    37.241291098    22.513427664    24.573560344    -0.448430228     0.174562090    -0.135788096
   42    31.525401378    28.955015130    24.022594394    -0.418007132     0.199322448    -0.188522145
   43    35.063212105    27.539705624    26.166985405    -0.423706805     0.200056548    -0.174499058
   44    40.003607313    24.539047013    25.450324239    -0.435912875     0.185289189    -0.160149560
   45    35.343038123    30.055754463    25.626149490    -0.412620373     0.210396661    -0.188355177
   46    38.435064533    21.734258104    22.925890835    -0.446336200     0.181080533    -0.134141110
   47    37.859528564    22.303991843    30.490655565    -0.413680366     0.210335645    -0.186084580
   48    41.064443670    23.960841710    21.411757656    -0.407227532     0.228108662    -0.179254499
   49    34.303910107    25.813000317    22.501652484     0.417829044    -0.182420312     0.205284484
   50    37.458670131    29.887086653    27.622706395    -0.402003657     0.217796578    -0.202380113
   51    40.735640235    26.320699032    21.551091281    -0.418386180     0.196465759    -0.190667799
   52    40.443092805    30.083080789    22.252269909    -0.401981009     0.213047881    -0.207417137
   53    39.712319469    24.763242409    30.175282715    -0.406718739     0.224331913    -0.185081226
   54    35.871431700    22.869951697    30.486700454    -0.403591004     0.243550322    -0.166725950
   55    34.317654846    30.538260924    23.388106988    -0.403642111     0.221498624    -0.194965139
   56    37.428796380    24.530882575    30.352159701    -0.414059929     0.212082962    -0.183235347
   57    36.318462898    26.457050279    27.981928357    -0.416396153     0.207663615    -0.183002915
   58    35.191423243    20.745182094    27.772258028    -0.405096373     0.225822585    -0.186818329
   59    36.843153284    22.224211868    28.487371740    -0.411467982     0.218926079    -0.181012352
   60    39.948459204    26.903527028    29.732992989    -0.407445045     0.219104794    -0.189688229
   61    40.113336508    22.277023362    30.636402816    -0.422900299     0.205884395    -0.169608234
   62    39.945105703    27.792933824    23.070564883    -0.420466111     0.198300390    -0.184079345
   63    33.207685007    28.326565342    30.264400841    -0.399651714     0.227026926    -0.196817891
   64    34.547644491    29.648257496    21.331219680    -0.406213128     0.212115844    -0.199994408
   65    35.674590200    24.374881411    24.178172251    -0.376262489     0.267475878    -0.192049979
   66    32.072899776    27.256628862    28.771528199    -0.396248695     0.231658298    -0.198296254
   67    38.903883243    23.285532921    28.883324303    -0.413225963     0.221683760    -0.173495286
   68    32.066924049    22.816019031    25.982692236    -0.471066168     0.151079402    -0.072606332
   21     2.737238121    36.475781763    23.927472926     0.412110058    -0.204648624     0.195663592
   22    10.069543792    31.859404218    25.967399646    -0.457603176     0.168416589    -0.110612776
   23     9.953617373    39.386729930    26.832239277    -0.408527787     0.217806200    -0.188853135
   24     4.900407947    34.274443578    27.660350697    -0.417421700     0.201980166    -0.186984322
   25     6.179066757    30.518293860    20.945366768    -0.402156754     0.222948995    -0.196376402
   26     2.738292714    31.100671743    27.482511976    -0.104123063    -0.382455442     0.304772411
   27     1.402915891    33.100930220    22.770715401    -0.417060078     0.213837780    -0.174167434
   28     8.396076609    35.539743967    21.039994265    -0.423266341     0.198149053    -0.177714821
   29     9.108706430    38.192556870    25.119509091    -0.400686393     0.224640002    -0.197451979
   30     7.878673160    39.106218250    21.816554366    -0.413595923     0.217039813    -0.178415617
   31     6.391042222    40.069968942    28.830945581    -0.407006580     0.227559320    -0.180450546
   32     8.517917110    30.720956179    28.059874083    -0.405824003     0.227089064    -0.183677530
   33     1.581140442    38.095282767    25.462091468    -0.408285552     0.225004943    -0.180764165
   34    11.178444413    33.080048728    28.180323943    -0.483325626    -0.104738048     0.073663294
   35     8.550733625    37.681692994    20.356536442    -0.415932038     0.212783816    -0.178111167
   36     8.064501993    32.668452869    25.690607150    -0.449362392     0.175420019    -0.131534246
   37     8.570061354    35.281332754    27.627318408    -0.410123130     0.214445644    -0.189240810
   38     6.655109544    36.198539525    24.326457155    -0.426836629     0.197169007    -0.170102542
   39     8.841616244    35.893880239    23.751983145    -0.434196841     0.184701956    -0.165403417
   40     3.608026677    38.912635986    26.298948046    -0.407142050     0.223446889    -0.185221053
   41     7.107398720    32.104540550    23.739925159    -0.448443355     0.174516502    -0.135803344
   42     1.391508999    38.546128016    23.188959209    -0.418007838     0.199329943    -0.188512655
   43     4.929319727    37.130818510    25.333350220    -0.423709695     0.200058772    -0.174489488
   44     9.869714935    34.130159899    24.616689054    -0.435917480     0.185289149    -0.160137073
   45     5.209145745    39.646867349    24.792514305    -0.412621915     0.210394352    -0.188354378
   46     8.301172155    31.325370990    22.092255650    -0.446348919     0.181041987    -0.134150817
   47     7.725636185    31.895104729    29.657020380    -0.413683922     0.210341721    -0.186069807
   48    10.930551291    33.551954596    20.578122471    -0.407232829     0.228110077    -0.179240663
   49     4.170017729    35.404113203    21.668017299     0.417732504    -0.182705728     0.205227123
   50     7.324777753    39.478199539    26.789071210    -0.402004604     0.217786180    -0.202389421
   51    10.601747857    35.911811918    20.717456095    -0.418388030     0.196466887    -0.190662579
   52    10.309200427    39.674193675    21.418634724    -0.401982243     0.213049704    -0.207412872
   53     9.578427090    34.354355295    29.341647530    -0.406723774     0.224346076    -0.185052992
   54     5.737539322    32.461064583    29.653065269    -0.403593844     0.243560621    -0.166704029
   55     4.183762468    40.129373810    22.554471803    -0.403642188     0.221496352    -0.194967562
   56     7.294904001    34.121995461    29.518524516    -0.414063366     0.212093602    -0.183215263
   57     6.184570520    36.048163165    27.148293172    -0.416399869     0.207671156    -0.182985901
   58     5.057530865    30.336294980    26.938622843    -0.405101190     0.225835265    -0.186792555
   59     6.709260906    31.815324754    27.653736555    -0.411473098     0.218933517    -0.180991726
   60     9.814566825    36.494639914    28.899357804    -0.407449755     0.219110085    -0.189672001
   61     9.979444129    31.868136248    29.802767630    -0.422901961     0.205886119    -0.169601996
   62     9.811213325    37.384046710    22.236929698    -0.420468374     0.198299179    -0.184075479
   63     3.073792628    37.917678228    29.430765656    -0.399649812     0.227035870    -0.196811436
   64     4.413752112    39.239370382    20.497584495    -0.406213107     0.212112804    -0.199997675
   65     5.540697822    33.965994297    23.344537066    -0.376471875     0.267646694    -0.191400562
   66     1.939007398    36.847741748    27.937893014    -0.396245317     0.231672146    -0.198286826
   67     8.769990864    32.876645807    28.049689118    -0.413232101     0.221690913    -0.173471524
   68     1.933031670    32.407131917    25.149057050    -0.471071608     0.151031258    -0.072671172
   21    12.826894071    36.620441975    24.215559795     0.412106862    -0.204647373     0.195671630
   22    20.159199741    32.004064430    26.255486515    -0.457605900     0.168434189    -0.110574699
   23    20.043273323    39.531390141    27.120326146    -0.408534329     0.217797843    -0.188848620
   24    14.990063897    34.419103789    27.948437567    -0.417422111     0.201983913    -0.186979358
   25    16.268722707    30.662954072    21.233453638    -0.402155156     0.222953593    -0.196374453
   26    12.827948664    31.245331955    27.770598845    -0.104221648    -0.382752699     0.304365273
   27    11.492571841    33.245590432    23.058802271    -0.417061733     0.213859784    -0.174136451
   28    18.485732559    35.684404179    21.328081135    -0.423266559     0.198151646    -0.177711410
   29    19.198362380    38.337217082    25.407595961    -0.400694521     0.224628377    -0.197448710
   30    17.968329110    39.250878462    22.104641235    -0.413596299     0.217042140    -0.178411914
   31    16.480698171    40.214629154    29.119032450    -0.407010247     0.227557573    -0.180444477
   32    18.607573060    30.865616391    28.347960953    -0.405825839     0.227090815    -0.183671311
   33    11.670796392    38.239942979    25.750178338    -0.408287816     0.225000266    -0.180764875
   34    21.268100363    33.224708940    28.468410812    -0.483311211    -0.104707681     0.073800916
   35    18.640389574    37.826353205    20.644623312    -0.415933107     0.212784427    -0.178107938
   36    18.154157943    32.813113081    25.978694019    -0.449363653     0.175432305    -0.131513549
   37    18.659717304    35.425992966    27.915405278    -0.410122768     0.214449123    -0.189237652
   38    16.744765494    36.343199737    24.614544024    -0.426835591     0.197173979    -0.170099384
   39    18.931272194    36.038540450    24.040070015    -0.434195994     0.184706248    -0.165400848
   40    13.697682626    39.057296198    26.587034916    -0.407144895     0.223444209    -0.185218034
   41    17.197054670    32.249200762    24.028012029    -0.448443342     0.174527283    -0.135789530
   42    11.481164949    38.690788228    23.477046079    -0.418008958     0.199324897    -0.188515507
   43    15.018975677    37.275478722    25.621437090    -0.423708911     0.200063021    -0.174486521
   44    19.959370885    34.274820111    24.904775923    -0.435915093     0.185296262    -0.160135338
   45    15.298801694    39.791527561    25.080601175    -0.412624323     0.210393896    -0.188349613
   46    18.390828105    31.470031201    22.380342520    -0.446348226     0.181051793    -0.134139886
   47    17.815292135    32.039764941    29.945107249    -0.413687367     0.210336793    -0.186067718
   48    21.020207241    33.696614808    20.866209341    -0.407233650     0.228110421    -0.179238360
   49    14.259673679    35.548773415    21.956104168     0.417617355    -0.182628847     0.205529679
   50    17.414433703    39.622859751    27.077158080    -0.402008681     0.217785995    -0.202381523
   51    20.691403807    36.056472129    21.005542965    -0.418389801     0.196466365    -0.190659230
   52    20.398856377    39.818853887    21.706721593    -0.401981099     0.213052267    -0.207412457
   53    19.668083040    34.499015506    29.629734400    -0.406723502     0.224347185    -0.185052246
   54    15.827195272    32.605724794    29.941152138    -0.403595320     0.243563106    -0.166696825
   55    14.273418418    40.274034022    22.842558672    -0.403643392     0.221497639    -0.194963607
   56    17.384559951    34.266655672    29.806611385    -0.414065482     0.212093473    -0.183210630
   57    16.274226469    36.192823376    27.436380041    -0.416399987     0.207674661    -0.182981655
   58    15.147186815    30.480955192    27.226709713    -0.405100715     0.225849222    -0.186776710
   59    16.798916856    31.959984966    27.941823425    -0.411473283     0.218942447    -0.180980503
   60    19.904222775    36.639300126    29.187444674    -0.407448825     0.219114489    -0.189668912
   61    20.069100079    32.012796460    30.090854500    -0.422907469     0.205877301    -0.169598968
   62    19.900869274    37.528706922    22.525016568    -0.420469732     0.198299629    -0.184071894
   63    13.163448578    38.062338439    29.718852526    -0.399654257     0.227032344    -0.196806477
   64    14.503408062    39.384030593    20.785671365    -0.406214472     0.212113963    -0.199993674
   65    15.630353772    34.110654509    23.632623936    -0.376337546     0.267449416    -0.191939734
   66    12.028663347    36.992401960    28.225979883    -0.396249135     0.231669350    -0.198282462
   67    18.859646814    33.021306019    28.337775987    -0.413232869     0.221690919    -0.173469688
   68    12.022687620    32.551792129    25.437143920    -0.471084700     0.150939744    -0.072776364
   21    22.916550021    36.765102187    24.503646665     0.412115192    -0.204640281     0.195661502
   22    30.248855691    32.148724641    26.543573385    -0.457611000     0.168385214    -0.110628173
   23    30.132929273    39.676050353    27.408413016    -0.408532889     0.217807585    -0.188840501
   24    25.079719847    34.563764001    28.236524437    -0.417430406     0.201963511    -0.186982877
   25    26.358378657    30.807614283    21.521540508    -0.402156430     0.222949388    -0.196376618
   26    22.917604614    31.389992166    28.058685715    -0.104146884    -0.382560287     0.304632654
   27    21.582227791    33.390250644    23.346889140    -0.417052286     0.213861138    -0.174157411
   28    28.575388509    35.829064391    21.616168004    -0.423275587     0.198138204    -0.177704895
   29    29.288018330    38.481877293    25.695682830    -0.400690961     0.224641537    -0.197440962
   30    28.057985060    39.395538673    22.392728105    -0.413605242     0.217029824    -0.178406163
   31    26.570354121    40.359289366    29.407119320    -0.407012509     0.227559697    -0.180436698
   32    28.697229010    31.010276603    28.636047822    -0.405828719     0.227075652    -0.183683693
   33    21.760452341    38.384603190    26.038265207    -0.408291060     0.224998099    -0.180760245
   34    31.357756312    33.369369151    28.756497682    -0.483319341    -0.104804909     0.073609414
   35    28.730045524    37.971013417    20.932710181    -0.415941385     0.212772688    -0.178102632
   36    28.243813893    32.957773293    26.266780889    -0.449369615     0.175394978    -0.131542961
   37    28.749373254    35.570653177    28.203492148    -0.410130707     0.214433482    -0.189238171
   38    26.834421443    36.487859948    24.902630894    -0.426846337     0.197152476    -0.170097342
   39    29.020928144    36.183200662    24.328156885    -0.434207094     0.184684290    -0.165396227
   40    23.787338576    39.201956410    26.875121785    -0.407149323     0.223439419    -0.185214078
   41    27.286710619    32.393860974    24.316098898    -0.448449540     0.174493488    -0.135812491
   42    21.570820899    38.835448440    23.765132948    -0.418012175     0.199322128    -0.188511302
   43    25.108631626    37.420138934    25.909523959    -0.423719165     0.200043377    -0.174484144
   44    30.049026835    34.419480322    25.192862793    -0.435928543     0.185269231    -0.160130001
   45    25.388457644    39.936187772    25.368688044    -0.412630772     0.210385296    -0.188345090
   46    28.480484055    31.614691413    22.668429389    -0.446355236     0.181021623    -0.134157278
   47    27.904948085    32.184425152    30.233194119    -0.413689107     0.210325526    -0.186076587
   48    31.109863191    33.841275019    21.154296210    -0.407242910     0.228097928    -0.179233221
   49    24.349329628    35.693433627    22.244191038     0.417724288    -0.182657936     0.205286379
   50    27.504089653    39.767519962    27.365244949    -0.402012361     0.217785427    -0.202374824
   51    30.781059756    36.201132341    21.293629834    -0.418397679     0.196454703    -0.190653958
   52    30.488512326    39.963514099    21.994808463    -0.401992443     0.213037981    -0.207405146
   53    29.757738990    34.643675718    29.917821269    -0.406731347     0.224333880    -0.185051133
   54    25.916851222    32.750385006    30.229239008    -0.403596760     0.243548949    -0.166714021
   55    24.363074368    40.418694233    23.130645542    -0.403653067     0.221485249    -0.194957651
   56    27.474215901    34.411315884    30.094698255    -0.414069164     0.212078603    -0.183219523
   57    26.363882419    36.337483588    27.724466911    -0.416408740     0.207655357    -0.182983643
   58    25.236842765    30.625615403    27.514796582    -0.405104729     0.225827914    -0.186793769
   59    26.888572806    32.104645177    28.229910294    -0.411477926     0.218921477    -0.180995312
   60    29.993878725    36.783960337    29.475531543    -0.407456669     0.219101367    -0.189667218
   61    30.158756029    32.157456671    30.378941370    -0.422907768     0.205866707    -0.169611081
   62    29.990525224    37.673367133    22.813103437    -0.420477349     0.198288575    -0.184066401
   63    23.253104528    38.206998651    30.006939395    -0.399654037     0.227036422    -0.196802221
   64    24.593064012    39.528690805    21.073758234    -0.406223784     0.212101716    -0.199987749
   65    25.720009722    34.255314721    23.920710805    -0.376284753     0.267543244    -0.191912472
   66    22.118319297    37.137062171    28.514066753    -0.396249128     0.231672744    -0.198278512
   67    28.949302764    33.165966230    28.625862857    -0.413238703     0.221676495    -0.173474224
   68    22.112343570    32.696452340    25.725230790    -0.471087377     0.150961036    -0.072714844
   21    33.006205971    36.909762398    24.791733534     0.412115102    -0.204640213     0.195661764
   22    40.338511641    32.293384853    26.831660255    -0.457594565     0.168481009    -0.110550277
   23    40.222585223    39.820710565    27.696499886    -0.408530682     0.217809840    -0.188842675
   24    35.169375796    34.708424213    28.524611306    -0.417420945     0.201981577    -0.186984483
   25    36.448034606    30.952274495    21.809627377    -0.402152771     0.222956727    -0.196375779
   26    33.007260564    31.534652378    28.346772585    -0.104234353    -0.382836745     0.304255199
   27    31.671883741    33.534910855    23.634976010    -0.417078964     0.213838867    -0.174120867
   28    38.665044458    35.973724602    21.904254874    -0.423266938     0.198151662    -0.177710489
   29    39.377674280    38.626537505    25.983769700    -0.400689957     0.224642370    -0.197442052
   30    38.147641010    39.540198885    22.680814974    -0.413597503     0.217042407    -0.178408798
   31    36.660010071    40.503949577    29.695206190    -0.407009870     0.227562335    -0.180439323
   32    38.786884960    31.154936814    28.924134692    -0.405820353     0.227098575    -0.183673838
   33    31.850108291    38.529263402    26.326352077    -0.408293878     0.224996110    -0.180756353
   34    41.447412262    33.514029363    29.044584552    -0.483321496    -0.104573772     0.073923320
   35    38.819701474    38.115673629    21.220797051    -0.415932912     0.212785564    -0.178107037
   36    38.333469842    33.102433504    26.554867758    -0.449356993     0.175459122    -0.131500529
   37    38.839029203    35.715313389    28.491579017    -0.410120779     0.214445708    -0.189245831
   38    36.924077393    36.632520160    25.190717763    -0.426837866     0.197169344    -0.170099046
   39    39.110584094    36.327860874    24.616243754    -0.434196058     0.184705833    -0.165401143
   40    33.876994526    39.346616621    27.163208655    -0.407148511     0.223443089    -0.185211437
   41    37.376366569    32.538521185    24.604185768    -0.448437679     0.174548501    -0.135780959
   42    31.660476849    38.980108651    24.053219818    -0.418016039     0.199318359    -0.188506719
   43    35.198287576    37.564799145    26.197610829    -0.423712169     0.200057458    -0.174484989
   44    40.138682784    34.564140534    25.480949662    -0.435915045     0.185295748    -0.160136066
   45    35.478113594    40.080847984    25.656774914    -0.412627682     0.210391591    -0.188344829
   46    38.570140004    31.759351625    22.956516259    -0.446343711     0.181066992    -0.134134395
   47    37.994604035    32.329085364    30.521280988    -0.413680094     0.210349248    -0.186069808
   48    41.199519141    33.985935231    21.442383080    -0.407231950     0.228113933    -0.179237754
   49    34.438985578    35.838093838    22.532277908     0.417670724    -0.182654908     0.205398031
   50    37.593745603    39.912180174    27.653331819    -0.402009761     0.217789223    -0.202375903
   51    40.870715706    36.345792553    21.581716704    -0.418387566     0.196470594    -0.190659776
   52    40.578168276    40.108174310    22.282895332    -0.401983347     0.213048964    -0.207411494
   53    39.847394940    34.788335930    30.205908139    -0.406719511     0.224343733    -0.185065201
   54    36.006507172    32.895045218    30.517325877    -0.403589553     0.243565494    -0.166707297
   55    34.452730317    40.563354445    23.418732412    -0.403649291     0.221492149    -0.194957630
   56    37.563871851    34.555976096    30.382785124    -0.414059888     0.212098153    -0.183217857
   57    36.453538369    36.482143800    28.012553781    -0.416399752     0.207670961    -0.182986390
   58    35.326498714    30.770275615    27.802883452    -0.405096145     0.225855440    -0.186779105
   59    36.978228755    32.249305389    28.517997164    -0.411468969     0.218948642    -0.180982815
   60    40.083534675    36.928620549    29.763618413    -0.407446296     0.219111330    -0.189677992
   61    40.248411979    32.302116883    30.667028239    -0.422900019     0.205894588    -0.169596559
   62    40.080181174    37.818027345    23.101190307    -0.420467535     0.198303537    -0.184072701
   63    33.342760478    38.351658863    30.295026265    -0.399656366     0.227030959    -0.196803793
   64    34.682719962    39.673351017    21.361845104    -0.406220283     0.212108830    -0.199987315
   65    35.809665671    34.399974932    24.208797675    -0.376171015     0.267640860    -0.191999317
   66    32.207975247    37.281722383    28.802153622    -0.396253711     0.231665202    -0.198278166
   67    39.038958714    33.310626442    28.913949727    -0.413227447     0.221695327    -0.173476969
   68    32.201999520    32.841112552    26.013317659    -0.471094174     0.150898562    -0.072800438
   21     2.618882879     6.432636937    33.847582017     0.412107532    -0.204645866     0.195671796
   22     9.951188550     1.816259391    35.887508737    -0.457604277     0.168438229    -0.110575264
   23     9.835262131     9.343585103    36.752348368    -0.408524610     0.217820957    -0.188842987
   24     4.782052705     4.231298751    37.580459788    -0.417422226     0.201976400    -0.186987216
   25     6.060711515     0.475149034    30.865475860    -0.402151987     0.222958017    -0.196375920
   26     2.619937472     1.057526916    37.402621067    -0.104133227    -0.382271277     0.304999904
   27     1.284560649     3.057785394    32.690824492    -0.417054895     0.213843612    -0.174172686
   28     8.277721367     5.496599141    30.960103356    -0.423264423     0.198159324    -0.177707936
   29     8.990351188     8.149412043    35.039618182    -0.400682353     0.224654955    -0.197443163
   30     7.760317918     9.063073424    31.736663457    -0.413592501     0.217054466    -0.178405724
   31     6.272686979    10.026824116    38.751054672    -0.407005412     0.227568363    -0.180441776
   32     8.399561868     0.677811353    37.979983174    -0.405824426     0.227083056    -0.183684025
   33     1.462785200     8.052137940    35.382200559    -0.408283717     0.225008213    -0.180764239
   34    11.060089171     3.036903901    38.100433034    -0.483319096    -0.104657509     0.073820438
   35     8.432378382     7.638548167    30.276645533    -0.415929886     0.212793589    -0.178104515
   36     7.946146751     2.625308043    35.610716241    -0.449363111     0.175431030    -0.131517101
   37     8.451706112     5.238187928    37.547427500    -0.410124332     0.214438392    -0.189246421
   38     6.536754302     6.155394698    34.246566246    -0.426836036     0.197172631    -0.170099830
   39     8.723261002     5.850735412    33.672092237    -0.434195231     0.184708184    -0.165400690
   40     3.489671434     8.869491160    36.219057137    -0.407140831     0.223451647    -0.185217994
   41     6.989043478     2.061395724    33.660034250    -0.448443390     0.174523834    -0.135793803
   42     1.273153757     8.502983190    33.109068300    -0.418004782     0.199335629    -0.188513419
   43     4.810964485     7.087673684    35.253459311    -0.423709412     0.200062019    -0.174486454
   44     9.751359693     4.087015073    34.536798145    -0.435914932     0.185296734    -0.160135232
   45     5.090790502     9.603722522    34.712623396    -0.412620556     0.210401722    -0.188349124
   46     8.182816913     1.282226163    32.012364741    -0.446348538     0.181047427    -0.134144743
   47     7.607280943     1.851959902    39.577129471    -0.413685405     0.210332320    -0.186077137
   48    10.812196049     3.508809770    30.498231562    -0.407230527     0.228118732    -0.179234878
   49     4.051662487     5.360968377    31.588126390     0.417764184    -0.182270676     0.205549233
   50     7.206422511     9.435054713    36.709180301    -0.402004320     0.217795933    -0.202379491
   51    10.483392615     5.868667091    30.637565186    -0.418386073     0.196475773    -0.190657716
   52    10.190845185     9.631048849    31.338743815    -0.401978183     0.213063132    -0.207406948
   53     9.460071848     4.311210468    39.261756621    -0.406725038     0.224336209    -0.185062176
   54     5.619184080     2.417919756    39.573174360    -0.403593926     0.243554058    -0.166713418
   55     4.065407226    10.086228983    32.474580894    -0.403639797     0.221507500    -0.194959846
   56     7.176548759     4.078850634    39.438633607    -0.414064598     0.212084595    -0.183222906
   57     6.066215277     6.005018338    37.068402263    -0.416400676     0.207667929    -0.182987728
   58     4.939175623     0.293150153    36.858731934    -0.405097926     0.225830957    -0.186804844
   59     6.590905664     1.772179927    37.573845646    -0.411471796     0.218929310    -0.180999774
   60     9.696211583     6.451495087    38.819466895    -0.407451828     0.219103476    -0.189675184
   61     9.861088887     1.824991422    39.722876722    -0.422906130     0.205874916    -0.169605201
   62     9.692858082     7.340901883    32.157038789    -0.420465627     0.198309107    -0.184071058
   63     2.955437386     7.874533401    39.350874747    -0.399649133     0.227035312    -0.196813459
   64     4.295396870     9.196225555    30.417693586    -0.406210387     0.212125401    -0.199989840
   65     5.422342580     3.922849471    33.264646157    -0.376235589     0.267561746    -0.191983055
   66     1.820652155     6.804596922    37.858002105    -0.396243273     0.231672533    -0.198290458
   67     8.651635622     2.833500981    37.969798209    -0.413233090     0.221682874    -0.173479442
   68     1.814676428     2.363987091    35.069166142    -0.471067926     0.151062080    -0.072630966
   21    12.708538829     6.577297148    34.135668886     0.412106638    -0.204649057     0.195670340
   22    20.040844499     1.960919603    36.175595606    -0.457587190     0.168515577    -0.110528114
   23    19.924918081     9.488245315    37.040435238    -0.408529448     0.217796343    -0.188860910
   24    14.871708655     4.375958963    37.868546658    -0.417422275     0.201974555    -0.186989098
   25    16.150367465     0.619809245    31.153562729    -0.402154117     0.222958011    -0.196371565
   26    12.709593422     1.202187128    37.690707937    -0.104187082    -0.382528079     0.304659351
   27    11.374216599     3.202445605    32.978911362    -0.417055055     0.213858539    -0.174153973
   28    18.367377317     5.641259352    31.248190226    -0.423266554     0.198148757    -0.177714644
   29    19.080007138     8.294072255    35.327705052    -0.400687934     0.224630625    -0.197459519
   30    17.849973868     9.207733635    32.024750326    -0.413596188     0.217037767    -0.178417490
   31    16.362342929    10.171484328    39.039141541    -0.407009838     0.227546146    -0.180459809
   32    18.489217818     0.822471564    38.268070044    -0.405821369     0.227098784    -0.183671332
   33    11.552441149     8.196798152    35.670287429    -0.408286099     0.225002809    -0.180765588
   34    21.149745120     3.181564113    38.388519904    -0.483336303    -0.104443910     0.074010049
   35    18.522034332     7.783208379    30.564732403    -0.415932753     0.212780763    -0.178113143
   36    18.035802701     2.769968254    35.898803110    -0.449353937     0.175475051    -0.131489719
   37    18.541362062     5.382848139    37.835514369    -0.410124372     0.214434274    -0.189251001
   38    16.626410251     6.300054910    34.534653115    -0.426835411     0.197166033    -0.170109045
   39    18.812916952     5.995395624    33.960179106    -0.434195405     0.184700141    -0.165409214
   40    13.579327384     9.014151371    36.507144007    -0.407143135     0.223442339    -0.185224159
   41    17.078699427     2.206055935    33.948121120    -0.448435104     0.174561168    -0.135773178
   42    11.362809707     8.647643401    33.397155170    -0.418006516     0.199332846    -0.188512516
   43    14.900620434     7.232333895    35.541546181    -0.423708613     0.200055448    -0.174495929
   44    19.841015643     4.231675284    34.824885014    -0.435914551     0.185290555    -0.160143417
   45    15.180446452     9.748382734    35.000710266    -0.412622463     0.210389625    -0.188358458
   46    18.272472863     1.426886375    32.300451611    -0.446341488     0.181076920    -0.134128390
   47    17.696936893     1.996620114    39.865216340    -0.413683326     0.210350750    -0.186060925
   48    20.901851999     3.653469981    30.786318432    -0.407230196     0.228117352    -0.179237387
   49    14.141318436     5.505628588    31.876213260     0.417691238    -0.182594623     0.205409916
   50    17.296078461     9.579714924    36.997267171    -0.402006547     0.217775987    -0.202396531
   51    20.573048564     6.013327303    30.925652056    -0.418388385     0.196462773    -0.190666037
   52    20.280501134     9.775709060    31.626830684    -0.401981603     0.213046074    -0.207417841
   53    19.549727798     4.455870680    39.549843491    -0.406723852     0.224331604    -0.185070364
   54    15.708840030     2.562579968    39.861261229    -0.403589774     0.243567086    -0.166704435
   55    14.155063176    10.230889195    32.762667764    -0.403643045     0.221495063    -0.194967251
   56    17.266204709     4.223510846    39.726720476    -0.414063325     0.212092992    -0.183216061
   57    16.155871227     6.149678550    37.356489133    -0.416400402     0.207664301    -0.182992468
   58    15.028831573     0.437810365    37.146818804    -0.405097803     0.225846445    -0.186786383
   59    16.680561614     1.916840139    37.861932516    -0.411469955     0.218944447    -0.180985649
   60    19.785867533     6.596155299    39.107553765    -0.407451712     0.219096120    -0.189683927
   61    19.950744837     1.969651633    40.010963591    -0.422903042     0.205898969    -0.169583702
   62    19.782514032     7.485562095    32.445125659    -0.420468077     0.198295344    -0.184080289
   63    13.045093336     8.019193613    39.638961617    -0.399654851     0.227025025    -0.196813714
   64    14.385052820     9.340885767    30.705780456    -0.406214049     0.212112561    -0.199996020
   65    15.511998530     4.067509683    33.552733027    -0.376148862     0.267602731    -0.192095842
   66    11.910308105     6.949257133    38.146088974    -0.396249899     0.231662356    -0.198289108
   67    18.741291572     2.978161192    38.257885079    -0.413229925     0.221690567    -0.173477151
   68    11.904332378     2.508647302    35.357253011    -0.471083567     0.150974628    -0.072711308
   21    22.798194779     6.721957360    34.423755756     0.412107732    -0.204636846     0.195680809
   22    30.130500449     2.105579815    36.463682476    -0.457598437     0.168496828    -0.110510132
   23    30.014574031     9.632905526    37.328522107    -0.408530188     0.217793075    -0.188863076
   24    24.961364604     4.520619174    38.156633528    -0.417428268     0.201964304    -0.186986794
   25    26.240023414     0.764469457    31.441649599    -0.402157650     0.222957039    -0.196365434
   26    22.799249372     1.346847340    37.978794806    -0.104208064    -0.382296425     0.304942819
   27    21.463872549     3.347105817    33.266998231    -0.417066093     0.213811716    -0.174185027
   28    28.457033266     5.785919564    31.536277096    -0.423268328     0.198142397    -0.177717509
   29    29.169663088     8.438732467    35.615791922    -0.400688084     0.224625437    -0.197465116
   30    27.939629818     9.352393847    32.312837196    -0.413597264     0.217031683    -0.178422397
   31    26.451998879    10.316144539    39.327228411    -0.407012336     0.227544975    -0.180455653
   32    28.578873768     0.967131776    38.556156913    -0.405829806     0.227081607    -0.183673930
   33    21.642097099     8.341458364    35.958374298    -0.408289303     0.224989873    -0.180774451
   34    31.239401070     3.326224325    38.676606773    -0.483316368    -0.104498472     0.074063200
   35    28.611690282     7.927868590    30.852819272    -0.415933505     0.212776398    -0.178116603
   36    28.125458650     2.914628466    36.186889980    -0.449361857     0.175464425    -0.131476831
   37    28.631018011     5.527508351    38.123601239    -0.410127966     0.214428359    -0.189249915
   38    26.716066201     6.444715122    34.822739985    -0.426839903     0.197158238    -0.170106808
   39    28.902572902     6.140055835    34.248265976    -0.434197947     0.184696517    -0.165406588
   40    23.668983334     9.158811583    36.795230876    -0.407147620     0.223430916    -0.185228078
   41    27.168355377     2.350716147    34.236207989    -0.448441825     0.174553833    -0.135760410
   42    21.452465657     8.792303613    33.685242040    -0.418009264     0.199317186    -0.188522982
   43    24.990276384     7.376994107    35.829633050    -0.423713584     0.200046048    -0.174494634
   44    29.930671592     4.376335496    35.112971884    -0.435917565     0.185288301    -0.160137822
   45    25.270102402     9.893042946    35.288797136    -0.412627014     0.210379255    -0.188360071
   46    28.362128812     1.571546586    32.588538481    -0.446347564     0.181071171    -0.134115932
   47    27.786592843     2.141280326    40.153303210    -0.413691677     0.210328148    -0.186067909
   48    30.991507949     3.798130193    31.074405302    -0.407236956     0.228104416    -0.179238492
   49    24.230974386     5.650288800    32.164300129     0.417560729    -0.182568380     0.205698382
   50    27.385734411     9.724375136    37.285354040    -0.402009199     0.217775252    -0.202392053
   51    30.662704514     6.157987514    31.213738926    -0.418389044     0.196459594    -0.190667868
   52    30.370157084     9.920369272    31.914917554    -0.401981705     0.213041096    -0.207422757
   53    29.639383748     4.600530891    39.837930360    -0.406728479     0.224322653    -0.185071045
   54    25.798495980     2.707240179    40.149348099    -0.403599787     0.243547500    -0.166708809
   55    24.244719125    10.375549407    33.050754633    -0.403646837     0.221482865    -0.194973258
   56    27.355860659     4.368171057    40.014807346    -0.414068812     0.212079512    -0.183219266
   57    26.245527177     6.294338761    37.644576002    -0.416405931     0.207655612    -0.182989748
   58    25.118487522     0.582470577    37.434905673    -0.405104802     0.225829317    -0.186791913
   59    26.770217563     2.061500351    38.150019386    -0.411477477     0.218928415    -0.180987942
   60    29.875523483     6.740815511    39.395640635    -0.407454174     0.219093740    -0.189681389
   61    30.040400787     2.114311845    40.299050461    -0.422912212     0.205872606    -0.169592838
   62    29.872169982     7.630222307    32.733212529    -0.420468859     0.198292769    -0.184081277
   63    23.134749286     8.163853824    39.927048486    -0.399656532     0.227018824    -0.196817454
   64    24.474708770     9.485545978    30.993867325    -0.406217486     0.212100154    -0.200002196
   65    25.601654479     4.212169894    33.840819896    -0.376057046     0.267705952    -0.192131780
   66    21.999964055     7.093917345    38.434175844    -0.396251474     0.231655317    -0.198294184
   67    28.830947522     3.122821404    38.545971948    -0.413237381     0.221675278    -0.173478927
   68    21.993988328     2.653307514    35.645339881    -0.471059266     0.151087302    -0.072634669
   21    32.887850729     6.866617572    34.711842625     0.412110261    -0.204637918     0.195674359
   22    40.220156399     2.250240026    36.751769346    -0.457592790     0.168502294    -0.110525180
   23    40.104229981     9.777565738    37.616608977    -0.408523316     0.217816675    -0.188850725
   24    35.051020554     4.665279386    38.444720397    -0.417419906     0.201979206    -0.186989364
   25    36.329679364     0.909129668    31.729736468    -0.402153157     0.222961769    -0.196369264
   26    32.888905321     1.491507551    38.266881676    -0.104143881    -0.382277183     0.304988865
   27    31.553528499     3.491766029    33.555085101    -0.417064503     0.213821427    -0.174176914
   28    38.546689216     5.930579776    31.824363965    -0.423262064     0.198165112    -0.177707101
   29    39.259319038     8.583392678    35.903878791    -0.400680452     0.224653510    -0.197448667
   30    38.029285767     9.497054058    32.600924065    -0.413590952     0.217051004    -0.178413526
   31    36.541654829    10.460804751    39.615315281    -0.407002549     0.227567553    -0.180449257
   32    38.668529717     1.111791988    38.844243783    -0.405820083     0.227093870    -0.183680251
   33    31.731753049     8.486118575    36.246461168    -0.408285399     0.224997488    -0.180773792
   34    41.329057020     3.470884536    38.964693643    -0.483320098    -0.104508228     0.074025085
   35    38.701346232     8.072528802    31.140906142    -0.415926707     0.212797415    -0.178107367
   36    38.215114600     3.059288678    36.474976850    -0.449355896     0.175473294    -0.131485368
   37    38.720673961     5.672168562    38.411688108    -0.410117598     0.214446343    -0.189252006
   38    36.805722151     6.589375333    35.110826855    -0.426833087     0.197174708    -0.170104821
   39    38.992228851     6.284716047    34.536352845    -0.434191825     0.184714617    -0.165402447
   40    33.758639284     9.303471795    37.083317746    -0.407140166     0.223444917    -0.185227574
   41    37.258011327     2.495376359    34.524294859    -0.448436584     0.174561738    -0.135767558
   42    31.542121607     8.936963825    33.973328909    -0.418007968     0.199319032    -0.188523903
   43    35.079932334     7.521654319    36.117719920    -0.423706917     0.200061700    -0.174492879
   44    40.020327542     4.520995708    35.401058754    -0.435910946     0.185305896    -0.160135481
   45    35.359758352    10.037703157    35.576884005    -0.412619586     0.210395195    -0.188358539
   46    38.451784762     1.716206798    32.876625350    -0.446341827     0.181080562    -0.134122344
   47    37.876248792     2.285940537    40.441390080    -0.413679507     0.210346726    -0.186073965
   48    41.081163898     3.942790405    31.362492171    -0.407227075     0.228126926    -0.179232295
   49    34.320630336     5.794949012    32.452386999     0.417772642    -0.182557098     0.205277678
   50    37.475390360     9.869035348    37.573440910    -0.402001017     0.217794222    -0.202387893
   51    40.752360464     6.302647726    31.501825795    -0.418382641     0.196482085    -0.190658742
   52    40.459813034    10.065029484    32.203004424    -0.401976054     0.213060616    -0.207413659
   53    39.729039697     4.745191103    40.126017230    -0.406717317     0.224340877    -0.185073486
   54    35.888151929     2.851900391    40.437434969    -0.403592261     0.243557941    -0.166711775
   55    34.334375075    10.520209618    33.338841503    -0.403640221     0.221496024    -0.194972007
   56    37.445516608     4.512831269    40.302894216    -0.414060258     0.212093297    -0.183222641
   57    36.335183127     6.438998973    37.932662872    -0.416397463     0.207671105    -0.182991434
   58    35.208143472     0.727130788    37.722992543    -0.405099032     0.225834675    -0.186797949
   59    36.859873513     2.206160562    38.438106255    -0.411470734     0.218936400    -0.180993613
   60    39.965179432     6.885475722    39.683727504    -0.407443659     0.219111692    -0.189683239
   61    40.130056736     2.258972057    40.587137330    -0.422898555     0.205894936    -0.169599785
   62    39.961825932     7.774882518    33.021299398    -0.420462953     0.198313672    -0.184072248
   63    33.224405235     8.308514036    40.215135356    -0.399652263     0.227026863    -0.196816848
   64    34.564364719     9.630206190    31.281954195    -0.406211792     0.212111223    -0.200002023
   65    35.691310429     4.356830106    34.128906766    -0.376141352     0.267650895    -0.192043437
   66    32.089620005     7.238577557    38.722262713    -0.396249083     0.231660415    -0.198293006
   67    38.920603471     3.267481616    38.834058818    -0.413225732     0.221693946    -0.173482820
   68    32.083644278     2.797967725    35.933426750    -0.471072492     0.151058303    -0.072609203
   21     2.753958350    16.457730458    33.878207440     0.412100878    -0.204660910     0.195670076
   22    10.086264021    11.841352912    35.918134160    -0.457594601     0.168491303    -0.110534436
   23     9.970337602    19.368678624    36.782973792    -0.408525244     0.217812452    -0.188851425
   24     4.917128176    14.256392272    37.611085212    -0.417420993     0.201980361    -0.186985691
   25     6.195786986    10.500242555    30.896101283    -0.402149076     0.222969472    -0.196368875
   26     2.755012943    11.082620437    37.433246491    -0.104233382    -0.382647509     0.304493491
   27     1.419636120    13.082878915    32.721449916    -0.417057861     0.213840602    -0.174169277
   28     8.412796838    15.521692662    30.990728780    -0.423264567     0.198158264    -0.177708774
   29     9.125426659    18.174505564    35.070243606    -0.400681567     0.224648328    -0.197452298
   30     7.895393389    19.088166945    31.767288880    -0.413595131     0.217047009    -0.178408698
   31     6.407762451    20.051917637    38.781680095    -0.407006903     0.227557779    -0.180451761
   32     8.534637339    10.702904874    38.010608598    -0.405822086     0.227096027    -0.183673158
   33     1.597860671    18.077231461    35.412825983    -0.408282352     0.225007526    -0.180768180
   34    11.195164642    13.061997422    38.131058457    -0.483322504    -0.104542301     0.073961239
   35     8.567453853    17.663641688    30.307270957    -0.415930606     0.212791098    -0.178105811
   36     8.081222222    12.650401564    35.641341664    -0.449357353     0.175466141    -0.131489934
   37     8.586781583    15.263281449    37.578052923    -0.410123663     0.214439150    -0.189247012
   38     6.671829773    16.180488219    34.277191669    -0.426834057     0.197174661    -0.170102442
   39     8.858336473    15.875828933    33.702717660    -0.434194335     0.184710691    -0.165400242
   40     3.624746905    18.894584681    36.249682561    -0.407140673     0.223448705    -0.185221890
   41     7.124118949    12.086489245    33.690659674    -0.448437393     0.174556437    -0.135771702
   42     1.408229228    18.528076711    33.139693724    -0.418003065     0.199333362    -0.188519624
   43     4.946039956    17.112767205    35.284084735    -0.423707165     0.200063677    -0.174490010
   44     9.886435164    14.112108594    34.567423568    -0.435913741     0.185301068    -0.160133458
   45     5.225865974    19.628816043    34.743248820    -0.412621268     0.210395384    -0.188354644
   46     8.317892384    11.307319684    32.042990165    -0.446342583     0.181076369    -0.134125491
   47     7.742356414    11.877053423    39.607754894    -0.413684523     0.210343970    -0.186065927
   48    10.947271520    13.533903291    30.528856986    -0.407228558     0.228121699    -0.179235578
   49     4.186737958    15.386061898    31.618751814     0.417640827    -0.182830717     0.205302383
   50     7.341497982    19.460148234    36.739805725    -0.402004226     0.217786808    -0.202389497
   51    10.618468086    15.893760612    30.668190610    -0.418386229     0.196474679    -0.190658502
   52    10.325920656    19.656142370    31.369369238    -0.401981926     0.213054595    -0.207408463
   53     9.595147319    14.336303989    39.292382045    -0.406724563     0.224334291    -0.185065545
   54     5.754259551    12.443013277    39.603799783    -0.403593760     0.243560710    -0.166704103
   55     4.200482697    20.111322504    32.505206318    -0.403642797     0.221497845    -0.194964604
   56     7.311624230    14.103944155    39.469259030    -0.414063182     0.212092895    -0.183216498
   57     6.201290749    16.030111859    37.099027686    -0.416399011     0.207670800    -0.182988258
   58     5.074251094    10.318243674    36.889357358    -0.405097361     0.225851218    -0.186781571
   59     6.725981135    11.797273448    37.604471070    -0.411470469     0.218945478    -0.180983235
   60     9.831287054    16.476588608    38.850092319    -0.407450977     0.219101002    -0.189679868
   61     9.996164358    11.850084943    39.753502145    -0.422904997     0.205888352    -0.169591717
   62     9.827933554    17.365995404    32.187664213    -0.420465533     0.198307038    -0.184073503
   63     3.090512857    17.899626922    39.381500171    -0.399652459     0.227030708    -0.196812017
   64     4.430472341    19.221319076    30.448319010    -0.406213514     0.212115062    -0.199994454
   65     5.557418051    13.947942992    33.295271581    -0.376313778     0.267365663    -0.192102948
   66     1.955727626    16.829690443    37.888627528    -0.396246290     0.231670577    -0.198286715
   67     8.786711093    12.858594502    38.000423632    -0.413230728     0.221690165    -0.173475751
   68     1.949751899    12.389080612    35.099791565    -0.471083661     0.150964642    -0.072731434
   21    12.843614300    16.602390669    34.166294310     0.412105388    -0.204648608     0.195673443
   22    20.175919970    11.986013124    36.206221030    -0.457601459     0.168433740    -0.110593761
   23    20.059993552    19.513338836    37.071060661    -0.408535840     0.217792239    -0.188851815
   24    15.006784126    14.401052484    37.899172082    -0.417425757     0.201962757    -0.186994070
   25    16.285442936    10.644902766    31.184188153    -0.402154706     0.222950802    -0.196378544
   26    12.844668893    11.227280649    37.721333360    -0.104161319    -0.382419542     0.304804386
   27    11.509292070    13.227539126    33.009536785    -0.417059998     0.213840702    -0.174164039
   28    18.502452788    15.666352873    31.278815650    -0.423272208     0.198139606    -0.177711381
   29    19.215082609    18.319165776    35.358330476    -0.400694828     0.224627002    -0.197449651
   30    17.985049339    19.232827156    32.055375750    -0.413602457     0.217031267    -0.178410865
   31    16.497418400    20.196577849    39.069766965    -0.407015278     0.227541886    -0.180452912
   32    18.624293289    10.847565085    38.298695467    -0.405826194     0.227075307    -0.183689699
   33    11.687516620    18.221891673    35.700912852    -0.408287290     0.224998787    -0.180767903
   34    21.284820591    13.206657634    38.419145327    -0.483323359    -0.104661572     0.073786760
   35    18.657109803    17.808301900    30.595357826    -0.415938371     0.212773870    -0.178108258
   36    18.170878172    12.795061775    35.929428534    -0.449361344     0.175425956    -0.131529909
   37    18.676437533    15.407941660    37.866139793    -0.410127636     0.214426488    -0.189252750
   38    16.761485722    16.325148431    34.565278539    -0.426841827     0.197153519    -0.170107450
   39    18.947992423    16.020489145    33.990804530    -0.434201112     0.184688681    -0.165407030
   40    13.714402855    19.039244892    36.537769430    -0.407148364     0.223434507    -0.185222112
   41    17.213774899    12.231149456    33.978746543    -0.448440096     0.174521897    -0.135807172
   42    11.497885178    18.672736922    33.427780593    -0.418006180     0.199330201    -0.188516059
   43    15.035695905    17.257427416    35.572171604    -0.423714822     0.200043640    -0.174494389
   44    19.976091114    14.256768805    34.855510438    -0.435920003     0.185278478    -0.160142551
   45    15.315521923    19.773476255    35.031335690    -0.412629130     0.210380034    -0.188354567
   46    18.407548334    11.451979896    32.331077034    -0.446347108     0.181043596    -0.134154669
   47    17.832012364    12.021713635    39.895841764    -0.413687298     0.210322828    -0.186083657
   48    21.036927470    13.678563502    30.816943855    -0.407237204     0.228101426    -0.179241733
   49    14.276393908    15.530722109    31.906838683     0.417606960    -0.182661856     0.205521467
   50    17.431153932    19.604808445    37.027892594    -0.402014232     0.217769003    -0.202388781
   51    20.708124035    16.038420824    30.956277480    -0.418393903     0.196455819    -0.190661096
   52    20.415576605    19.800802581    31.657456108    -0.401989614     0.213038393    -0.207410205
   53    19.684803269    14.480964201    39.580468914    -0.406727670     0.224325807    -0.185069001
   54    15.843915501    12.587673489    39.891886653    -0.403596392     0.243541870    -0.166725252
   55    14.290138647    20.255982716    32.793293187    -0.403651196     0.221485935    -0.194960747
   56    17.401280180    14.248604367    39.757345900    -0.414066530     0.212074572    -0.183230142
   57    16.290946698    16.174772071    37.387114556    -0.416404415     0.207653850    -0.182995197
   58    15.163907044    10.462903886    37.177444227    -0.405100891     0.225827299    -0.186802835
   59    16.815637085    11.941933660    37.892557939    -0.411474066     0.218922726    -0.181002577
   60    19.920943004    16.621248820    39.138179189    -0.407454599     0.219091272    -0.189683326
   61    20.085820308    11.994745154    40.041589015    -0.422906813     0.205866489    -0.169613727
   62    19.917589503    17.510655616    32.475751082    -0.420473707     0.198287997    -0.184075343
   63    13.180168807    18.044287134    39.669587040    -0.399655371     0.227023904    -0.196813952
   64    14.520128291    19.365979288    30.736405879    -0.406221356     0.212104852    -0.199989353
   65    15.647074001    14.092603204    33.583358450    -0.375549472     0.267984718    -0.192735012
   66    12.045383576    16.974350654    38.176714398    -0.396250361     0.231661131    -0.198289616
   67    18.876367043    13.003254713    38.288510502    -0.413235198     0.221672966    -0.173487081
   68    12.039407849    12.533740823    35.387878435    -0.471070584     0.151045082    -0.072649074
   21    22.933270250    16.747050881    34.454381179     0.412116900    -0.204628959     0.195669747
   22    30.265575920    12.130673336    36.494307900    -0.457610196     0.168400798    -0.110607773
   23    30.149649502    19.657999047    37.359147531    -0.408530587     0.217785313    -0.188871165
   24    25.096440076    14.545712695    38.187258951    -0.417426365     0.201962841    -0.186992622
   25    26.375098886    10.789562978    31.472275022    -0.402155664     0.222942163    -0.196386388
   26    22.934324843    11.371940861    38.009420230    -0.104267173    -0.382546066     0.304609363
   27    21.598948020    13.372199338    33.297623655    -0.417064572     0.213838112    -0.174156264
   28    28.592108738    15.811013085    31.566902519    -0.423267130     0.198132950    -0.177730893
   29    29.304738559    18.463825988    35.646417345    -0.400687431     0.224619204    -0.197473532
   30    28.074705289    19.377487368    32.343462619    -0.413597919     0.217023970    -0.178430259
   31    26.587074350    20.341238060    39.357853835    -0.407011297     0.227545116    -0.180457819
   32    28.713949239    10.992225297    38.586782337    -0.405827806     0.227075533    -0.183685857
   33    21.777172570    18.366551885    35.988999722    -0.408293099     0.224985794    -0.180770953
   34    31.374476541    13.351317846    38.707232197    -0.483313207    -0.104754151     0.073721857
   35    28.746765753    17.952962111    30.883444696    -0.415933248     0.212767762    -0.178127519
   36    28.260534121    12.939721987    36.217515403    -0.449368532     0.175400396    -0.131539438
   37    28.766093482    15.552601872    38.154226662    -0.410125513     0.214435022    -0.189247681
   38    26.851141672    16.469808643    34.853365409    -0.426840881     0.197149957    -0.170113954
   39    29.037648373    16.165149356    34.278891399    -0.434200555     0.184679922    -0.165418271
   40    23.804058805    19.183905104    36.825856300    -0.407149513     0.223427893    -0.185227565
   41    27.303430848    12.375809668    34.266833413    -0.448448231     0.174495931    -0.135813675
   42    21.587541128    18.817397134    33.715867463    -0.418014514     0.199311883    -0.188516948
   43    25.125351855    17.402087628    35.860258474    -0.423714439     0.200039840    -0.174499674
   44    30.065747063    14.401429017    35.143597308    -0.435922244     0.185263978    -0.160153225
   45    25.405177873    19.918136467    35.319422559    -0.412628194     0.210376153    -0.188360951
   46    28.497204284    11.596640107    32.619163904    -0.446353762     0.181022216    -0.134161383
   47    27.921668314    12.166373847    40.183928634    -0.413689222     0.210326003    -0.186075791
   48    31.126583420    13.823223714    31.105030725    -0.407237440     0.228088418    -0.179257749
   49    24.366049857    15.675382321    32.194925553     0.417728421    -0.182602825     0.205326994
   50    27.520809882    19.749468657    37.315979464    -0.402009586     0.217772889    -0.202393828
   51    30.797779985    16.183081035    31.244364349    -0.418388224     0.196450499    -0.190679038
   52    30.505232555    19.945462793    31.945542978    -0.401983630     0.213034541    -0.207425760
   53    29.774459219    14.625624412    39.868555784    -0.406726986     0.224334592    -0.185059855
   54    25.933571451    12.732333700    40.179973523    -0.403601129     0.243542672    -0.166712612
   55    24.379794596    20.400642928    33.081380057    -0.403649296     0.221479963    -0.194971465
   56    27.490936130    14.393264578    40.045432770    -0.414068621     0.212077892    -0.183221573
   57    26.380602648    16.319432282    37.675201426    -0.416404278     0.207654611    -0.182994645
   58    25.253562993    10.607564098    37.465531097    -0.405103908     0.225825797    -0.186798108
   59    26.905293034    12.086593872    38.180644809    -0.411476848     0.218920648    -0.180998768
   60    30.010598954    16.765909032    39.426266058    -0.407451007     0.219103615    -0.189676784
   61    30.175476258    12.139405366    40.329675884    -0.422908130     0.205869733    -0.169606505
   62    30.007245453    17.655315828    32.763837952    -0.420468955     0.198282971    -0.184091612
   63    23.269824757    18.188947345    39.957673910    -0.399657933     0.227017591    -0.196816031
   64    24.609784241    19.510639499    31.024492749    -0.406219832     0.212097549    -0.200000195
   65    25.736729950    14.237263415    33.871445320    -0.376326875     0.267419870    -0.192001813
   66    22.135039526    17.119010866    38.464801267    -0.396253915     0.231652786    -0.198292262
   67    28.966022993    13.147914925    38.576597372    -0.413236686     0.221676037    -0.173479613
   68    22.129063799    12.678401035    35.675965304    -0.471081522     0.150969218    -0.072735787
   21    33.022926200    16.891711093    34.742468049     0.412096048    -0.204650457     0.195691178
   22    40.355231870    12.275333547    36.782394769    -0.457601504     0.168437468    -0.110587897
   23    40.239305452    19.802659259    37.647234400    -0.408519488     0.217826823    -0.188847300
   24    35.186096025    14.690372907    38.475345821    -0.417419292     0.201980793    -0.186989020
   25    36.464754835    10.934223190    31.760361892    -0.402149075     0.222957486    -0.196382485
   26    33.023980792    11.516601072    38.297507099    -0.104222404    -0.382677135     0.304460015
   27    31.688603970    13.516859550    33.585710525    -0.417069138     0.213820433    -0.174167038
   28    38.681764687    15.955673297    31.854989389    -0.423262320     0.198151362    -0.177721822
   29    39.394394509    18.608486199    35.934504215    -0.400676845     0.224660624    -0.197447891
   30    38.164361238    19.522147580    32.631549489    -0.413590252     0.217044715    -0.178422800
   31    36.676730300    20.485898272    39.645940704    -0.407001029     0.227575935    -0.180442114
   32    38.803605188    11.136885509    38.874869207    -0.405819027     0.227097226    -0.183678436
   33    31.866828520    18.511212096    36.277086591    -0.408283969     0.224996977    -0.180777655
   34    41.464132491    13.495978057    38.995319066    -0.483315302    -0.104712006     0.073767976
   35    38.836421703    18.097622323    31.171531566    -0.415926886     0.212786877    -0.178119539
   36    38.350190071    13.084382199    36.505602273    -0.449359598     0.175433417    -0.131525920
   37    38.855749432    15.697262083    38.442313532    -0.410120022     0.214448578    -0.189244221
   38    36.940797622    16.614468854    35.141452278    -0.426833433     0.197168268    -0.170111418
   39    39.127304322    16.309809568    34.566978269    -0.434193467     0.184700201    -0.165414234
   40    33.893714755    19.328565316    37.113943170    -0.407138541     0.223446809    -0.185228864
   41    37.393086798    12.520469880    34.554920282    -0.448438989     0.174528392    -0.135802479
   42    31.677197078    18.962057346    34.003954333    -0.418006731     0.199313896    -0.188532076
   43    35.215007805    17.546747840    36.148345344    -0.423706182     0.200058401    -0.174498447
   44    40.155403013    14.546089229    35.431684177    -0.435914323     0.185286539    -0.160148685
   45    35.494833823    20.062796678    35.607509429    -0.412618125     0.210398020    -0.188358582
   46    38.586860233    11.741300319    32.907250774    -0.446343909     0.181052854    -0.134152818
   47    38.011324263    12.311034058    40.472015503    -0.413679370     0.210348333    -0.186072452
   48    41.216239369    13.967883926    31.393117595    -0.407227123     0.228111823    -0.179251407
   49    34.455705807    15.820042533    32.483012422     0.417365832    -0.182961298     0.205744807
   50    37.610465831    19.894128869    37.604066334    -0.401998037     0.217804730    -0.202382503
   51    40.887435935    16.327741247    31.532451219    -0.418383057     0.196469609    -0.190670686
   52    40.594888505    20.090123005    32.233629847    -0.401975987     0.213052182    -0.207422453
   53    39.864115169    14.770284624    40.156642654    -0.406719260     0.224349938    -0.185058231
   54    36.023227400    12.876993912    40.468060392    -0.403588951     0.243565679    -0.166708483
   55    34.469450546    20.545303139    33.369466926    -0.403639040     0.221493617    -0.194977185
   56    37.580592079    14.537924790    40.333519639    -0.414059133     0.212098733    -0.183218889
   57    36.470258598    16.464092494    37.963288295    -0.416397408     0.207671173    -0.182991482
   58    35.343218943    10.752224309    37.753617967    -0.405094872     0.225848771    -0.186789928
   59    36.994948984    12.231254083    38.468731679    -0.411467812     0.218943946    -0.180991129
   60    40.100254903    16.910569243    39.714352928    -0.407446018     0.219113449    -0.189676143
   61    40.265132207    12.284065578    40.617762754    -0.422898451     0.205892527    -0.169602970
   62    40.096901403    17.799976039    33.051924822    -0.420463386     0.198303614    -0.184082094
   63    33.359480706    18.333607557    40.245760779    -0.399650220     0.227035936    -0.196810533
   64    34.699440191    19.655299711    31.312579619    -0.406210058     0.212108333    -0.200008610
   65    35.826385900    14.381923627    34.159532189    -0.376239492     0.267507224    -0.192051371
   66    32.224695476    17.263671078    38.752888137    -0.396246796     0.231668640    -0.198287967
   67    39.055678942    13.292575137    38.864684241    -0.413227523     0.221696644    -0.173475106
   68    32.218719749    12.823061247    35.964052174    -0.471092031     0.150925494    -0.072758459
   21     2.889033821    26.482823979    33.908832864     0.412106622    -0.204644404     0.195675240
   22    10.221339492    21.866446433    35.948759584    -0.457599232     0.168466924    -0.110552426
   23    10.105413073    29.393772145    36.813599215    -0.408524722     0.217815256    -0.188849320
   24     5.052203647    24.281485793    37.641710636    -0.417425115     0.201968950    -0.186988813
   25     6.330862457    20.525336076    30.926726707    -0.402155466     0.222955674    -0.196371456
   26     2.890088414    21.107713958    37.463871914    -0.104155316    -0.382454332     0.304762784
   27     1.554711591    23.107972436    32.752075339    -0.417060130     0.213822769    -0.174185737
   28     8.547872309    25.546786183    31.021354203    -0.423265861     0.198155054    -0.177709273
   29     9.260502130    28.199599085    35.100869030    -0.400682939     0.224648944    -0.197448814
   30     8.030468860    29.113260466    31.797914304    -0.413594320     0.217048194    -0.178409135
   31     6.542837922    30.077011158    38.812305519    -0.407006351     0.227555806    -0.180455494
   32     8.669712810    20.727998395    38.041234021    -0.405822730     0.227087973    -0.183681693
   33     1.732936142    28.102324982    35.443451406    -0.408282010     0.225006338    -0.180770430
   34    11.330240113    23.087090943    38.161683881    -0.483317427    -0.104609961     0.073898719
   35     8.702529324    27.688735209    30.337896380    -0.415932245     0.212789247    -0.178104194
   36     8.216297693    22.675495085    35.671967088    -0.449361200     0.175449775    -0.131498625
   37     8.721857054    25.288374970    37.608678347    -0.410124774     0.214435478    -0.189248766
   38     6.806905244    26.205581740    34.307817093    -0.426837508     0.197165793    -0.170104061
   39     8.993411944    25.900922454    33.733343084    -0.434196553     0.184704068    -0.165401815
   40     3.759822376    28.919678202    36.280307984    -0.407141083     0.223446641    -0.185223480
   41     7.259194420    22.111582766    33.721285097    -0.448442160     0.174542099    -0.135774390
   42     1.543304699    28.553170232    33.170319147    -0.418002792     0.199331270    -0.188522442
   43     5.081115427    27.137860726    35.314710158    -0.423710784     0.200054313    -0.174491958
   44    10.021510635    24.137202115    34.598048992    -0.435916190     0.185293557    -0.160135483
   45     5.360941445    29.653909564    34.773874244    -0.412622204     0.210391003    -0.188357486
   46     8.452967855    21.332413205    32.073615588    -0.446347627     0.181063224    -0.134126450
   47     7.877431885    21.902146944    39.638380318    -0.413685206     0.210334639    -0.186074959
   48    11.082346991    23.558996812    30.559482409    -0.407232872     0.228110524    -0.179239999
   49     4.321813429    25.411155419    31.649377237     0.417808171    -0.182368052     0.205373381
   50     7.476573453    29.485241755    36.770431148    -0.402004326     0.217783826    -0.202392507
   51    10.753543557    25.918854133    30.698816034    -0.418388076     0.196471493    -0.190657731
   52    10.460996127    29.681235891    31.399994662    -0.401978834     0.213057019    -0.207411965
   53     9.730222790    24.361397510    39.323007468    -0.406725584     0.224331769    -0.185066358
   54     5.889335022    22.468106798    39.634425207    -0.403596327     0.243548864    -0.166715193
   55     4.335558168    30.136416025    32.535831741    -0.403642523     0.221495094    -0.194968298
   56     7.446699701    24.129037676    39.499884454    -0.414065536     0.212083084    -0.183222536
   57     6.336366220    26.055205380    37.129653110    -0.416402866     0.207660963    -0.182990648
   58     5.209326565    20.343337195    36.919982781    -0.405098646     0.225837932    -0.186794849
   59     6.861056606    21.822366969    37.635096493    -0.411471999     0.218934178    -0.180993424
   60     9.966362525    26.501682129    38.880717742    -0.407451444     0.219101264    -0.189678563
   61    10.131239829    21.875178464    39.784127569    -0.422905413     0.205878615    -0.169602498
   62     9.963009025    27.391088925    32.218289636    -0.420466816     0.198304650    -0.184073145
   63     3.225588328    27.924720443    39.412125594    -0.399645364     0.227037800    -0.196818242
   64     4.565547812    29.246412597    30.478944433    -0.406212887     0.212112563    -0.199998377
   65     5.692493522    23.973036513    33.325897004    -0.376311306     0.267743253    -0.191581187
   66     2.090803098    26.854783964    37.919252952    -0.396240441     0.231674665    -0.198293627
   67     8.921786564    22.883688023    38.031049056    -0.413232282     0.221683897    -0.173480060
   68     2.084827370    22.414174133    35.130416989    -0.471068841     0.151039961    -0.072671017
   21    12.978689771    26.627484190    34.196919733     0.412102415    -0.204656709     0.195671231
   22    20.310995441    22.011106645    36.236846454    -0.457606165     0.168434764    -0.110572728
   23    20.195069023    29.538432357    37.101686085    -0.408533497     0.217787964    -0.188861814
   24    15.141859597    24.426146005    37.929797505    -0.417427590     0.201962454    -0.186990306
   25    16.420518407    20.669996287    31.214813576    -0.402161378     0.222944850    -0.196371636
   26    12.979744364    21.252374170    37.751958784    -0.104142453    -0.382456020     0.304765060
   27    11.644367541    23.252632647    33.040162209    -0.417061907     0.213837619    -0.174163251
   28    18.637528259    25.691446394    31.309441073    -0.423273162     0.198136710    -0.177712337
   29    19.350158080    28.344259297    35.388955899    -0.400691565     0.224621976    -0.197461989
   30    18.120124810    29.257920677    32.086001173    -0.413601336     0.217033512    -0.178410732
   31    16.632493871    30.221671370    39.100392389    -0.407009697     0.227547860    -0.180457966
   32    18.759368760    20.872658606    38.329320891    -0.405832298     0.227071005    -0.183681530
   33    11.822592091    28.246985194    35.731538276    -0.408285518     0.225002614    -0.180767141
   34    21.419896063    23.231751155    38.449770751    -0.483325702    -0.104633875     0.073810692
   35    18.792185274    27.833395421    30.625983250    -0.415938908     0.212772214    -0.178108983
   36    18.305953643    22.820155296    35.960053957    -0.449367709     0.175422361    -0.131512956
   37    18.811513004    25.433035181    37.896765216    -0.410130165     0.214424259    -0.189249795
   38    16.896561194    26.350241952    34.595903963    -0.426840053     0.197158118    -0.170106571
   39    19.083067894    26.045582666    34.021429953    -0.434202446     0.184687278    -0.165405094
   40    13.849478326    29.064338413    36.568394854    -0.407144087     0.223441737    -0.185222793
   41    17.348850370    22.256242977    34.009371967    -0.448447999     0.174516263    -0.135788314
   42    11.632960649    28.697830443    33.458406017    -0.418006610     0.199330489    -0.188514801
   43    15.170771376    27.282520937    35.602797028    -0.423712607     0.200048846    -0.174493798
   44    20.111166585    24.281862326    34.886135862    -0.435923583     0.185273226    -0.160138881
   45    15.450597394    29.798569776    35.061961113    -0.412623939     0.210388156    -0.188356866
   46    18.542623805    21.477073417    32.361702458    -0.446353582     0.181039736    -0.134138339
   47    17.967087835    22.046807156    39.926467187    -0.413692225     0.210320065    -0.186075825
   48    21.172002941    23.703657023    30.847569279    -0.407242395     0.228092695    -0.179241049
   49    14.411469379    25.555815631    31.937464107     0.417622498    -0.182817392     0.205351529
   50    17.566229403    29.629901966    37.058518018    -0.402007232     0.217777424    -0.202393624
   51    20.843199506    26.063514345    30.986902903    -0.418394955     0.196452706    -0.190661993
   52    20.550652076    29.825896102    31.688081532    -0.401987235     0.213043669    -0.207409398
   53    19.819878740    24.506057722    39.611094338    -0.406731432     0.224321794    -0.185065597
   54    15.978990972    22.612767010    39.922512077    -0.403603357     0.243539566    -0.166711757
   55    14.425214118    30.281076237    32.823918611    -0.403643892     0.221496266    -0.194964131
   56    17.536355651    24.273697888    39.787971324    -0.414071737     0.212071851    -0.183221525
   57    16.426022169    26.199865592    37.417739980    -0.416405385     0.207654263    -0.182992520
   58    15.298982515    20.487997407    37.208069651    -0.405107093     0.225821857    -0.186795963
   59    16.950712556    21.967027181    37.923183363    -0.411479909     0.218918205    -0.180994762
   60    20.056018475    26.646342341    39.168804612    -0.407456659     0.219089338    -0.189681135
   61    20.220895779    22.019838675    40.072214438    -0.422910784     0.205865273    -0.169605301
   62    20.052664974    27.535749137    32.506376506    -0.420474309     0.198285913    -0.184076214
   63    13.315244278    28.069380655    39.700212464    -0.399653162     0.227028388    -0.196813265
   64    14.655203762    29.391072809    30.767031303    -0.406214555     0.212114506    -0.199992929
   65    15.782149472    24.117696725    33.613983874    -0.376412717     0.267297792    -0.192003533
   66    12.180459047    26.999444175    38.207339821    -0.396248540     0.231664224    -0.198289641
   67    19.011442514    23.028348234    38.319135926    -0.413239952     0.221670002    -0.173479543
   68    12.174483320    22.558834344    35.418503858    -0.471076830     0.151011651    -0.072678069
   21    23.068345721    26.772144402    34.485006603     0.412115812    -0.204628079     0.195672959
   22    30.400651391    22.155766857    36.524933323    -0.457617634     0.168352994    -0.110649766
   23    30.284724973    29.683092568    37.389772954    -0.408532825     0.217800463    -0.188848854
   24    25.231515547    24.570806216    38.217884375    -0.417427632     0.201960813    -0.186991983
   25    26.510174357    20.814656499    31.502900446    -0.402156149     0.222941275    -0.196386404
   26    23.069400314    21.397034382    38.040045653    -0.104310421    -0.382512689     0.304636470
   27    21.734023491    23.397292859    33.328249078    -0.417074427     0.213816458    -0.174159251
   28    28.727184209    25.836106606    31.597527943    -0.423268689     0.198131909    -0.177728343
   29    29.439814030    28.488919509    35.677042769    -0.400693380     0.224630571    -0.197448529
   30    28.209780760    29.402580889    32.374088043    -0.413599085     0.217028039    -0.178422609
   31    26.722149821    30.366331581    39.388479258    -0.407014086     0.227554090    -0.180440211
   32    28.849024710    21.017318818    38.617407761    -0.405827387     0.227073728    -0.183689014
   33    21.912248041    28.391645406    36.019625145    -0.408292917     0.224986071    -0.180771021
   34    31.509552012    23.376411367    38.737857620    -0.483310789    -0.104888448     0.073546546
   35    28.881841224    27.978055632    30.914070120    -0.415935070     0.212767982    -0.178123000
   36    28.395609592    22.964815508    36.248140827    -0.449371471     0.175376062    -0.131561839
   37    28.901168954    25.577695393    38.184852086    -0.410126939     0.214433735    -0.189246050
   38    26.986217143    26.494902164    34.883990832    -0.426842493     0.197149198    -0.170110787
   39    29.172723844    26.190242877    34.309516823    -0.434201925     0.184679701    -0.165414921
   40    23.939134276    29.208998625    36.856481724    -0.407149033     0.223431510    -0.185224257
   41    27.438506319    22.400903189    34.297458836    -0.448450332     0.174478148    -0.135829581
   42    21.722616599    28.842490655    33.746492887    -0.418014446     0.199309883    -0.188519213
   43    25.260427326    27.427181149    35.890883898    -0.423715657     0.200040567    -0.174495883
   44    30.200822534    24.426522538    35.174222731    -0.435923674     0.185263277    -0.160150145
   45    25.540253344    29.943229988    35.350047983    -0.412628789     0.210381402    -0.188353785
   46    28.632279755    21.621733629    32.649789328    -0.446355676     0.181009147    -0.134172646
   47    28.056743785    22.191467368    40.214554057    -0.413686915     0.210326175    -0.186080727
   48    31.261658891    23.848317235    31.135656149    -0.407236960     0.228083152    -0.179265541
   49    24.501125328    25.700475842    32.225550976     0.417740069    -0.182518490     0.205378275
   50    27.655885353    29.774562178    37.346604888    -0.402013359     0.217779872    -0.202378820
   51    30.932855456    26.208174556    31.274989773    -0.418390428     0.196450723    -0.190673971
   52    30.640308026    29.970556314    31.976168401    -0.401985532     0.213035698    -0.207420885
   53    29.909534690    24.650717933    39.899181208    -0.406727082     0.224338458    -0.185054957
   54    26.068646922    22.757427221    40.210598946    -0.403598151     0.243544303    -0.166717441
   55    24.514870068    30.425736449    33.112005480    -0.403649082     0.221483703    -0.194967659
   56    27.626011601    24.418358099    40.076058193    -0.414067485     0.212078417    -0.183223533
   57    26.515678119    26.344525803    37.705826849    -0.416405479     0.207653360    -0.182993331
   58    25.388638464    20.632657619    37.496156521    -0.405103972     0.225823820    -0.186800360
   59    27.040368505    22.111687393    38.211270233    -0.411477092     0.218917806    -0.181001649
   60    30.145674425    26.791002553    39.456891482    -0.407451462     0.219102166    -0.189677481
   61    30.310551729    22.164498887    40.360301308    -0.422904611     0.205868083    -0.169617281
   62    30.142320924    27.680409349    32.794463376    -0.420471812     0.198284003    -0.184083975
   63    23.404900228    28.214040866    39.988299333    -0.399659155     0.227016628    -0.196814659
   64    24.744859712    29.535733020    31.055118173    -0.406219430     0.212100552    -0.199997827
   65    25.871805421    24.262356936    33.902070743    -0.376384344     0.267367784    -0.191961698
   66    22.270114997    27.144104387    38.495426691    -0.396255579     0.231650649    -0.198291435
   67    29.101098464    23.173008446    38.607222795    -0.413236780     0.221676904    -0.173478280
   68    22.264139270    22.703494556    35.706590728    -0.471083259     0.150975492    -0.072711511
   21    33.158001671    26.916804614    34.773093473     0.412108914    -0.204631376     0.195684039
   22    40.490307341    22.300427068    36.813020193    -0.457592468     0.168485923    -0.110551466
   23    40.374380923    29.827752780    37.677859824    -0.408518314     0.217825511    -0.188851355
   24    35.321171496    24.715466428    38.505971244    -0.417415987     0.201984889    -0.186991975
   25    36.599830306    20.959316711    31.790987315    -0.402148682     0.222951753    -0.196389800
   26    33.159056263    21.541694593    38.328132523    -0.104228840    -0.382928187     0.304141994
   27    31.823679441    23.541953071    33.616335948    -0.417067419     0.213841545    -0.174145232
   28    38.816840158    25.980766818    31.885614812    -0.423260931     0.198151387    -0.177725103
   29    39.529469980    28.633579720    35.965129638    -0.400676400     0.224657785    -0.197452025
   30    38.299436709    29.547241101    32.662174913    -0.413590375     0.217049402    -0.178416810
   31    36.811805771    30.510991793    39.676566128    -0.406998574     0.227569905    -0.180455255
   32    38.938680660    21.161979030    38.905494630    -0.405816286     0.227104780    -0.183675150
   33    32.001903991    28.536305617    36.307712015    -0.408285456     0.224997755    -0.180773330
   34    41.599207962    23.521071578    39.025944490    -0.483325116    -0.104560354     0.073918634
   35    38.971497174    28.122715844    31.202156989    -0.415926656     0.212786830    -0.178120134
   36    38.485265542    23.109475720    36.536227697    -0.449355050     0.175461020    -0.131504636
   37    38.990824903    25.722355604    38.472938955    -0.410115688     0.214449989    -0.189252012
   38    37.075873093    26.639562375    35.172077702    -0.426831343     0.197172179    -0.170112129
   39    39.262379794    26.334903089    34.597603692    -0.434191415     0.184704057    -0.165415314
   40    34.028790226    29.353658837    37.144568593    -0.407138299     0.223448562    -0.185227282
   41    37.528162269    22.545563401    34.585545706    -0.448435916     0.174549475    -0.135785529
   42    31.812272549    28.987150867    34.034579756    -0.418010668     0.199313580    -0.188523680
   43    35.350083276    27.571841361    36.178970767    -0.423704384     0.200062128    -0.174498538
   44    40.290478484    24.571182750    35.462309601    -0.435911443     0.185292172    -0.160150008
   45    35.629909294    30.087890199    35.638134852    -0.412617153     0.210398905    -0.188359725
   46    38.721935704    21.766393840    32.937876197    -0.446341628     0.181068190    -0.134139709
   47    38.146399734    22.336127579    40.502640927    -0.413678215     0.210353080    -0.186069655
   48    41.351314841    23.992977447    31.423743018    -0.407227018     0.228105477    -0.179259720
   49    34.590781278    25.845136054    32.513637846     0.417681473    -0.182586196     0.205437261
   50    37.745541302    29.919222390    37.634691757    -0.401996097     0.217798583    -0.202392972
   51    41.022511406    26.352834768    31.563076642    -0.418382520     0.196468562    -0.190672944
   52    40.729963976    30.115216526    32.264255271    -0.401975262     0.213056543    -0.207419378
   53    39.999190640    24.795378145    40.187268077    -0.406715221     0.224347711    -0.185069807
   54    36.158302871    22.902087433    40.498685816    -0.403584987     0.243571974    -0.166708882
   55    34.604526017    30.570396660    33.400092350    -0.403638870     0.221500867    -0.194969301
   56    37.715667550    24.563018311    40.364145063    -0.414056818     0.212101838    -0.183220528
   57    36.605334069    26.489186015    37.993913719    -0.416394182     0.207674784    -0.182994723
   58    35.478294414    20.777317830    37.784243390    -0.405093572     0.225860663    -0.186778368
   59    37.130024455    22.256347604    38.499357102    -0.411466138     0.218953263    -0.180983663
   60    40.235330374    26.935662764    39.744978351    -0.407441083     0.219115872    -0.189683943
   61    40.400207679    22.309159099    40.648388178    -0.422897873     0.205898937    -0.169596629
   62    40.231976874    27.825069560    33.082550245    -0.420462282     0.198304592    -0.184083563
   63    33.494556177    28.358701078    40.276386203    -0.399647991     0.227036013    -0.196814969
   64    34.834515662    29.680393232    31.343205042    -0.406210361     0.212116227    -0.199999623
   65    35.961461371    24.407017148    34.190157613    -0.376153271     0.267660511    -0.192006687
   66    32.359770947    27.288764599    38.783513561    -0.396245931     0.231668795    -0.198289515
   67    39.190754413    23.317668658    38.895309665    -0.413223777     0.221699402    -0.173480505
   68    32.353795220    22.848154768    35.994677597    -0.471103955     0.150854006    -0.072829473
   21     3.024109292    36.507917500    33.939458287     0.412103385    -0.204660356     0.195665374
   22    10.356414963    31.891539954    35.979385008    -0.457592484     0.168496009    -0.110536026
   23    10.240488544    39.418865666    36.844224639    -0.408530039     0.217803039    -0.188851908
   24     5.187279118    34.306579314    37.672336059    -0.417422484     0.201974136    -0.186989086
   25     6.465937928    30.550429597    30.957352130    -0.402153240     0.222956682    -0.196374870
   26     3.025163885    31.132807479    37.494497338    -0.104148762    -0.382309395     0.304946818
   27     1.689787062    33.133065957    32.782700763    -0.417059532     0.213822731    -0.174187218
   28     8.682947780    35.571879704    31.051979627    -0.423265074     0.198159176    -0.177706551
   29     9.395577601    38.224692606    35.131494453    -0.400690466     0.224634554    -0.197449912
   30     8.165544331    39.138353987    31.828539727    -0.413594760     0.217045949    -0.178410847
   31     6.677913393    40.102104679    38.842930943    -0.407006007     0.227554129    -0.180458385
   32     8.804788281    30.753091916    38.071859445    -0.405822425     0.227087087    -0.183683463
   33     1.868011613    38.127418504    35.474076830    -0.408281019     0.225010413    -0.180767595
   34    11.465315584    33.112184464    38.192309305    -0.483324061    -0.104514786     0.073989944
   35     8.837604795    37.713828730    30.368521804    -0.415930866     0.212790313    -0.178106140
   36     8.351373164    32.700588606    35.702592511    -0.449355503     0.175468054    -0.131493703
   37     8.856932525    35.313468491    37.639303770    -0.410123606     0.214436004    -0.189250702
   38     6.941980715    36.230675261    34.338442517    -0.426834891     0.197171809    -0.170103655
   39     9.128487415    35.926015975    33.763968507    -0.434193930     0.184709780    -0.165402322
   40     3.894897847    38.944771723    36.310933408    -0.407139576     0.223449429    -0.185223427
   41     7.394269891    32.136676287    33.751910521    -0.448435756     0.174557543    -0.135775684
   42     1.678380170    38.578263753    33.200944571    -0.418003369     0.199336611    -0.188515514
   43     5.216190898    37.162954247    35.345335582    -0.423707979     0.200060576    -0.174491590
   44    10.156586106    34.162295636    34.628674415    -0.435912405     0.185301670    -0.160136398
   45     5.496016916    39.679003085    34.804499667    -0.412620313     0.210394676    -0.188357527
   46     8.588043326    31.357506726    32.104241012    -0.446341849     0.181075050    -0.134129712
   47     8.012507356    31.927240465    39.669005741    -0.413684322     0.210335992    -0.186075394
   48    11.217422462    33.584090333    30.590107833    -0.407231214     0.228123284    -0.179227525
   49     4.456888900    35.436248940    31.680002661     0.417759669    -0.182666665     0.205206598
   50     7.611648924    39.510335276    36.801056572    -0.402003028     0.217784443    -0.202394422
   51    10.888619028    35.943947654    30.729441457    -0.418387350     0.196473071    -0.190657698
   52    10.596071598    39.706329412    31.430620086    -0.401982434     0.213052202    -0.207409936
   53     9.865298261    34.386491031    39.353632892    -0.406723778     0.224329589    -0.185072969
   54     6.024410493    32.493200319    39.665050631    -0.403596826     0.243549230    -0.166713450
   55     4.470633639    40.161509546    32.566457165    -0.403640315     0.221500196    -0.194967072
   56     7.581775172    34.154131197    39.530509877    -0.414064037     0.212084322    -0.183224489
   57     6.471441691    36.080298901    37.160278534    -0.416400348     0.207665844    -0.182990840
   58     5.344402036    30.368430716    36.950608205    -0.405098558     0.225832558    -0.186801536
   59     6.996132077    31.847460490    37.665721917    -0.411471206     0.218933028    -0.180996619
   60    10.101437996    36.526775650    38.911343166    -0.407449699     0.219101234    -0.189682344
   61    10.266315300    31.900271985    39.814752992    -0.422905134     0.205881032    -0.169600260
   62    10.098084496    37.416182446    32.248915060    -0.420467556     0.198304722    -0.184071376
   63     3.360663799    37.949813964    39.442751018    -0.399645525     0.227036062    -0.196819919
   64     4.700623283    39.271506118    30.509569857    -0.406211179     0.212117652    -0.199996450
   65     5.827568993    33.998130034    33.356522428    -0.376062489     0.267672559    -0.192167650
   66     2.225878569    36.879877485    37.949878375    -0.396241162     0.231671857    -0.198295466
   67     9.056862035    32.908781544    38.061674480    -0.413230119     0.221684347    -0.173484637
   68     2.219902841    32.439267654    35.161042412    -0.471063689     0.151075290    -0.072630967
   21    13.113765242    36.652577711    34.227545157     0.412111641    -0.204643060     0.195666077
   22    20.446070912    32.036200166    36.267471877    -0.457615216     0.168384815    -0.110611340
   23    20.330144494    39.563525878    37.132311508    -0.408523979     0.217826889    -0.188837510
   24    15.276935068    34.451239526    37.960422929    -0.417424018     0.201974282    -0.186985503
   25    16.555593878    30.695089808    31.245439000    -0.402155293     0.222957799    -0.196369397
   26    13.114819835    31.277467691    37.782584207    -0.104297141    -0.382301393     0.304906135
   27    11.779443012    33.277726168    33.070787632    -0.417056501     0.213841807    -0.174171055
   28    18.772603730    35.716539915    31.340066497    -0.423264034     0.198163845    -0.177703822
   29    19.485233551    38.369352818    35.419581323    -0.400681607     0.224661582    -0.197437139
   30    18.255200281    39.283014198    32.116626597    -0.413593385     0.217052458    -0.178406115
   31    16.767569342    40.246764891    39.131017812    -0.407005400     0.227567511    -0.180442879
   32    18.894444231    30.897752128    38.359946314    -0.405827171     0.227075973    -0.183686717
   33    11.957667562    38.272078715    35.762163699    -0.408286902     0.225002791    -0.180763794
   34    21.554971534    33.256844676    38.480396174    -0.483312686    -0.104812925     0.073641690
   35    18.927260745    37.858488942    30.656608674    -0.415929496     0.212796402    -0.178102066
   36    18.441029114    32.845248818    35.990679381    -0.449369811     0.175401808    -0.131533185
   37    18.946588475    35.458128702    37.927390640    -0.410124689     0.214443104    -0.189240309
   38    17.031636665    36.375335473    34.626529386    -0.426836483     0.197172308    -0.170099083
   39    19.218143365    36.070676187    34.052055377    -0.434196154     0.184709490    -0.165396809
   40    13.984553797    39.089431934    36.599020277    -0.407142252     0.223449200    -0.185217822
   41    17.483925841    32.281336498    34.039997390    -0.448448957     0.174502132    -0.135803309
   42    11.768036120    38.722923965    33.489031441    -0.418009804     0.199325901    -0.188512571
   43    15.305846847    37.307614458    35.633422452    -0.423709824     0.200060713    -0.174486951
   44    20.246242056    34.306955847    34.916761285    -0.435916653     0.185297454    -0.160129712
   45    15.585672865    39.823663297    35.092586537    -0.412621939     0.210398338    -0.188349874
   46    18.677699276    31.502166938    32.392327882    -0.446354087     0.181030298    -0.134149397
   47    18.102163306    32.071900677    39.957092611    -0.413686175     0.210328218    -0.186080062
   48    21.307078412    33.728750544    30.878194703    -0.407232496     0.228120651    -0.179227963
   49    14.546544850    35.580909152    31.968089530     0.417789400    -0.182454953     0.205334380
   50    17.701304874    39.654995487    37.089143442    -0.402001867     0.217798469    -0.202381634
   51    20.978274977    36.088607866    31.017528327    -0.418385906     0.196479717    -0.190654017
   52    20.685727547    39.850989623    31.718706955    -0.401980576     0.213057064    -0.207408542
   53    19.954954211    34.531151243    39.641719762    -0.406725427     0.224342780    -0.185053355
   54    16.114066443    32.637860531    39.953137500    -0.403596405     0.243547926    -0.166716377
   55    14.560289589    40.306169758    32.854544034    -0.403644054     0.221498273    -0.194961516
   56    17.671431122    34.298791409    39.818596747    -0.414066248     0.212082372    -0.183221752
   57    16.561097640    36.224959113    37.448365403    -0.416401759     0.207667353    -0.182985915
   58    15.434057986    30.513090928    37.238695074    -0.405100895     0.225826759    -0.186803479
   59    17.085788027    31.992120702    37.953808787    -0.411474805     0.218923258    -0.181000255
   60    20.191093946    36.671435862    39.199430036    -0.407451485     0.219110386    -0.189667936
   61    20.355971250    32.044932196    40.102839862    -0.422904700     0.205870426    -0.169614216
   62    20.187740445    37.560842658    32.537001930    -0.420465874     0.198312506    -0.184066832
   63    13.450319749    38.094474176    39.730837887    -0.399652567     0.227034509    -0.196807413
   64    14.790279233    39.416166330    30.797656726    -0.406215459     0.212114440    -0.199991163
   65    15.917224943    34.142790246    33.644609297    -0.376212945     0.267553854    -0.192038421
   66    12.315534518    37.024537696    38.237965245    -0.396248293     0.231667507    -0.198286299
   67    19.146517985    33.053441755    38.349761349    -0.413234378     0.221683687    -0.173475335
   68    12.309558791    32.583927865    35.449129282    -0.471067784     0.151055256    -0.072646079
   21    23.203421192    36.797237923    34.515632027     0.412113099    -0.204650389     0.195655340
   22    30.535726862    32.180860378    36.555558747    -0.457602629     0.168442848    -0.110575048
   23    30.419800444    39.708186089    37.420398378    -0.408531938     0.217811831    -0.188837660
   24    25.366591018    34.595899737    38.248509798    -0.417429338     0.201969264    -0.186979047
   25    26.645249828    30.839750020    31.533525869    -0.402158108     0.222943221    -0.196380182
   26    23.204475785    31.422127903    38.070671077    -0.104113059    -0.382871253     0.304253307
   27    21.869098962    33.422386380    33.358874502    -0.417053387     0.213882965    -0.174127969
   28    28.862259680    35.861200127    31.628153366    -0.423272418     0.198149278    -0.177700095
   29    29.574889501    38.514013030    35.707668192    -0.400690922     0.224644665    -0.197437481
   30    28.344856231    39.427674410    32.404713467    -0.413600195     0.217043012    -0.178401821
   31    26.857225292    40.391425102    39.419104682    -0.407013413     0.227550748    -0.180445945
   32    28.984100181    31.042412339    38.648033184    -0.405830910     0.227080706    -0.183672604
   33    22.047323512    38.416738927    36.050250569    -0.408289127     0.225005628    -0.180755240
   34    31.644627483    33.401504888    38.768483044    -0.483324256    -0.104638802     0.073813174
   35    29.016916695    38.003149153    30.944695543    -0.415937427     0.212783190    -0.178099329
   36    28.530685063    32.989909029    36.278766251    -0.449364177     0.175430497    -0.131514172
   37    29.036244425    35.602788914    38.215477509    -0.410130703     0.214432381    -0.189239427
   38    27.121292614    36.519995685    34.914616256    -0.426842191     0.197162719    -0.170095874
   39    29.307799315    36.215336398    34.340142246    -0.434202035     0.184696980    -0.165395339
   40    24.074209747    39.234092146    36.887107147    -0.407148091     0.223444680    -0.185210441
   41    27.573581790    32.425996710    34.328084260    -0.448444659     0.174522690    -0.135791083
   42    21.857692070    38.867584176    33.777118310    -0.418008172     0.199335419    -0.188506125
   43    25.395502797    37.452274670    35.921509321    -0.423715742     0.200052152    -0.174482397
   44    30.335898005    34.451616059    35.204848155    -0.435922456     0.185283523    -0.160130035
   45    25.675328815    39.968323509    35.380673406    -0.412628270     0.210390075    -0.188345234
   46    28.767355226    31.646827150    32.680414751    -0.446349701     0.181045077    -0.134144044
   47    28.191819256    32.216560889    40.245179481    -0.413692684     0.210324946    -0.186069288
   48    31.396734362    33.873410756    31.166281572    -0.407239705     0.228108166    -0.179227474
   49    24.636200799    35.725569363    32.256176400     0.417745121    -0.182726267     0.205183150
   50    27.790960824    39.799655699    37.377230311    -0.402012343     0.217778830    -0.202381959
   51    31.067930927    36.233268077    31.305615196    -0.418394182     0.196464680    -0.190651352
   52    30.775383497    39.995649835    32.006793825    -0.401987689     0.213045843    -0.207406285
   53    30.044610161    34.675811454    39.929806631    -0.406731881     0.224328426    -0.185056570
   54    26.203722393    32.782520742    40.241224370    -0.403603816     0.243543565    -0.166704805
   55    24.649945539    40.450829970    33.142630904    -0.403646638     0.221498143    -0.194956315
   56    27.761087072    34.443451620    40.106683617    -0.414073115     0.212076641    -0.183212864
   57    26.650753590    36.369619324    37.736452273    -0.416407266     0.207660505    -0.182981156
   58    25.523713935    30.657751140    37.526781944    -0.405106456     0.225838723    -0.186776954
   59    27.175443976    32.136780914    38.241895656    -0.411479478     0.218929925    -0.180981566
   60    30.280749896    36.816096074    39.487516905    -0.407456716     0.219098601    -0.189670314
   61    30.445627200    32.189592408    40.390926731    -0.422911056     0.205869027    -0.169600066
   62    30.277396395    37.705502870    32.825088799    -0.420473277     0.198298589    -0.184064916
   63    23.539975699    38.239134387    40.018924757    -0.399658578     0.227027674    -0.196803091
   64    24.879935183    39.560826541    31.085743596    -0.406216927     0.212116100    -0.199986420
   65    26.006880893    34.287450457    33.932696167    -0.376380480     0.267654255    -0.191569660
   66    22.405190468    37.169197908    38.526052115    -0.396252576     0.231666789    -0.198278578
   67    29.236173935    33.198101967    38.637848219    -0.413238877     0.221677344    -0.173472723
   68    22.399214741    32.728588077    35.737216151    -0.471099305     0.150894191    -0.072776286
   21    33.293077142    36.941898135    34.803718896     0.412111350    -0.204648028     0.195661493
   22    40.625382812    32.325520589    36.843645616    -0.457589416     0.168510658    -0.110526395
   23    40.509456394    39.852846301    37.708485247    -0.408522886     0.217821885    -0.188845646
   24    35.456246967    34.740559949    38.536596668    -0.417415813     0.201984897    -0.186992354
   25    36.734905777    30.984410232    31.821612739    -0.402148730     0.222965183    -0.196374454
   26    33.294131734    31.566788114    38.358757946    -0.104281903    -0.382513591     0.304645100
   27    31.958754912    33.567046592    33.646961372    -0.417072320     0.213831923    -0.174145309
   28    38.951915629    36.005860339    31.916240236    -0.423262015     0.198158528    -0.177714560
   29    39.664545451    38.658673241    35.995755062    -0.400680897     0.224655967    -0.197444968
   30    38.434512180    39.572334622    32.692800336    -0.413592266     0.217052132    -0.178409108
   31    36.946881242    40.536085314    39.707191551    -0.407005251     0.227560430    -0.180452145
   32    39.073756131    31.187072551    38.936120054    -0.405814402     0.227099826    -0.183685438
   33    32.136979462    38.561399138    36.338337439    -0.408289940     0.225001403    -0.180758660
   34    41.734283433    33.546165099    39.056569913    -0.483327313    -0.104482819     0.074013844
   35    39.106572645    38.147809365    31.232782413    -0.415928145     0.212792800    -0.178109523
   36    38.620341013    33.134569241    36.566853120    -0.449353494     0.175477462    -0.131488014
   37    39.125900374    35.747449126    38.503564379    -0.410115695     0.214446590    -0.189255850
   38    37.210948564    36.664655896    35.202703125    -0.426832558     0.197175020    -0.170105787
   39    39.397455265    36.359996610    34.628229116    -0.434192107     0.184709659    -0.165407244
   40    34.163865697    39.378752358    37.175194017    -0.407144664     0.223446688    -0.185215551
   41    37.663237740    32.570656922    34.616171130    -0.448434031     0.174566341    -0.135770072
   42    31.947348020    39.012244388    34.065205180    -0.418012884     0.199325000    -0.188506693
   43    35.485158747    37.596934882    36.209596191    -0.423706340     0.200063957    -0.174491691
   44    40.425553955    34.596276271    35.492935024    -0.435911550     0.185298485    -0.160142413
   45    35.764984765    40.112983720    35.668760276    -0.412622672     0.210394685    -0.188352349
   46    38.857011175    31.791487361    32.968501621    -0.446339728     0.181083824    -0.134124926
   47    38.281475205    32.361221100    40.533266350    -0.413675598     0.210349863    -0.186079108
   48    41.486390312    34.018070968    31.454368442    -0.407227724     0.228116269    -0.179244384
   49    34.725856749    35.870229575    32.544263269     0.417710752    -0.182600182     0.205365286
   50    37.880616773    39.944315911    37.665317181    -0.402003686     0.217788951    -0.202388265
   51    41.157586877    36.377928289    31.593702066    -0.418384029     0.196475330    -0.190662656
   52    40.865039447    40.140310047    32.294880694    -0.401976915     0.213062093    -0.207410472
   53    40.134266111    34.820471666    40.217893501    -0.406714512     0.224341472    -0.185078929
   54    36.293378342    32.927180954    40.529311239    -0.403584088     0.243566289    -0.166719364
   55    34.739601488    40.595490181    33.430717773    -0.403644330     0.221497322    -0.194962026
   56    37.850743021    34.588111832    40.394770486    -0.414054480     0.212098922    -0.183229187
   57    36.740409540    36.514279536    38.024539142    -0.416394227     0.207675250    -0.182994093
   58    35.613369885    30.802411351    37.814868814    -0.405091453     0.225848799    -0.186797309
   59    37.265099926    32.281441125    38.529982526    -0.411463753     0.218947220    -0.180996395
   60    40.370405845    36.960756285    39.775603775    -0.407442236     0.219110621    -0.189687533
   61    40.535283150    32.334252620    40.679013601    -0.422896078     0.205896058    -0.169604601
   62    40.367052345    37.850163081    33.113175669    -0.420463198     0.198309787    -0.184075875
   63    33.629631649    38.383794599    40.307011627    -0.399655344     0.227029869    -0.196807126
   64    34.969591133    39.705486753    31.373830466    -0.406215583     0.212114409    -0.199990944
   65    36.096536842    34.432110669    34.220783037    -0.376099586     0.267739861    -0.192001219
   66    32.494846418    37.313858120    38.814138984    -0.396252504     0.231663845    -0.198282163
   67    39.325829884    33.342762179    38.925935088    -0.413222421     0.221695311    -0.173488961
   68    32.488870691    32.873248289    36.025303021    -0.471081010     0.150981553    -0.072713499
