CRYSTAL
PRIMVEC
    40.358642790     0.578641119     1.152348021
     0.540302138    40.100392953     0.122501752
     1.147485224     0.128543006    40.047960291
PRIMCOORD
 3072    1
   21     1.758269367     6.336229727     3.811625931    -0.413160171     0.205927666    -0.192074125
   22     9.090575037     1.719852182     5.851552651     0.458144138    -0.170020576     0.105815652
   23     8.974648619     9.247177894     6.716392283     0.410046244    -0.218731486     0.184441360
   24     3.921439192     4.134891542     7.544503703     0.418822209    -0.202800112     0.182920944
   25     5.200098002     0.378741824     0.829519774     0.403990598    -0.223482441     0.191956232
   26     1.759323959     0.961119707     7.366664982     0.091873175     0.392561160    -0.295728009
   27     0.423947137     2.961378184     2.654868407     0.417386665    -0.216301796     0.170299456
   28     7.417107854     5.400191931     0.924147271     0.424966355    -0.198649800     0.173037146
   29     8.129737675     8.053004834     5.003662097     0.402303957    -0.225519313     0.193112831
   30     6.899704405     8.966666214     1.700707371     0.415282158    -0.217449130     0.173944259
   31     5.412073467     9.930416906     8.715098586     0.408175279    -0.228950348     0.175996250
   32     7.538948355     0.581404143     7.944027089     0.407141310    -0.228041790     0.179535221
   33     0.602171687     7.955730731     5.346244474     0.409371944    -0.226106299     0.176891360
   34    10.199475658     2.940496692     8.064476948     0.483701596     0.098609915    -0.079428274
   35     7.571764870     7.542140958     0.240689448     0.417596925    -0.213296969     0.173543111
   36     7.085533238     2.528900833     5.574760155     0.450324739    -0.176386397     0.126867919
   37     7.591092599     5.141780718     7.511471414     0.411527226    -0.215185776     0.185311695
   38     5.676140789     6.058987489     4.210610160     0.428214989    -0.197827357     0.165819963
   39     7.862647489     5.754328203     3.636136151     0.435631214    -0.185281986     0.160922438
   40     2.629057922     8.773083950     6.183101052     0.408307574    -0.224620629     0.181191881
   41     6.128429965     1.964988514     3.624078165     0.449502320    -0.175339963     0.131162348
   42     0.412540245     8.406575980     3.073112215     0.418947183    -0.200720307     0.184917863
   43     3.950350972     6.991266474     5.217503226     0.425055834    -0.200837367     0.170270050
   44     8.890746180     3.990607863     4.500842059     0.437333739    -0.185881597     0.155522452
   45     4.230176990     9.507315313     4.676667311     0.413923406    -0.211563780     0.184141743
   46     7.322203400     1.185818954     1.976408656     0.447442985    -0.181717459     0.129512704
   47     6.746667430     1.755552693     9.541173385     0.414923609    -0.211270276     0.182217641
   48     9.951582536     3.412402560     0.462275477     0.409044373    -0.228754618     0.174224068
   49     3.191048974     5.264561167     1.552170305    -0.417706059     0.187438114    -0.200969156
   50     6.345808998     9.338647503     6.673224216     0.403347087    -0.219287321     0.198051000
   51     9.622779102     5.772259882     0.601609101     0.420138704    -0.197040037     0.186168453
   52     9.330231672     9.534641639     1.302787729     0.404012786    -0.213316275     0.203149786
   53     8.599458335     4.214803259     9.225800536     0.408041408    -0.225036395     0.181275565
   54     4.758570567     2.321512547     9.537218274     0.404828797    -0.244358193     0.162489133
   55     3.204793713     9.989821774     2.438624809     0.405020399    -0.222568762     0.190844499
   56     6.315935246     3.982443425     9.402677521     0.415359733    -0.212963969     0.179227900
   57     5.205601765     5.908611129     7.032446177     0.417782592    -0.208449369     0.178903791
   58     4.078562110     0.196742944     6.822775849     0.406582490    -0.226846425     0.182294757
   59     5.730292151     1.675772718     7.537889561     0.412866247    -0.219848610     0.176658004
   60     8.835598070     6.355087878     8.783510810     0.408781393    -0.219879172     0.185878785
   61     9.000475374     1.728584212     9.686920636     0.424051424    -0.206676364     0.165726492
   62     8.832244570     7.244494674     2.121082704     0.422122312    -0.198872861     0.179617200
   63     2.094823873     7.778126192     9.314918662     0.401007185    -0.228353504     0.192478349
   64     3.434783357     9.099818346     0.381737501     0.407613665    -0.213212947     0.195937080
   65     4.561729067     3.826442261     3.228690072     0.366702587    -0.277810121     0.195833474
   66     0.960038643     6.708189712     7.822046019     0.397611966    -0.232976992     0.193975373
   67     7.791022109     2.737093771     7.933842124     0.414403447    -0.222499242     0.169599146
   68     0.954062916     2.267579881     5.033210056     0.471978772    -0.149309445     0.070304541
   21    11.847925316     6.480889939     4.099712801    -0.413696201     0.205278771    -0.191614403
   22    19.180230987     1.864512394     6.139639521     0.458589625    -0.168073236     0.106990390
   23    19.064304568     9.391838105     7.004479152     0.410323553    -0.217513227     0.185263536
   24    14.011095142     4.279551753     7.832590573     0.419152952    -0.202280383     0.182738746
   25    15.289753952     0.523402036     1.117606644     0.404170336    -0.223713261     0.191307911
   26    11.848979909     1.105779919     7.654751851     0.126161190     0.370074414    -0.311654106
   27    10.513603086     3.106038396     2.942955276     0.419047698    -0.213949656     0.169187976
   28    17.506763804     5.544852143     1.212234141     0.424899829    -0.198652656     0.173197164
   29    18.219393625     8.197665046     5.291748967     0.402590779    -0.224418185     0.193796652
   30    16.989360355     9.111326426     1.988794241     0.415315922    -0.217215237     0.174155752
   31    15.501729417    10.075077118     9.003185456     0.408696259    -0.227636881     0.176490279
   32    17.628604305     0.726064355     8.232113958     0.407604140    -0.227471983     0.179207595
   33    10.691827637     8.100390943     5.634331343     0.409883159    -0.225431119     0.176568986
   34    20.289131608     3.085156904     8.352563818     0.483127652     0.106912627    -0.071814773
   35    17.661420819     7.686801169     0.528776317     0.417590102    -0.213223468     0.173649817
   36    17.175189188     2.673561045     5.862847025     0.450589468    -0.175361586     0.127347734
   37    17.680748549     5.286440930     7.799558284     0.411854964    -0.214836815     0.184988193
   38    15.765796739     6.203647701     4.498697030     0.428468541    -0.197241017     0.165863470
   39    17.952303439     5.898988414     3.924223021     0.435726237    -0.184941549     0.161056728
   40    12.718713871     8.917744162     6.471187921     0.408817702    -0.223750341     0.181118390
   41    16.218085915     2.109648726     3.912165034     0.449723300    -0.174659154     0.131313111
   42    10.502196194     8.551236192     3.361199084     0.419637063    -0.199936627     0.184201196
   43    14.040006922     7.135926686     5.505590095     0.425370601    -0.200147788     0.170295962
   44    18.980402130     4.135268075     4.788928929     0.437402498    -0.185531604     0.155746841
   45    14.319832940     9.651975525     4.964754181     0.414395280    -0.210483915     0.184317860
   46    17.411859350     1.330479165     2.264495525     0.447630071    -0.181312000     0.129434454
   47    16.836323380     1.900212905     9.829260255     0.415419641    -0.210847345     0.181576207
   48    20.041238486     3.557062772     0.750362347     0.408975022    -0.228812293     0.174311119
   49    13.280704924     5.409221379     1.840257174    -0.415423753     0.187164297    -0.205894709
   50    16.435464948     9.483307715     6.961311085     0.403936828    -0.217792813     0.198497682
   51    19.712435052     5.916920093     0.889695971     0.420117333    -0.196954866     0.186306755
   52    19.419887622     9.679301851     1.590874599     0.403967334    -0.213372557     0.203181065
   53    18.689114285     4.359463470     9.513887405     0.408457143    -0.224813470     0.180614690
   54    14.848226517     2.466172758     9.825305144     0.405308298    -0.243794358     0.162140355
   55    13.294449663    10.134481985     2.726711678     0.405480257    -0.221689264     0.190891674
   56    16.405591196     4.127103636     9.690764391     0.415793779    -0.212495606     0.178776819
   57    15.295257715     6.053271340     7.320533047     0.418131894    -0.207871058     0.178760572
   58    14.168218060     0.341403156     7.110862718     0.406779594    -0.226211665     0.182643489
   59    15.819948101     1.820432930     7.825976431     0.413174713    -0.219234717     0.176699733
   60    18.925254020     6.499748089     9.071597680     0.409141148    -0.219616700     0.185396942
   61    19.090131324     1.873244424     9.975007506     0.424520031    -0.206175801     0.165149271
   62    18.921900520     7.389154886     2.409169573     0.422121260    -0.198666941     0.179847402
   63    12.184479823     7.922786403     9.603005531     0.401162513    -0.227753765     0.192864876
   64    13.524439307     9.244478557     0.669824370     0.408080559    -0.212358355     0.195893303
   65    14.651385017     3.971102473     3.516776941     0.377274656    -0.269881212     0.186622522
   66    11.049694593     6.852849924     8.110132889     0.397769269    -0.232423985     0.194315979
   67    17.880678059     2.881753983     8.221928993     0.414865736    -0.222128421     0.168953798
   68    11.043718865     2.412240093     5.321296926     0.471099112    -0.153208607     0.067769830
   21    21.937581266     6.625550151     4.387799670    -0.413759973     0.205065672    -0.191704864
   22    29.269886936     2.009172605     6.427726391     0.458391046    -0.169022285     0.106344326
   23    29.153960518     9.536498317     7.292566022     0.409626397    -0.219051963     0.184993115
   24    24.100751092     4.424211965     8.120677442     0.419024084    -0.203235313     0.181973143
   25    25.379409902     0.668062247     1.405693513     0.403735361    -0.224305956     0.191532233
   26    21.938635859     1.250440130     7.942838721     0.102301066     0.395102019    -0.288840591
   27    20.603259036     3.250698608     3.231042146     0.418750353    -0.214438343     0.169305460
   28    27.596419754     5.689512354     1.500321010     0.424334423    -0.199549889     0.173551546
   29    28.309049575     8.342325257     5.579835836     0.401849873    -0.225865414     0.193653024
   30    27.079016305     9.255986637     2.276881110     0.414535519    -0.218475890     0.174437922
   31    25.591385366    10.219737330     9.291272326     0.408167887    -0.228961508     0.175998875
   32    27.718260255     0.870724567     8.520200828     0.407599586    -0.228117857     0.178395124
   33    20.781483586     8.245051154     5.922418213     0.409785344    -0.225469071     0.176747474
   34    30.378787558     3.229817115     8.640650688     0.483161088     0.104475422    -0.075101594
   35    27.751076769     7.831461381     0.816863187     0.416920479    -0.214228371     0.174021605
   36    27.264845138     2.818221257     6.150933894     0.450324137    -0.176217115     0.127105076
   37    27.770404499     5.431101141     8.087645153     0.411766275    -0.215486579     0.184429035
   38    25.855452689     6.348307912     4.786783900     0.428099295    -0.198233729     0.165633276
   39    28.041959389     6.043648626     4.212309890     0.435250829    -0.185999721     0.161123616
   40    22.808369821     9.062404373     6.759274791     0.408425812    -0.224413544     0.181182000
   41    26.307741865     2.254308937     4.200251904     0.449381502    -0.175528352     0.131324268
   42    20.591852144     8.695896404     3.649285954     0.419686071    -0.199643891     0.184406938
   43    24.129662871     7.280586898     5.793676965     0.425030458    -0.201111982     0.170009059
   44    29.070058080     4.279928286     5.077015799     0.436928864    -0.186567783     0.155838475
   45    24.409488889     9.796635736     5.252841050     0.413900586    -0.211597780     0.184153969
   46    27.501515300     1.475139377     2.552582395     0.447250955    -0.182107949     0.129627459
   47    26.925979330     2.044873116    10.117347125     0.415462033    -0.211468217     0.180755338
   48    30.130894436     3.701722983     1.038449216     0.408381003    -0.229579159     0.174695067
   49    23.370360874     5.553881591     2.128344044    -0.418854253     0.179996809    -0.205334516
   50    26.525120898     9.627967926     7.249397955     0.403365231    -0.219242060     0.198064155
   51    29.802091001     6.061580305     1.177782840     0.419518210    -0.197935408     0.186617379
   52    29.509543571     9.823962063     1.878961469     0.403135514    -0.214598923     0.203541297
   53    28.778770235     4.504123682     9.801974275     0.408429747    -0.225324436     0.180038996
   54    24.937882467     2.610832970    10.113392014     0.405339035    -0.244409296     0.161134611
   55    23.384105613    10.279142197     3.014798548     0.404783654    -0.222942062     0.190911054
   56    26.495247146     4.271763848     9.978851261     0.415816718    -0.213170983     0.177917366
   57    25.384913664     6.197931552     7.608619917     0.417951409    -0.208789931     0.178110596
   58    24.257874010     0.486063367     7.398949588     0.406998816    -0.226958608     0.181222939
   59    25.909604051     1.965093141     8.114063300     0.413271532    -0.219918282     0.175620585
   60    29.014909970     6.644408301     9.359684549     0.409032205    -0.220264504     0.184868071
   61    29.179787274     2.017904635    10.263094375     0.424585256    -0.206764266     0.164243412
   62    29.011556469     7.533815097     2.697256443     0.421537820    -0.199740627     0.180026521
   63    22.274135773     8.067446615     9.891092401     0.401237650    -0.227778715     0.192679021
   64    23.614095257     9.389138769     0.957911240     0.407413040    -0.213551890     0.195985218
   65    24.741040967     4.115762685     3.804863811     0.374806612    -0.275075940     0.183992475
   66    21.139350542     6.997510135     8.398219758     0.397906770    -0.232314390     0.194165462
   67    27.970334009     3.026414194     8.510015863     0.414809627    -0.222718527     0.168313490
   68    21.133374815     2.556900304     5.609383795     0.471731281    -0.150202295     0.070063321
   21    32.027237216     6.770210362     4.675886540    -0.412718351     0.206821115    -0.192064024
   22    39.359542886     2.153832817     6.715813260     0.458518943    -0.167893967     0.107573206
   23    39.243616468     9.681158529     7.580652891     0.409439797    -0.218865688     0.185625600
   24    34.190407042     4.568872177     8.408764312     0.418665357    -0.203178311     0.182860310
   25    35.469065852     0.812722459     1.693780383     0.403216964    -0.224261997     0.192672355
   26    32.028291809     1.395100342     8.230925590     0.110738194     0.383275690    -0.301391436
   27    30.692914986     3.395358819     3.519129016     0.418010122    -0.215484213     0.169806043
   28    37.686075704     5.834172566     1.788407880     0.424004269    -0.199662917     0.174227149
   29    38.398705525     8.486985469     5.867922706     0.401555233    -0.225863097     0.194265943
   30    37.168672255     9.400646849     2.564967980     0.414369205    -0.218366530     0.174969200
   31    35.681041316    10.364397541     9.579359195     0.407830149    -0.229079557     0.176627082
   32    37.807916205     1.015384778     8.808287698     0.407273888    -0.227886238     0.179432001
   33    30.871139536     8.389711366     6.210505082     0.409231141    -0.226368077     0.176882353
   34    40.468443507     3.374477327     8.928737557     0.482343638     0.109978998    -0.072451602
   35    37.840732719     7.976121592     1.104950057     0.416690765    -0.214238020     0.174559092
   36    37.354501087     2.962881468     6.439020764     0.450168914    -0.175753580     0.128291183
   37    37.860060449     5.575761353     8.375732023     0.411442387    -0.215707463     0.184893084
   38    35.945108638     6.492968124     5.074870769     0.427843048    -0.198379903     0.166119656
   39    38.131615339     6.188308837     4.500396760     0.434995288    -0.186144328     0.161645873
   40    32.898025771     9.207064585     7.047361661     0.408037069    -0.224894278     0.181461605
   41    36.397397814     2.398969149     4.488338774     0.449071372    -0.175273108     0.132718651
   42    30.681508094     8.840556615     3.937372824     0.419005966    -0.200838732     0.184655909
   43    34.219318821     7.425247109     6.081763835     0.424727930    -0.201304434     0.170536537
   44    39.159714029     4.424588498     5.365102668     0.436647396    -0.186745474     0.156413489
   45    34.499144839     9.941295948     5.540927920     0.413567670    -0.211842701     0.184619750
   46    37.591171250     1.619799589     2.840669265     0.446943802    -0.181890502     0.130985051
   47    37.015635280     2.189533328    10.405433994     0.415101546    -0.211330089     0.181742401
   48    40.220550386     3.846383195     1.326536086     0.407889053    -0.229436355     0.176026928
   49    33.460016823     5.698541802     2.416430913    -0.403352055     0.211669325    -0.206163083
   50    36.614776848     9.772628138     7.537484825     0.402942725    -0.219432470     0.198712233
   51    39.891746951     6.206240517     1.465869710     0.419275613    -0.197955543     0.187140492
   52    39.599199521     9.968622274     2.167048338     0.402903047    -0.214544992     0.204057789
   53    38.868426185     4.648783894    10.090061145     0.408045509    -0.225653512     0.180497522
   54    35.027538417     2.755493182    10.401478883     0.404794584    -0.244540887     0.162299412
   55    33.473761563    10.423802409     3.302885417     0.404555323    -0.222907042     0.191435215
   56    36.584903096     4.416424060    10.266938130     0.415413111    -0.213161678     0.178868795
   57    35.474569614     6.342591764     7.896706786     0.417597950    -0.208855591     0.178861103
   58    34.347529959     0.630723579     7.687036458     0.406626394    -0.226607070     0.182494416
   59    35.999260000     2.109753353     8.402150170     0.412933263    -0.219652319     0.176745520
   60    39.104565920     6.789068513     9.647771419     0.408685521    -0.220459346     0.185401784
   61    39.269443224     2.162564847    10.551181245     0.424262002    -0.206573083     0.165315803
   62    39.101212419     7.678475309     2.985343313     0.421307202    -0.199755300     0.180549332
   63    32.363791723     8.212106827    10.179179270     0.401072732    -0.228194680     0.192530131
   64    33.703751207     9.533798980     1.245998110     0.407188639    -0.213536849     0.196467367
   65    34.830696916     4.260422896     4.092950681     0.324591899    -0.298184105     0.236064268
   66    31.229006492     7.142170347     8.686306628     0.397733287    -0.232813274     0.193923211
   67    38.059989959     3.171074406     8.798102732     0.414477017    -0.222763059     0.169072238
   68    31.223030765     2.701560516     5.897470665     0.471589692    -0.151198751     0.068862905
   21     1.893344838    16.361323248     3.842251355    -0.413602428     0.205820167    -0.191235693
   22     9.225650508    11.744945703     5.882178075     0.458748563    -0.168728885     0.105263098
   23     9.109724090    19.272271415     6.747017706     0.410600980    -0.217665916     0.184467840
   24     4.056514663    14.159985063     7.575129127     0.418993645    -0.202795150     0.182533428
   25     5.335173473    10.403835345     0.860145198     0.403729343    -0.223803349     0.192131929
   26     1.894399430    10.986213228     7.397290405     0.115355147     0.395458475    -0.283382754
   27     0.559022608    12.986471705     2.685493830     0.417964780    -0.216519783     0.168596043
   28     7.552183325    15.425285452     0.954772694     0.425076303    -0.198585188     0.172841139
   29     8.264813147    18.078098355     5.034287521     0.402870091    -0.224623110     0.192977066
   30     7.034779876    18.991759735     1.731332795     0.415514050    -0.217214605     0.173683302
   31     5.547148938    19.955510427     8.745724010     0.408807668    -0.228080913     0.175657019
   32     7.674023826    10.606497664     7.974652512     0.407179788    -0.228138280     0.179325251
   33     0.737247158    17.980824252     5.376869897     0.409733433    -0.225882899     0.176338963
   34    10.334551129    12.965590213     8.095102372     0.482331018     0.104698839    -0.079968386
   35     7.706840341    17.567234479     0.271314871     0.417770092    -0.213183195     0.173265911
   36     7.220608709    12.553994354     5.605385579     0.450749011    -0.175559805     0.126507250
   37     7.726168070    15.166874239     7.542096838     0.411820315    -0.215000093     0.184875602
   38     5.811216260    16.084081010     4.241235584     0.428493448    -0.197532208     0.165452085
   39     7.997722960    15.779421724     3.666761575     0.435832770    -0.185051403     0.160641759
   40     2.764133393    18.798177471     6.213726475     0.408776200    -0.224189764     0.180668116
   41     6.263505436    11.990082035     3.654703588     0.449846454    -0.174654859     0.130896326
   42     0.547615716    18.431669501     3.103737638     0.419338568    -0.200498191     0.184270565
   43     4.085426443    17.016359995     5.248128649     0.425360480    -0.200514024     0.169889930
   44     9.025821651    14.015701384     4.531467483     0.437497452    -0.185608103     0.155388582
   45     4.365252461    19.532408834     4.707292735     0.414384247    -0.210997053     0.183755108
   46     7.457278871    11.210912475     2.007034079     0.447712391    -0.181183033     0.129330287
   47     6.881742901    11.780646214     9.571798809     0.415165963    -0.210990077     0.181990139
   48    10.086658007    13.437496081     0.492900900     0.409047455    -0.228777482     0.174186805
   49     3.326124445    15.289654688     1.582795728    -0.419358916     0.182468612    -0.202097266
   50     6.480884469    19.363741024     6.703849639     0.404080434    -0.218364983     0.197574636
   51     9.757854573    15.797353403     0.632234525     0.420317655    -0.196907129     0.185904953
   52     9.465307143    19.559735160     1.333413153     0.404284286    -0.213366181     0.202556383
   53     8.734533807    14.239896780     9.256425959     0.408315186    -0.224870457     0.180864554
   54     4.893646038    12.346606068     9.567843698     0.404916237    -0.244245228     0.162441097
   55     3.339869184    20.014915295     2.469250232     0.405460024    -0.222173146     0.190371379
   56     6.451010717    14.007536946     9.433302945     0.415508786    -0.212890978     0.178968936
   57     5.340677236    15.933704650     7.063071601     0.418014956    -0.208323435     0.178507263
   58     4.213637581    10.221836465     6.853401272     0.406301462    -0.227489663     0.182119673
   59     5.865367622    11.700866239     7.568514984     0.412754643    -0.220230961     0.176442422
   60     8.970673541    16.380181399     8.814136233     0.409148002    -0.219629487     0.185366665
   61     9.135550845    11.753677733     9.717546060     0.424412715    -0.206080083     0.165544092
   62     8.967320041    17.269588195     2.151708127     0.422345309    -0.198619086     0.179373628
   63     2.229899344    17.803219713     9.345544085     0.400981394    -0.228433666     0.192436956
   64     3.569858828    19.124911867     0.412362924     0.408006007    -0.212897919     0.195462463
   65     4.696804538    13.851535782     3.259315495     0.373329791    -0.269960968     0.194283152
   66     1.095114114    16.733283233     7.852671443     0.397551036    -0.233089852     0.193964674
   67     7.926097580    12.762187292     7.964467547     0.414649481    -0.222353427     0.169188538
   68     1.089138387    12.292673402     5.063835480     0.472025351    -0.147300469     0.074125837
   21    11.983000787    16.505983460     4.130338224    -0.414139308     0.204891124    -0.191071350
   22    19.315306458    11.889605915     6.170264945     0.459151261    -0.164618408     0.109913146
   23    19.199380039    19.416931626     7.035104576     0.410640867    -0.217789522     0.184233011
   24    14.146170613    14.304645274     7.863215996     0.419250306    -0.202314593     0.182477359
   25    15.424829423    10.548495557     1.148232067     0.404015148    -0.223311751     0.192103156
   26    11.984055380    11.130873440     7.685377275     0.105135830     0.381695412    -0.305376930
   27    10.648678557    13.131131917     2.973580700     0.418711733    -0.214259136     0.169627556
   28    17.641839275    15.569945664     1.242859564     0.425071928    -0.198489778     0.172961453
   29    18.354469096    18.222758567     5.322374390     0.402921452    -0.224647154     0.192841800
   30    17.124435826    19.136419947     2.019419664     0.415430499    -0.217313938     0.173758892
   31    15.636804888    20.100170639     9.033810880     0.408911241    -0.227919964     0.175624848
   32    17.763679776    10.751157876     8.262739382     0.407575556    -0.227106826     0.179734959
   33    10.826903108    18.125484464     5.664956767     0.410262517    -0.225063315     0.176156668
   34    20.424207079    13.110250425     8.383189242     0.482481445     0.114973524    -0.063188164
   35    17.796496290    17.711894690     0.559401741     0.417709357    -0.213154395     0.173447678
   36    17.310264659    12.698654566     5.893472448     0.450916243    -0.173196627     0.129141278
   37    17.815824020    15.311534451     7.830183707     0.411956093    -0.214839369     0.184759905
   38    15.900872210    16.228741222     4.529322454     0.428679682    -0.197216640     0.165346082
   39    18.087378910    15.924081935     3.954848444     0.435960737    -0.184757786     0.160632490
   40    12.853789342    18.942837683     6.501813345     0.409081218    -0.223680069     0.180609480
   41    16.353161386    12.134742247     3.942790458     0.450008280    -0.172713178     0.132901112
   42    10.637271665    18.576329713     3.391824508     0.419985496    -0.199544487     0.183831935
   43    14.175082393    17.161020207     5.536215519     0.425595718    -0.200144965     0.169735905
   44    19.115477601    14.160361596     4.819554353     0.437718048    -0.185148726     0.155315355
   45    14.454908411    19.677069046     4.995379604     0.414610769    -0.210652070     0.183639908
   46    17.546934821    11.355572686     2.295120949     0.447873736    -0.179672171     0.130870272
   47    16.971398851    11.925306426     9.859885678     0.415369352    -0.210555576     0.182029257
   48    20.176313957    13.582156293     0.780987770     0.409130142    -0.228524506     0.174324631
   49    13.415780395    15.434314900     1.870882598    -0.419487995     0.184732022    -0.199759612
   50    16.570540419    19.508401236     6.991936509     0.404180984    -0.218181754     0.197571391
   51    19.847510523    15.942013614     0.920321394     0.420313362    -0.196786534     0.186042300
   52    19.554963093    19.704395372     1.621500023     0.404023848    -0.213480326     0.202955366
   53    18.824189756    14.384556991     9.544512829     0.408541231    -0.224948345     0.180256220
   54    14.983301988    12.491266279     9.855930568     0.405432649    -0.243376947     0.162456237
   55    13.429525134    20.159575507     2.757337102     0.405636126    -0.221950626     0.190255756
   56    16.540666667    14.152197157     9.721389815     0.415801422    -0.212366054     0.178912931
   57    15.430333186    16.078364861     7.351158471     0.418257589    -0.207930303     0.178397249
   58    14.303293531    10.366496677     7.141488142     0.406869758    -0.225843171     0.182898502
   59    15.955023572    11.845526451     7.856601854     0.413249176    -0.218816473     0.177043694
   60    19.060329491    16.524841611     9.102223103     0.409215393    -0.219628915     0.185218526
   61    19.225206795    11.898337945    10.005632929     0.424415950    -0.205859097     0.165810534
   62    19.056975991    17.414248407     2.439794997     0.422346344    -0.198599700     0.179392656
   63    12.319555294    17.947879924     9.633630955     0.401567704    -0.227370203     0.192473815
   64    13.659514778    19.269572078     0.700449794     0.408260938    -0.212577073     0.195279274
   65    14.786460488    13.996195994     3.547402365     0.375148740    -0.273959693     0.184958130
   66    11.184770064    16.877943445     8.140758312     0.398179241    -0.232034002     0.193942036
   67    18.015753530    12.906847504     8.252554417     0.414926777    -0.221975697     0.169004614
   68    11.178794336    12.437333614     5.351922349     0.471867259    -0.151152001     0.067040007
   21    22.072656737    16.650643672     4.418425094    -0.413616802     0.205738829    -0.191292120
   22    29.404962407    12.034266126     6.458351814     0.457957627    -0.169056578     0.108141968
   23    29.289035989    19.561591838     7.323191445     0.409856683    -0.218785636     0.184798120
   24    24.235826563    14.449305486     8.151302866     0.418782854    -0.203292897     0.182463473
   25    25.514485373    10.693155768     1.436318937     0.403064819    -0.224659638     0.192527397
   26    22.073711330    11.275533651     7.973464144     0.112727517     0.396536527    -0.282933366
   27    20.738334507    13.275792129     3.261667569     0.419046615    -0.215430725     0.167300739
   28    27.731495225    15.714605876     1.530946434     0.424226907    -0.199743437     0.173591736
   29    28.444125046    18.367418778     5.610461260     0.401988659    -0.225790939     0.193451726
   30    27.214091776    19.281080158     2.307506534     0.414670574    -0.218326315     0.174304146
   31    25.726460837    20.244830851     9.321897749     0.408552190    -0.228373102     0.175871641
   32    27.853335726    10.895818088     8.550826252     0.407021277    -0.228359727     0.179403220
   33    20.916559057    18.270144675     5.953043636     0.410038365    -0.225458301     0.176173476
   34    30.513863029    13.254910636     8.671276111     0.483854161     0.104242851    -0.070841931
   35    27.886152240    17.856554902     0.847488611     0.416879373    -0.214333301     0.173990876
   36    27.399920609    12.843314778     6.181559318     0.449938884    -0.176345337     0.128286098
   37    27.905479970    15.456194662     8.118270577     0.411546483    -0.215555814     0.184838263
   38    25.990528160    16.373401433     4.817409323     0.428157972    -0.198130695     0.165604886
   39    28.177034860    16.068742147     4.242935314     0.435295670    -0.185937809     0.161073929
   40    22.943445292    19.087497894     6.789900215     0.408761751    -0.224163178     0.180733785
   41    26.442817336    12.279402459     4.230877327     0.449030235    -0.175634470     0.132379685
   42    20.726927615    18.720989925     3.679911378     0.419857998    -0.199764169     0.183884578
   43    24.264738342    17.305680419     5.824302389     0.425101486    -0.200963208     0.170007399
   44    29.205133551    14.305021807     5.107641222     0.437006323    -0.186461139     0.155748891
   45    24.544564360    19.821729257     5.283466474     0.414264256    -0.211153887     0.183845484
   46    27.636590771    11.500232898     2.583207819     0.446868228    -0.182325964     0.130637017
   47    27.061054801    12.069966637    10.147972548     0.414891795    -0.211680999     0.181812961
   48    30.265969907    13.726816504     1.069074640     0.408072007    -0.229992530     0.174873306
   49    23.505436345    15.578975112     2.158969467    -0.410932687     0.197835702    -0.204927698
   50    26.660196369    19.653061447     7.280023379     0.403746798    -0.218775497     0.197802439
   51    29.937166472    16.086673826     1.208408264     0.419499440    -0.198026115     0.186563333
   52    29.644619042    19.849055584     1.909586892     0.403305254    -0.214436743     0.203375897
   53    28.913845706    14.529217203     9.832599699     0.408111691    -0.225521720     0.180512607
   54    25.072957938    12.635926491    10.144017437     0.404790085    -0.244620331     0.162190876
   55    23.519181084    20.304235718     3.045423971     0.405231295    -0.222362324     0.190637337
   56    26.630322617    14.296857369    10.009476684     0.415352044    -0.213386444     0.178742566
   57    25.519989135    16.223025073     7.639245340     0.417779785    -0.208830538     0.178465285
   58    24.392949481    10.511156888     7.429575012     0.406338356    -0.227407441     0.182140046
   59    26.044679522    11.990186662     8.144688724     0.412702269    -0.220256518     0.176533011
   60    29.149985441    16.669501822     9.390309973     0.408841453    -0.220243772     0.185314185
   61    29.314862745    12.042998156    10.293719799     0.423980196    -0.207103993     0.165374512
   62    29.146631940    17.558908618     2.727881867     0.421601805    -0.199711551     0.179908907
   63    22.409211244    18.092540136     9.921717824     0.401383408    -0.227801052     0.192348747
   64    23.749170728    19.414232290     0.988536664     0.407835595    -0.212985389     0.195722640
   65    24.876116438    14.140856206     3.835489234     0.378604255    -0.269299284     0.184761234
   66    21.274426013    17.022603656     8.428845182     0.398053278    -0.232323139     0.193854448
   67    28.105409480    13.051507715     8.540641286     0.414377772    -0.222920227     0.169108351
   68    21.268450286    12.581993825     5.640009219     0.472584602    -0.145327175     0.074456739
   21    32.162312687    16.795303883     4.706511964    -0.413436640     0.206124874    -0.191265997
   22    39.494618357    12.178926338     6.746438684     0.458512376    -0.166424390     0.109860472
   23    39.378691939    19.706252050     7.611278315     0.409848855    -0.218825481     0.184768301
   24    34.325482513    14.593965698     8.439389735     0.418381046    -0.203614607     0.183025660
   25    35.604141323    10.837815980     1.724405806     0.402953935    -0.224431452     0.193024997
   26    32.163367280    11.420193863     8.261551014     0.118631319     0.386952513    -0.293588765
   27    30.827990457    13.420452340     3.549754439     0.418506049    -0.215503233     0.168555757
   28    37.821151175    15.859266087     1.819033303     0.424316039    -0.199519129     0.173631841
   29    38.533780996    18.512078990     5.898548129     0.402096945    -0.225697566     0.193335604
   30    37.303747726    19.425740370     2.595593404     0.414635735    -0.218366114     0.174337168
   31    35.816116787    20.389491062     9.609984619     0.408129336    -0.228923407     0.176137783
   32    37.942991676    11.040478299     8.838913121     0.406686627    -0.228473896     0.180015739
   33    31.006215007    18.414804887     6.241130506     0.409478224    -0.226182068     0.176548169
   34    40.603518978    13.399570848     8.959362981     0.483049610     0.112299117    -0.063655183
   35    37.975808190    18.001215114     1.135575480     0.416975319    -0.214155750     0.173979592
   36    37.489576558    12.987974989     6.469646188     0.450229417    -0.174783004     0.129400054
   37    37.995135920    15.600854874     8.406357446     0.411174363    -0.216005889     0.185140754
   38    36.080184109    16.518061645     5.105496193     0.427865807    -0.198447182     0.165980622
   39    38.266690810    16.213402359     4.531022183     0.435211010    -0.185926451     0.161315627
   40    33.033101242    19.232158106     7.077987084     0.408277077    -0.224747106     0.181103747
   41    36.532473285    12.424062670     4.518964197     0.449292213    -0.174287052     0.133268643
   42    30.816583565    18.865650136     3.967998247     0.419190029    -0.200745372     0.184339402
   43    34.354394292    17.450340630     6.112389258     0.424763778    -0.201392574     0.170343078
   44    39.294789500    14.449682019     5.395728092     0.436902993    -0.186428547     0.156077453
   45    34.634220310    19.966389469     5.571553343     0.413759024    -0.211836069     0.184198126
   46    37.726246721    11.644893110     2.871294688     0.447140961    -0.181127324     0.131369148
   47    37.150710751    12.214626849    10.436059418     0.414571788    -0.211718986     0.182497406
   48    40.355625857    13.871476716     1.357161509     0.408218066    -0.229573791     0.175082510
   49    33.595092294    15.723635323     2.447056337    -0.427338406     0.176752612    -0.190106287
   50    36.749852319    19.797721659     7.568110248     0.403318303    -0.219258771     0.198141207
   51    40.026822422    16.231334038     1.496495133     0.419584736    -0.197805267     0.186605802
   52    39.734274992    19.993715795     2.197673762     0.403263806    -0.214438528     0.203456187
   53    39.003501656    14.673877415    10.120686568     0.407736707    -0.226037223     0.180715112
   54    35.162613888    12.780586703    10.432104307     0.404328887    -0.244848119     0.162995551
   55    33.608837034    20.448895930     3.333510841     0.404651197    -0.223188503     0.190903905
   56    36.719978567    14.441517581    10.297563554     0.414932759    -0.213682344     0.179361816
   57    35.609645085    16.367685285     7.927332210     0.417393332    -0.209192835     0.178944583
   58    34.482605430    10.655817100     7.717661881     0.405949736    -0.227483233     0.182910334
   59    36.134335471    12.134846874     8.432775593     0.412363895    -0.220359137     0.177194439
   60    39.239641391    16.814162034     9.678396842     0.408545279    -0.220729978     0.185388867
   61    39.404518695    12.187658368    10.581806669     0.423659524    -0.207001958     0.166321365
   62    39.236287890    17.703568830     3.015968736     0.421630566    -0.199575031     0.179992979
   63    32.498867194    18.237200348    10.209804694     0.401069225    -0.228223574     0.192503187
   64    33.838826678    19.558892502     1.276623533     0.407257204    -0.213862147     0.195970794
   65    34.965772388    14.285516417     4.123576104     0.373042338    -0.276028949     0.186138211
   66    31.364081963    17.167263868     8.716932052     0.397692518    -0.232826788     0.193990588
   67    38.195065430    13.196167927     8.828728156     0.414137460    -0.223109094     0.169447622
   68    31.358106236    12.726654037     5.928096088     0.471182948    -0.151288735     0.071402721
   21     2.028420309    26.386416769     3.872876778    -0.413792787     0.205553559    -0.191110606
   22     9.360725979    21.770039224     5.912803499     0.459476315    -0.164166167     0.109229048
   23     9.244799561    29.297364936     6.777643130     0.410190473    -0.218772112     0.184072101
   24     4.191590134    24.185078584     7.605754550     0.419475366    -0.202588465     0.181654427
   25     5.470248944    20.428928866     0.890770621     0.404095439    -0.223537242     0.191671537
   26     2.029474901    21.011306749     7.427915829     0.106067128     0.387457872    -0.297701464
   27     0.694098079    23.011565226     2.716119254     0.418132679    -0.215699624     0.169229829
   28     7.687258796    25.450378973     0.985398118     0.425247466    -0.198446042     0.172579724
   29     8.399888618    28.103191876     5.064912944     0.402504172    -0.225555922     0.192652322
   30     7.169855347    29.016853256     1.761958218     0.415438278    -0.217405435     0.173625787
   31     5.682224409    29.980603948     8.776349434     0.408619463    -0.228687256     0.175306229
   32     7.809099297    20.631591185     8.005277936     0.407789168    -0.227424767     0.178846218
   33     0.872322629    28.005917773     5.407495321     0.409887564    -0.225580010     0.176368490
   34    10.469626600    22.990683734     8.125727796     0.482295722     0.115633420    -0.063401490
   35     7.841915812    27.592328000     0.301940295     0.417870949    -0.213163595     0.173046675
   36     7.355684180    22.579087875     5.636011002     0.451233596    -0.172909932     0.128414941
   37     7.861243541    25.191967760     7.572722261     0.412244968    -0.215071618     0.183843100
   38     5.946291731    26.109174531     4.271861008     0.428750503    -0.197443365     0.164891249
   39     8.132798432    25.804515245     3.697386998     0.436098510    -0.184916887     0.160074467
   40     2.899208864    28.823270992     6.244351899     0.408778216    -0.224209979     0.180638468
   41     6.398580907    22.015175556     3.685329012     0.450318433    -0.172492013     0.132135591
   42     0.682691187    28.456763022     3.134363062     0.419462081    -0.200101478     0.184420609
   43     4.220501914    27.041453516     5.278754073     0.425583619    -0.200466210     0.169386781
   44     9.160897122    24.040794905     4.562092906     0.437877833    -0.185314529     0.154665861
   45     4.500327932    29.557502355     4.737918158     0.414371090    -0.211126947     0.183635542
   46     7.592354342    21.236005996     2.037659503     0.448169113    -0.179441680     0.130173462
   47     7.016818372    21.805739735     9.602424232     0.415568921    -0.210814131     0.181272927
   48    10.221733479    23.462589602     0.523526324     0.409375386    -0.228310103     0.174029566
   49     3.461199916    25.314748209     1.613421152    -0.421474277     0.185561785    -0.194746649
   50     6.615959940    29.388834545     6.734475063     0.403798998    -0.219034248     0.197409138
   51     9.892930044    25.822446924     0.662859948     0.420436994    -0.196961483     0.185577229
   52     9.600382614    29.584828681     1.364038577     0.404073330    -0.213608557     0.202721800
   53     8.869609278    24.264990301     9.287051383     0.408850481    -0.225162211     0.179285423
   54     5.028721509    22.371699589     9.598469122     0.405381802    -0.243931189     0.161750331
   55     3.474944655    30.040008816     2.499875656     0.405329403    -0.222195958     0.190622746
   56     6.586086188    24.032630467     9.463928369     0.416028437    -0.212686970     0.178001665
   57     5.475752707    25.958798171     7.093697025     0.418442896    -0.208203120     0.177642911
   58     4.348713052    20.246929986     6.884026696     0.406976542    -0.226383995     0.181990059
   59     6.000443093    21.725959760     7.599140408     0.413388201    -0.219228321     0.176207658
   60     9.105749012    26.405274920     8.844761657     0.409508518    -0.219895295     0.184252092
   61     9.270626317    21.778771254     9.748171483     0.424650910    -0.205959871     0.165082211
   62     9.102395512    27.294681716     2.182333551     0.422436492    -0.198795086     0.178963472
   63     2.364974815    27.828313234     9.376169509     0.401445610    -0.227836466     0.192176917
   64     3.704934300    29.150005388     0.442988348     0.407906420    -0.212812640     0.195762949
   65     4.831880009    23.876629303     3.289940919     0.379588014    -0.280975529     0.164212337
   66     1.230189585    26.758376754     7.883296866     0.398038186    -0.232404475     0.193787933
   67     8.061173051    22.787280813     7.995092971     0.415211702    -0.222118594     0.168114762
   68     1.224213858    22.317766923     5.094460903     0.471778272    -0.149939560     0.070309248
   21    12.118076258    26.531076981     4.160963648    -0.414000153     0.205683448    -0.190520845
   22    19.450381929    21.914699436     6.200890368     0.459404466    -0.165774765     0.107080642
   23    19.334455510    29.442025147     7.065729999     0.410453624    -0.218394511     0.183933847
   24    14.281246084    24.329738795     7.893841420     0.419420552    -0.202547835     0.181826222
   25    15.559904894    20.573589078     1.178857491     0.404061999    -0.223472912     0.191816991
   26    12.119130851    21.155966961     7.716002698     0.115054524     0.393114032    -0.286746952
   27    10.783754028    23.156225438     3.004206123     0.419067532    -0.215930683     0.166602353
   28    17.776914746    25.595039185     1.273484988     0.425188629    -0.198986555     0.172101657
   29    18.489544567    28.247852088     5.352999814     0.402706622    -0.225273239     0.192559976
   30    17.259511297    29.161513468     2.050045088     0.415543107    -0.217625871     0.173097969
   31    15.771880359    30.125264160     9.064436303     0.408930282    -0.228291155     0.175097611
   32    17.898755247    20.776251397     8.293364805     0.407852230    -0.227278489     0.178888364
   33    10.961978579    28.150577985     5.695582190     0.410205408    -0.225610271     0.175589092
   34    20.559282550    23.135343946     8.413814665     0.481998671     0.112556991    -0.070768674
   35    17.931571761    27.736988211     0.590027165     0.417842778    -0.213572630     0.172609803
   36    17.445340130    22.723748087     5.924097872     0.451143969    -0.173984983     0.127272717
   37    17.950899491    25.336627972     7.860809131     0.412205263    -0.214818080     0.184228157
   38    16.035947681    26.253834743     4.559947877     0.428752522    -0.197599658     0.164698665
   39    18.222454381    25.949175456     3.985473868     0.435991054    -0.185386287     0.159824046
   40    12.988864813    28.967931204     6.532438768     0.409080357    -0.224151463     0.180026063
   41    16.488236857    22.159835768     3.973415881     0.450194877    -0.173422004     0.131336899
   42    10.772347136    28.601423234     3.422449932     0.419957844    -0.200000909     0.183398599
   43    14.310157864    27.186113728     5.566840943     0.425652177    -0.200524498     0.169145351
   44    19.250553072    24.185455117     4.850179776     0.437644554    -0.186027082     0.154470609
   45    14.589983882    29.702162567     5.026005028     0.414650114    -0.211036107     0.183109379
   46    17.682010292    21.380666207     2.325746373     0.448024744    -0.180246171     0.129557504
   47    17.106474322    21.950399947     9.890511102     0.415586902    -0.210494519     0.181602820
   48    20.311389428    23.607249814     0.811613194     0.409180301    -0.229266514     0.173229175
   49    13.550855866    25.459408421     1.901508021    -0.415907315     0.194734130    -0.197736501
   50    16.705615890    29.533494757     7.022561933     0.404113978    -0.218724782     0.197107490
   51    19.982585994    25.967107135     0.950946818     0.420406934    -0.197377257     0.185203208
   52    19.690038564    29.729488893     1.652125446     0.404248025    -0.213732762     0.202242034
   53    18.959265227    24.409650512     9.575138253     0.408754463    -0.224808985     0.179946407
   54    15.118377459    22.516359800     9.886555991     0.405655637    -0.243373076     0.161904446
   55    13.564600605    30.184669028     2.787962525     0.405747336    -0.222111086     0.189830885
   56    16.675742138    24.177290678     9.752015238     0.416022032    -0.212371328     0.178393072
   57    15.565408657    26.103458382     7.381783894     0.418394312    -0.208169594     0.177796569
   58    14.438369002    20.391590198     7.172113565     0.407086749    -0.226356722     0.181777373
   59    16.090099043    21.870619972     7.887227278     0.413480921    -0.219151302     0.176085872
   60    19.195404962    26.549935132     9.132848527     0.409496572    -0.219528550     0.184715385
   61    19.360282266    21.923431466    10.036258353     0.424654159    -0.205706701     0.165389233
   62    19.192051462    27.439341928     2.470420421     0.422383759    -0.199118273     0.178728491
   63    12.454630765    27.972973445     9.664256378     0.401722484    -0.227861868     0.191567259
   64    13.794590249    29.294665599     0.731075218     0.408374245    -0.212698182     0.194910133
   65    14.921535959    24.021289515     3.578027788     0.382083802    -0.264745527     0.184178646
   66    11.319845535    26.903036966     8.171383736     0.398362305    -0.232508743     0.192995229
   67    18.150829001    22.931941025     8.283179840     0.415142264    -0.221955774     0.168500847
   68    11.313869807    22.462427135     5.382547773     0.472901972    -0.144580073     0.073894025
   21    22.207732208    26.675737193     4.449050518    -0.414173336     0.205345117    -0.190509399
   22    29.540037878    22.059359647     6.488977238     0.458349588    -0.167996236     0.108133804
   23    29.424111460    29.586685359     7.353816869     0.410125235    -0.218047690     0.185074299
   24    24.370902034    24.474399007     8.181928289     0.419299670    -0.202432816     0.182232658
   25    25.649560844    20.718249289     1.466944360     0.403497709    -0.224185102     0.192173461
   26    22.208786801    21.300627172     8.004089568     0.102553837     0.391710593    -0.293335170
   27    20.873409978    23.300885650     3.292292993     0.418565297    -0.216383755     0.167275708
   28    27.866570696    25.739699397     1.561571857     0.424862694    -0.198891639     0.173013894
   29    28.579200517    28.392512299     5.641086683     0.402367340    -0.224895984     0.193706788
   30    27.349167247    29.306173679     2.338131958     0.415272919    -0.217505666     0.173895623
   31    25.861536308    30.269924372     9.352523173     0.408667305    -0.228088920     0.175972949
   32    27.988411197    20.920911609     8.581451675     0.407373621    -0.227857938     0.179241437
   33    21.051634528    28.295238196     5.983669060     0.410128205    -0.225548680     0.175848367
   34    30.648938500    23.280004157     8.701901535     0.483510097     0.106986497    -0.069078764
   35    28.021227711    27.881648423     0.878114034     0.417508106    -0.213478582     0.173533501
   36    27.534996080    22.868408299     6.212184742     0.450329624    -0.175382781     0.128234589
   37    28.040555441    25.481288183     8.148896000     0.411964016    -0.214818148     0.184766915
   38    26.125603631    26.398494954     4.848034747     0.428513527    -0.197519976     0.165414681
   39    28.312110331    26.093835668     4.273560737     0.435704977    -0.185235412     0.160776291
   40    23.078520763    29.112591416     6.820525638     0.408865402    -0.224119709     0.180553149
   41    26.577892807    22.304495980     4.261502751     0.449408052    -0.174691036     0.132345929
   42    20.862003086    28.746083446     3.710536801     0.419953397    -0.200067090     0.183336586
   43    24.399813813    27.330773940     5.854927812     0.425426459    -0.200461193     0.169787037
   44    29.340209022    24.330115329     5.138266646     0.437367535    -0.185803365     0.155520894
   45    24.679639831    29.846822778     5.314091897     0.414399275    -0.211006989     0.183709802
   46    27.771666242    21.525326419     2.613833242     0.447286081    -0.181360004     0.130551564
   47    27.196130272    22.095060158    10.178597972     0.415320385    -0.210875473     0.181770495
   48    30.401045378    23.751910026     1.099700063     0.408789209    -0.229233788     0.174193150
   49    23.640511816    25.604068633     2.189594891    -0.425660413     0.179450704    -0.191339116
   50    26.795271840    29.678154968     7.310648802     0.403804174    -0.218472028     0.198020610
   51    30.072241943    26.111767347     1.239033687     0.420057524    -0.197186201     0.186196881
   52    29.779694513    29.874149105     1.940212316     0.403860319    -0.213746176     0.203001022
   53    29.048921177    24.554310724     9.863225122     0.408521335    -0.224838673     0.180438050
   54    25.208033409    22.661020012    10.174642861     0.405343165    -0.243738487     0.162137190
   55    23.654256555    30.329329239     3.076049395     0.405532393    -0.222119259     0.190280091
   56    26.765398088    24.321950890    10.040102108     0.415792798    -0.212573917     0.178685977
   57    25.655064606    26.248118594     7.669870764     0.418250267    -0.208036837     0.178290180
   58    24.528024952    20.536250409     7.460200435     0.406771640    -0.226713299     0.182038219
   59    26.179754993    22.015280183     8.175314147     0.413093912    -0.219602510     0.176431735
   60    29.285060912    26.694595343     9.420935396     0.409262468    -0.219516068     0.185248289
   61    29.449938216    22.068091677    10.324345223     0.424405155    -0.206187918     0.165429159
   62    29.281707411    27.584002139     2.758507290     0.422067065    -0.198944592     0.179667588
   63    22.544286715    28.117633657     9.952343248     0.401657912    -0.227512582     0.192117013
   64    23.884246199    29.439325811     1.019162087     0.408164576    -0.212794685     0.195243696
   65    25.011191909    24.165949727     3.866114658     0.369808451    -0.280029731     0.186614735
   66    21.409501484    27.047697177     8.459470606     0.398328943    -0.232143717     0.193502836
   67    28.240484951    23.076601236     8.571266710     0.414816134    -0.222194989     0.168988052
   68    21.403525757    22.607087346     5.670634642     0.472765319    -0.146753720     0.070400989
   21    32.297388158    26.820397404     4.737137387    -0.413654241     0.205450922    -0.191520462
   22    39.629693828    22.204019859     6.777064107     0.458442801    -0.168187523     0.107439078
   23    39.513767410    29.731345571     7.641903738     0.410117279    -0.217967500     0.185186357
   24    34.460557984    24.619059219     8.470015159     0.418770175    -0.203025722     0.182789762
   25    35.739216794    20.862909501     1.755031230     0.403154724    -0.224690066     0.192303516
   26    32.298442751    21.445287384     8.292176437     0.123459987     0.387934677    -0.290283169
   27    30.963065928    23.445545861     3.580379863     0.418865703    -0.214932427     0.168391136
   28    37.956226646    25.884359608     1.849658727     0.424427620    -0.199237890     0.173682062
   29    38.668856467    28.537172511     5.929173553     0.402303903    -0.224889401     0.193846141
   30    37.438823197    29.450833891     2.626218827     0.414807882    -0.217774912     0.174666850
   31    35.951192258    30.414584583     9.640610042     0.408384793    -0.228177505     0.176513134
   32    38.078067147    21.065571820     8.869538545     0.407071834    -0.228236885     0.179444829
   33    31.141290478    28.439898408     6.271755930     0.409801570    -0.225498683     0.176672060
   34    40.738594449    23.424664369     8.989988404     0.482844916     0.107451633    -0.072903591
   35    38.110883661    28.026308635     1.166200904     0.417087515    -0.213786955     0.174164127
   36    37.624652029    23.013068510     6.500271611     0.450285634    -0.175725972     0.127918844
   37    38.130211391    25.625948395     8.436982870     0.411645824    -0.215279179     0.184939425
   38    36.215259580    26.543155166     5.136121616     0.428089018    -0.197973378     0.165970884
   39    38.401766281    26.238495880     4.561647607     0.435346597    -0.185645098     0.161273798
   40    33.168176713    29.257251627     7.108612508     0.408576177    -0.224051045     0.181291580
   41    36.667548756    22.449156191     4.549589621     0.449324537    -0.175096414     0.132093550
   42    30.951659036    28.890743657     3.998623671     0.419565387    -0.199987606     0.184309099
   43    34.489469763    27.475434151     6.143014682     0.425021905    -0.200822251     0.170372545
   44    39.429864971    24.474775540     5.426353515     0.437045639    -0.186238939     0.155904353
   45    34.769295781    29.991482990     5.602178767     0.414059227    -0.211060993     0.184413161
   46    37.861322192    21.669986631     2.901920112     0.447154401    -0.181833783     0.130343459
   47    37.285786222    22.239720370    10.466684841     0.414960018    -0.211443376     0.181933729
   48    40.490701328    23.896570237     1.387786933     0.408281373    -0.229576763     0.174930930
   49    33.730167765    25.748728844     2.477681760    -0.421717591     0.184453365    -0.195272194
   50    36.884927790    29.822815180     7.598735672     0.403564984    -0.218440064     0.198542798
   51    40.161897893    26.256427559     1.527120557     0.419686588    -0.197490581     0.186710038
   52    39.869350463    30.018809316     2.228299185     0.403353209    -0.213883512     0.203862778
   53    39.138577127    24.698970936    10.151311992     0.408202023    -0.225220426     0.180684444
   54    35.297689359    22.805680224    10.462729730     0.404757050    -0.244510476     0.162438783
   55    33.743912505    30.473989451     3.364136264     0.405100949    -0.222214452     0.191086260
   56    36.855054038    24.466611102    10.328188977     0.415369807    -0.213139754     0.178995445
   57    35.744720556    26.392778806     7.957957633     0.417754031    -0.208594449     0.178801357
   58    34.617680902    20.680910621     7.748287305     0.406226985    -0.227381884     0.182420162
   59    36.269410942    22.159940395     8.463401017     0.412680914    -0.220167291     0.176694164
   60    39.374716862    26.839255555     9.709022266     0.409022420    -0.219892928     0.185331488
   61    39.539594166    22.212751889    10.612432092     0.424117280    -0.206725951     0.165495964
   62    39.371363361    27.728662351     3.046594160     0.421772916    -0.199178327     0.180098865
   63    32.633942665    28.262293869    10.240430118     0.401479923    -0.227404179     0.192616747
   64    33.973902149    29.583986023     1.307248957     0.407739599    -0.212828336     0.196093138
   65    35.100847859    24.310609938     4.154201528     0.376386559    -0.272931205     0.183961181
   66    31.499157434    27.192357389     8.747557475     0.398115809    -0.232047667     0.194055874
   67    38.330140901    23.221261448     8.859353579     0.414487914    -0.222645260     0.169200643
   68    31.493181707    22.751747558     5.958721512     0.471605061    -0.149890611     0.071564458
   21     2.163495780    36.411510290     3.903502202    -0.413210948     0.205823015    -0.192077066
   22     9.495801450    31.795132745     5.943428922     0.458384195    -0.168504871     0.107191597
   23     9.379875032    39.322458457     6.808268553     0.409913874    -0.218901250     0.184534166
   24     4.326665605    34.210172105     7.636379974     0.419054059    -0.202896239     0.182282232
   25     5.605324415    30.454022387     0.921396045     0.403969304    -0.223491031     0.191991042
   26     2.164550372    31.036400270     7.458541252     0.092453299     0.398188246    -0.287921011
   27     0.829173550    33.036658747     2.746744677     0.418111646    -0.215432790     0.169621239
   28     7.822334267    35.475472494     1.016023542     0.424989545    -0.198591020     0.173047663
   29     8.534964089    38.128285397     5.095538368     0.402160011    -0.225696088     0.193206112
   30     7.304930818    39.041946777     1.792583642     0.415326228    -0.217458430     0.173827372
   31     5.817299880    40.005697469     8.806974857     0.408297872    -0.228587149     0.176183889
   32     7.944174769    30.656684706     8.035903359     0.407467922    -0.228102566     0.178715171
   33     1.007398100    38.031011294     5.438120744     0.409678093    -0.225682952     0.176723131
   34    10.604702071    33.015777255     8.156353219     0.483459844     0.105206326    -0.072098603
   35     7.976991283    37.617421521     0.332565719     0.417646097    -0.213275616     0.173451001
   36     7.490759651    32.604181396     5.666636426     0.450438296    -0.175561547     0.127606759
   37     7.996319012    35.217061281     7.603347685     0.411698030    -0.215420863     0.184658020
   38     6.081367202    36.134268052     4.302486431     0.428392879    -0.197653108     0.165568084
   39     8.267873903    35.829608766     3.728012422     0.435744441    -0.185031098     0.160904553
   40     3.034284335    38.848364513     6.274977322     0.408537062    -0.224305798     0.181064570
   41     6.533656378    32.040269077     3.715954435     0.449567326    -0.174732356     0.131749092
   42     0.817766658    38.481856543     3.164988486     0.419398032    -0.200052055     0.184619789
   43     4.355577385    37.066547037     5.309379497     0.425262209    -0.200615055     0.170016627
   44     9.295972593    34.065888426     4.592718330     0.437430566    -0.185485639     0.155722759
   45     4.635403403    39.582595876     4.768543582     0.414167736    -0.211172599     0.184041353
   46     7.727429813    31.261099517     2.068284927     0.447485438    -0.181274176     0.129986369
   47     7.151893843    31.830833256     9.633049656     0.415306352    -0.211249118     0.181368256
   48    10.356808950    33.487683123     0.554151748     0.409010601    -0.228570885     0.174544204
   49     3.596275387    35.339841730     1.644046575    -0.406673708     0.201732402    -0.209572263
   50     6.751035411    39.413928066     6.765100486     0.403477577    -0.218878610     0.198237229
   51    10.028005515    35.847540445     0.693485372     0.420186655    -0.197008557     0.186093534
   52     9.735458085    39.609922202     1.394664000     0.404038882    -0.213505560     0.202898886
   53     9.004684749    34.290083822     9.317676806     0.408269154    -0.225424545     0.180277766
   54     5.163796980    32.396793110     9.629094545     0.405066895    -0.244385223     0.161853864
   55     3.610020126    40.065102337     2.530501079     0.405346862    -0.222140860     0.190649836
   56     6.721161659    34.057723988     9.494553792     0.415670635    -0.213074083     0.178374209
   57     5.610828178    35.983891692     7.124322448     0.418021350    -0.208468010     0.178323413
   58     4.483788523    30.272023507     6.914652119     0.406860609    -0.226989607     0.181494250
   59     6.135518564    31.751053281     7.629765832     0.413146649    -0.219946546     0.175878832
   60     9.240824483    36.430368441     8.875387081     0.408963535    -0.220205856     0.185089730
   61     9.405701788    31.803864775     9.778796907     0.424391781    -0.206565579     0.164991750
   62     9.237470983    37.319775237     2.212958975     0.422149997    -0.198888989     0.179534259
   63     2.500050287    37.853406755     9.406794932     0.401116880    -0.227959893     0.192716205
   64     3.840009771    39.175098909     0.473613771     0.407970490    -0.212743226     0.195704878
   65     4.966955480    33.901722824     3.320566342     0.370129029    -0.275377867     0.192799202
   66     1.365265056    36.783470275     7.913922290     0.397771393    -0.232500776     0.194219741
   67     8.196248522    32.812374334     8.025718394     0.414696580    -0.222655177     0.168675484
   68     1.359289329    32.342860444     5.125086327     0.472673837    -0.146138638     0.072269924
   21    12.253151729    36.556170502     4.191589072    -0.413895290     0.205603775    -0.190834422
   22    19.585457400    31.939792957     6.231515792     0.458729470    -0.167589426     0.107149699
   23    19.469530981    39.467118668     7.096355423     0.410406389    -0.218130478     0.184352084
   24    14.416321555    34.354832316     7.924466843     0.419601794    -0.202471976     0.181492242
   25    15.694980365    30.598682599     1.209482914     0.404348811    -0.223504130     0.191175163
   26    12.254206322    31.181060482     7.746628122     0.107219005     0.389109195    -0.295123905
   27    10.918829499    33.181318959     3.034831547     0.418910601    -0.213934231     0.169546611
   28    17.911990217    35.620132706     1.304110411     0.425446281    -0.198151319     0.172428295
   29    18.624620038    38.272945609     5.383625237     0.402744219    -0.224875815     0.192945489
   30    17.394586768    39.186606989     2.080670512     0.415638324    -0.217303137     0.173274725
   31    15.906955830    40.150357681     9.095061727     0.408656318    -0.228064314     0.176030345
   32    18.033830718    30.801344918     8.323990229     0.407806348    -0.227716630     0.178435195
   33    11.097054050    38.175671506     5.726207614     0.410005308    -0.225663869     0.175987118
   34    20.694358021    33.160437467     8.444440089     0.483092664     0.107598561    -0.071021319
   35    18.066647233    37.762081732     0.620652588     0.418031950    -0.212966668     0.172900224
   36    17.580415601    32.748841608     5.954723296     0.450790177    -0.174940899     0.127215950
   37    18.085974962    35.361721493     7.891434554     0.412254302    -0.214998544     0.183907631
   38    16.171023152    36.278928264     4.590573301     0.428895817    -0.197229103     0.164769714
   39    18.357529852    35.974268977     4.016099291     0.436187452    -0.184714275     0.160066060
   40    13.123940284    38.993024725     6.563064192     0.408935220    -0.224128989     0.180383431
   41    16.623312328    32.184929289     4.004041305     0.449925137    -0.174223334     0.131200614
   42    10.907422607    38.626516755     3.453075355     0.419694455    -0.200103316     0.183889171
   43    14.445233335    37.211207249     5.597466366     0.425748526    -0.200246742     0.169231898
   44    19.385628543    34.210548638     4.880805200     0.437919738    -0.185157985     0.154734688
   45    14.725059353    39.727256088     5.056630451     0.414526791    -0.210919400     0.183522604
   46    17.817085763    31.405759728     2.356371796     0.447845592    -0.180851676     0.129332893
   47    17.241549793    31.975493468     9.921136526     0.415729659    -0.210808366     0.180910705
   48    20.446464899    33.632343335     0.842238617     0.409581356    -0.228012458     0.173935137
   49    13.685931337    35.484501942     1.932133445    -0.417961261     0.189173249    -0.198801072
   50    16.840691361    39.558588278     7.053187356     0.403938960    -0.218360788     0.197868348
   51    20.117661465    35.992200656     0.981572241     0.420628859    -0.196618704     0.185505924
   52    19.825114035    39.754582414     1.682750870     0.404296381    -0.213399463     0.202497174
   53    19.094340698    34.434744033     9.605763676     0.408821246    -0.225014439     0.179537435
   54    15.253452930    32.541453321     9.917181415     0.405856132    -0.243644105     0.160991770
   55    13.699676076    40.209762549     2.818587949     0.405647378    -0.222137808     0.190013155
   56    16.810817609    34.202384199     9.782640662     0.416169602    -0.212621913     0.177749219
   57    15.700484128    36.128551903     7.412409318     0.418557989    -0.208060332     0.177539033
   58    14.573444473    30.416683719     7.202738989     0.407124177    -0.226629939     0.181352628
   59    16.225174514    31.895713493     7.917852701     0.413494563    -0.219495824     0.175624114
   60    19.330480433    36.575028653     9.163473950     0.409474484    -0.219816681     0.184421456
   61    19.495357737    31.948524987    10.066883776     0.424804932    -0.206038289     0.164587341
   62    19.327126933    37.464435449     2.501045844     0.422624199    -0.198449030     0.178904357
   63    12.589706236    37.998066966     9.694881802     0.401298438    -0.228109417     0.192160500
   64    13.929665720    39.319759120     0.761700641     0.408262715    -0.212777606     0.195057032
   65    15.056611430    34.046383036     3.608653212     0.379458217    -0.266498381     0.187056340
   66    11.454921006    36.928130487     8.202009160     0.397907388    -0.232722537     0.193674808
   67    18.285904472    32.957034546     8.313805264     0.415150983    -0.222257123     0.168081625
   68    11.448945278    32.487520656     5.413173196     0.471506831    -0.150837529     0.070209316
   21    22.342807679    36.700830714     4.479675941    -0.414157578     0.205048585    -0.190862720
   22    29.675113349    32.084453168     6.519602661     0.458633020    -0.166602779     0.109083760
   23    29.559186931    39.611778880     7.384442292     0.410264373    -0.218842588     0.183823464
   24    24.505977505    34.499492528     8.212553713     0.419315504    -0.202347513     0.182290954
   25    25.784636315    30.743342810     1.497569784     0.404053849    -0.223579114     0.191710371
   26    22.343862272    31.325720693     8.034714991     0.105024182     0.390910619    -0.293528208
   27    21.008485449    33.325979171     3.322918417     0.419672421    -0.213873393     0.167729637
   28    28.001646167    35.764792918     1.592197281     0.425014534    -0.198989990     0.172527185
   29    28.714275988    38.417605820     5.671712107     0.402554192    -0.225727872     0.192346172
   30    27.484242718    39.331267200     2.368757381     0.415189047    -0.218019955     0.173451302
   31    25.996611779    40.295017893     9.383148596     0.408755974    -0.228656532     0.175027837
   32    28.123486668    30.946005130     8.612077099     0.407509825    -0.227461849     0.179434805
   33    21.186710000    38.320331717     6.014294484     0.410284573    -0.225320919     0.175775574
   34    30.784013971    33.305097678     8.732526958     0.483392577     0.108968845    -0.066763819
   35    28.156303182    37.906741944     0.908739458     0.417626709    -0.213708257     0.172964483
   36    27.670071551    32.893501820     6.242810165     0.450613568    -0.174376863     0.128608407
   37    28.175630912    35.506381704     8.179521424     0.412050778    -0.214817049     0.184574623
   38    26.260679102    36.423588475     4.878660170     0.428721935    -0.197409042     0.165006585
   39    28.447185802    36.118929189     4.304186161     0.435973531    -0.185041301     0.160271010
   40    23.213596234    39.137684937     6.851151062     0.409030007    -0.224128025     0.180169593
   41    26.712968278    32.329589501     4.292128175     0.449734356    -0.173725580     0.132508233
   42    20.997078557    38.771176967     3.741162225     0.420092993    -0.199605048     0.183520304
   43    24.534889284    37.355867461     5.885553236     0.425620438    -0.200372013     0.169405723
   44    29.475284493    34.355208850     5.168892069     0.437711170    -0.185385521     0.155052058
   45    24.814715302    39.871916299     5.344717321     0.414539262    -0.211166711     0.183209772
   46    27.906741713    31.550419940     2.644458666     0.447652479    -0.180464746     0.130536331
   47    27.331205743    32.120153679    10.209223395     0.415466647    -0.210544187     0.181820269
   48    30.536120849    33.777003547     1.130325487     0.409174279    -0.228725060     0.173957628
   49    23.775587287    35.629162154     2.220220314    -0.419054949     0.182956839    -0.202286293
   50    26.930347311    39.703248490     7.341274226     0.403969036    -0.219014652     0.197082725
   51    30.207317415    36.136860868     1.269659111     0.420275903    -0.197309419     0.185572517
   52    29.914769984    39.899242626     1.970837739     0.403873470    -0.214074457     0.202628595
   53    29.183996648    34.579404245     9.893850546     0.408696509    -0.224742659     0.180160764
   54    25.343108880    32.686113533    10.205268284     0.405357841    -0.243505482     0.162450303
   55    23.789332026    40.354422760     3.106674818     0.405498906    -0.222455552     0.189958323
   56    26.900473559    34.347044411    10.070727531     0.415887468    -0.212354486     0.178726568
   57    25.790140077    36.273212115     7.700496187     0.418320083    -0.207980215     0.178192420
   58    24.663100423    30.561343930     7.490825859     0.406831521    -0.226548085     0.182110073
   59    26.314830464    32.040373704     8.205939571     0.413196060    -0.219292080     0.176578594
   60    29.420136383    36.719688864     9.451560820     0.409286205    -0.219631100     0.185059402
   61    29.585013687    32.093185198    10.354970646     0.424585348    -0.205748389     0.165513995
   62    29.416782882    37.609095660     2.789132714     0.422256149    -0.199081469     0.179070694
   63    22.679362186    38.142727178     9.982968672     0.401647185    -0.227866104     0.191720051
   64    24.019321670    39.464419332     1.049787511     0.408158553    -0.213048568     0.194979237
   65    25.146267380    34.191043248     3.896740082     0.375362196    -0.271679277     0.187865890
   66    21.544576955    37.072790698     8.490096029     0.398328881    -0.232401202     0.193193644
   67    28.375560422    33.101694757     8.601892133     0.414963041    -0.221951156     0.168947799
   68    21.538601228    32.632180867     5.701260066     0.471853994    -0.149603027     0.070517675
   21    32.432463629    36.845490925     4.767762811    -0.413914071     0.205418761    -0.190992866
   22    39.764769299    32.229113380     6.807689531     0.459119280    -0.165425051     0.108830323
   23    39.648842881    39.756439092     7.672529162     0.410004134    -0.218447941     0.184870515
   24    34.595633455    34.644152740     8.500640582     0.418965977    -0.202477086     0.182949556
   25    35.874292265    30.888003022     1.785656654     0.403527610    -0.223696684     0.192679167
   26    32.433518222    31.470380905     8.322801861     0.113834656     0.388715893    -0.293158022
   27    31.098141399    33.470639382     3.611005286     0.419389436    -0.214713949     0.167363142
   28    38.091302117    35.909453129     1.880284150     0.424592265    -0.198741053     0.173848793
   29    38.803931938    38.562266032     5.959798976     0.402273090    -0.225277659     0.193458879
   30    37.573898668    39.475927412     2.656844251     0.414782442    -0.217841527     0.174644195
   31    36.086267729    40.439678104     9.671235466     0.408414854    -0.228423904     0.176124466
   32    38.213142618    31.090665341     8.900163968     0.407307375    -0.227541582     0.179793023
   33    31.276365949    38.464991929     6.302381353     0.409975411    -0.225605354     0.176131730
   34    40.873669920    33.449757890     9.020613828     0.481572203     0.115539678    -0.068838912
   35    38.245959132    38.051402156     1.196826327     0.417218724    -0.213448189     0.174265334
   36    37.759727501    33.038162031     6.530897035     0.450732094    -0.173788762     0.128988548
   37    38.265286862    35.651041916     8.467608294     0.411655946    -0.215113924     0.185109108
   38    36.350335051    36.568248687     5.166747040     0.428330930    -0.197437799     0.165984728
   39    38.536841752    36.263589401     4.592273030     0.435524065    -0.185006992     0.161527712
   40    33.303252184    39.282345148     7.139237931     0.408714796    -0.224170469     0.180830906
   41    36.802624227    32.474249712     4.580215044     0.449691092    -0.173375092     0.133112731
   42    31.086734507    38.915837178     4.029249094     0.419775069    -0.200171118     0.183631192
   43    34.624545234    37.500527672     6.173640105     0.425243861    -0.200401673     0.170313911
   44    39.564940442    34.499869061     5.456978939     0.437232761    -0.185462040     0.156305293
   45    34.904371252    40.016576511     5.632804190     0.414189043    -0.211108354     0.184067107
   46    37.996397663    31.695080152     2.932545535     0.447538995    -0.180230064     0.131247751
   47    37.420861693    32.264813891    10.497310265     0.415106254    -0.210855488     0.182282093
   48    40.625776799    33.921663758     1.418412356     0.408579322    -0.228605804     0.175505910
   49    33.865243236    35.773822365     2.508307184    -0.419467183     0.179237539    -0.204746641
   50    37.020003261    39.847908701     7.629361095     0.403645432    -0.218714519     0.198076562
   51    40.296973364    36.281521080     1.557745980     0.419851218    -0.197021921     0.186835000
   52    40.004425934    40.043902837     2.258924609     0.403384537    -0.213833777     0.203852964
   53    39.273652598    34.724064457    10.181937415     0.408191862    -0.225253187     0.180666559
   54    35.432764830    32.830773745    10.493355154     0.404998446    -0.243855895     0.162820641
   55    33.878987976    40.499082972     3.394761688     0.405049355    -0.222494818     0.190869265
   56    36.990129509    34.491704623    10.358814401     0.415494430    -0.212694288     0.179235929
   57    35.879796027    36.417872327     7.988583057     0.417952987    -0.208104240     0.178907590
   58    34.752756373    30.706004142     7.778912728     0.406537424    -0.226539854     0.182775867
   59    36.404486414    32.185033916     8.494026440     0.412930858    -0.219368870     0.177102810
   60    39.509792333    36.864349076     9.739647689     0.408970129    -0.219937623     0.185393840
   61    39.674669637    32.237845410    10.643057516     0.424241811    -0.206071717     0.165991968
   62    39.506438832    37.753755872     3.077219583     0.421865242    -0.198895584     0.180195074
   63    32.769018136    38.287387390    10.271055541     0.401432778    -0.227642998     0.192432820
   64    34.108977620    39.609079544     1.337874380     0.407662323    -0.213186396     0.195864726
   65    35.235923330    34.335703459     4.184826951     0.361983651    -0.275866529     0.207039838
   66    31.634232905    37.217450910     8.778182899     0.398129994    -0.232218627     0.193822128
   67    38.465216372    33.246354969     8.889979003     0.414612558    -0.222286063     0.169367449
   68    31.628257178    32.776841079     5.989346936     0.471913095    -0.148147453     0.073146174
   21     2.045140537     6.368365464    13.823611293    -0.413440877     0.206207415    -0.191167840
   22     9.377446208     1.751987918    15.863538013     0.458481438    -0.166380284     0.110056223
   23     9.261519789     9.279313630    16.728377644     0.410181043    -0.218112999     0.184873555
   24     4.208310363     4.167027278    17.556489065     0.418617419    -0.203193283     0.182953400
   25     5.486969173     0.410877561    10.841505136     0.403504616    -0.224040558     0.192327463
   26     2.046195130     0.993255443    17.378650343     0.100083574     0.392554235    -0.293060489
   27     0.710818307     2.993513921    12.666853769     0.418245705    -0.215544138     0.169148617
   28     7.703979025     5.432327668    10.936132633     0.424493101    -0.198943704     0.173859168
   29     8.416608846     8.085140570    15.015647459     0.402426454    -0.224966925     0.193501503
   30     7.186575576     8.998801951    11.712692733     0.414921420    -0.217705986     0.174483004
   31     5.698944638     9.962552643    18.727083948     0.408330592    -0.228738657     0.175911212
   32     7.825819526     0.613539880    17.956012451     0.406993588    -0.228228613     0.179632736
   33     0.889042858     7.987866467    15.358229835     0.409457776    -0.226216925     0.176550934
   34    10.486346829     2.972632428    18.076462310     0.482785516     0.113436292    -0.063642384
   35     7.858636041     7.574276694    10.252674810     0.417234744    -0.213574050     0.174072668
   36     7.372404409     2.561036570    15.586745517     0.450227697    -0.174727282     0.129481264
   37     7.877963770     5.173916455    17.523456776     0.411435918    -0.215578557     0.185057750
   38     5.963011960     6.091123225    14.222595522     0.427983382    -0.198167206     0.166011997
   39     8.149518660     5.786463939    13.648121513     0.435290342    -0.185643461     0.161427457
   40     2.915929093     8.805219687    16.195086414     0.408352880    -0.224676574     0.181020337
   41     6.415301136     1.997124251    13.636063527     0.449300147    -0.174245203     0.133296615
   42     0.699411415     8.438711717    13.085097577     0.419221782    -0.200753730     0.184258072
   43     4.237222143     7.023402211    15.229488588     0.424883587    -0.201140702     0.170341878
   44     9.177617351     4.022743600    14.512827421     0.436965533    -0.186166969     0.156214540
   45     4.517048161     9.539451049    14.688652673     0.413931351    -0.211635432     0.184041517
   46     7.609074571     1.217954690    11.988394018     0.447203343    -0.181060243     0.131249225
   47     7.033538601     1.787688429    19.553158747     0.414850267    -0.211512647     0.182103421
   48    10.238453707     3.444538297    10.474260839     0.408507057    -0.228774449     0.175454370
   49     3.477920145     5.296696904    11.564155666    -0.416614572     0.196224876    -0.194751370
   50     6.632680169     9.370783240    16.685209578     0.403506628    -0.219034238     0.198006069
   51     9.909650273     5.804395618    10.613594463     0.419766663    -0.197330383     0.186699406
   52     9.617102843     9.566777376    11.314773091     0.403477227    -0.213934699     0.203563436
   53     8.886329506     4.246938995    19.237785898     0.407990819    -0.225732326     0.180522598
   54     5.045441738     2.353648283    19.549203636     0.404596084    -0.244637543     0.162648335
   55     3.491664884    10.021957510    12.450610170     0.404970907    -0.222818119     0.190658464
   56     6.602806417     4.014579161    19.414662883     0.415257259    -0.213297548     0.179068605
   57     5.492472936     5.940746865    17.044431539     0.417598017    -0.208802023     0.178923478
   58     4.365433281     0.228878680    16.834761211     0.406358207    -0.227180082     0.182379325
   59     6.017163322     1.707908454    17.549874923     0.412678766    -0.220045608     0.176850690
   60     9.122469241     6.387223614    18.795496172     0.408777700    -0.220239476     0.185459875
   61     9.287346545     1.760719949    19.698905998     0.423945565    -0.206767538     0.165883522
   62     9.119115741     7.276630410    12.133068066     0.421776412    -0.199105050     0.180171688
   63     2.381695044     7.810261928    19.326904024     0.401131168    -0.228042048     0.192589227
   64     3.721654528     9.131954082    10.393722863     0.407591095    -0.213473130     0.195700593
   65     4.848600238     3.858577998    13.240675434     0.374517916    -0.266118832     0.197274169
   66     1.246909814     6.740325449    17.834031381     0.397709607    -0.232705852     0.194100632
   67     8.077893280     2.769229508    17.945827485     0.414326966    -0.222918882     0.169234563
   68     1.240934086     2.299715618    15.045195418     0.472197826    -0.149597324     0.068189832
   21    12.134796487     6.513025675    14.111698163    -0.413698355     0.205574292    -0.191292658
   22    19.467102157     1.896648130    16.151624883     0.459165731    -0.167865299     0.104824011
   23    19.351175739     9.423973842    17.016464514     0.410122410    -0.218308950     0.184772323
   24    14.297966313     4.311687490    17.844575934     0.419356267    -0.202540144     0.181982997
   25    15.576625123     0.555537772    11.129592005     0.403960035    -0.223685553     0.191783898
   26    12.135851080     1.137915655    17.666737213     0.099075352     0.400689523    -0.282191390
   27    10.800474257     3.138174132    12.954940638     0.418088075    -0.216261601     0.168621711
   28    17.793634975     5.576987879    11.224219502     0.424894993    -0.198564036     0.173310613
   29    18.506264796     8.229800782    15.303734328     0.402366648    -0.225120264     0.193447532
   30    17.276231526     9.143462162    12.000779603     0.415226859    -0.217318754     0.174238959
   31    15.788600587    10.107212855    19.015170818     0.408438089    -0.228366715     0.176144745
   32    17.915475476     0.758200091    18.244099320     0.407774131    -0.227879831     0.178300422
   33    10.978698808     8.132526679    15.646316705     0.409765469    -0.225587279     0.176642690
   34    20.576002779     3.117292640    18.364549180     0.481645606     0.108296599    -0.079305463
   35    17.948291990     7.718936906    10.540761679     0.417526971    -0.213197008     0.173834013
   36    17.462060359     2.705696781    15.874832387     0.451009687    -0.175107891     0.126204155
   37    17.967619720     5.318576666    17.811543646     0.412016335    -0.214945630     0.184501805
   38    16.052667910     6.235783437    14.510682392     0.428542834    -0.197445552     0.165427609
   39    18.239174610     5.931124151    13.936208382     0.435743647    -0.185048190     0.160887046
   40    13.005585042     8.949879898    16.483173283     0.408617546    -0.224134550     0.181095014
   41    16.504957086     2.141784462    13.924150396     0.450046080    -0.174346929     0.130620343
   42    10.789067365     8.583371928    13.373184446     0.419469416    -0.200058125     0.184450958
   43    14.326878093     7.168062422    15.517575457     0.425426539    -0.200389647     0.169871273
   44    19.267273301     4.167403811    14.800914291     0.437402869    -0.185636368     0.155620915
   45    14.606704110     9.684111261    14.976739542     0.414199538    -0.211025851     0.184138080
   46    17.698730521     1.362614902    12.276480887     0.447860428    -0.181009733     0.129060118
   47    17.123194551     1.932348641    19.841245617     0.415578354    -0.211088072     0.180932191
   48    20.328109657     3.589198508    10.762347708     0.408941097    -0.228595972     0.174674155
   49    13.567576095     5.441357116    11.852242536    -0.419360861     0.190671801    -0.194372664
   50    16.722336119     9.515443451    16.973296447     0.403611239    -0.218673791     0.198191173
   51    19.999306223     5.949055830    10.901681332     0.420091004    -0.196943173     0.186378472
   52    19.706758793     9.711437587    11.602859961     0.403845400    -0.213394109     0.203400706
   53    18.975985456     4.391599207    19.525872767     0.408608499    -0.224872830     0.180197960
   54    15.135097688     2.498308495    19.837290506     0.405604429    -0.243887826     0.161256862
   55    13.581320834    10.166617722    12.738697040     0.405214484    -0.222126892     0.190947287
   56    16.692462367     4.159239373    19.702749753     0.415972782    -0.212779980     0.178020575
   57    15.582128885     6.085407077    17.332518409     0.418296483    -0.208102680     0.178104819
   58    14.455089231     0.373538892    17.122848080     0.407010202    -0.227074934     0.181051567
   59    16.106819272     1.852568666    17.837961792     0.413410464    -0.219787536     0.175457195
   60    19.212125191     6.531883826    19.083583041     0.409205013    -0.219686403     0.185173274
   61    19.377002495     1.905380160    19.986992868     0.424707126    -0.206305576     0.164504912
   62    19.208771690     7.421290622    12.421154935     0.422128285    -0.198758491     0.179729722
   63    12.471350994     7.954922140    19.614990893     0.401140423    -0.227799778     0.192856482
   64    13.811310478     9.276614294    10.681809732     0.407789403    -0.212789024     0.196032226
   65    14.938256188     4.003238210    13.528762303     0.377291891    -0.267801297     0.189560794
   66    11.336565763     6.884985660    18.122118251     0.397747156    -0.232507185     0.194261702
   67    18.167549230     2.913889719    18.233914355     0.415059042    -0.222246034     0.168323177
   68    11.330590036     2.444375829    15.333282288     0.472000691    -0.147226726     0.074428752
   21    22.224452437     6.657685887    14.399785032    -0.413936370     0.205312713    -0.191058556
   22    29.556758107     2.041308342    16.439711752     0.458530306    -0.170561358     0.103241376
   23    29.440831689     9.568634053    17.304551384     0.409625134    -0.219126329     0.184907818
   24    24.387622263     4.456347701    18.132662804     0.418972838    -0.203080865     0.182263334
   25    25.666281073     0.700197984    11.417678875     0.404070165    -0.224012238     0.191169608
   26    22.225507030     1.282575867    17.954824083     0.102869073     0.386965862    -0.299458470
   27    20.890130207     3.282834344    13.243027508     0.418273244    -0.214412041     0.170513842
   28    27.883290925     5.721648091    11.512306372     0.424816076    -0.199151144     0.172829751
   29    28.595920746     8.374460994    15.591821198     0.401957605    -0.225935326     0.193347646
   30    27.365887476     9.288122374    12.288866472     0.414975711    -0.218128332     0.173825171
   31    25.878256537    10.251873066    19.303257687     0.408103391    -0.228939760     0.176176641
   32    28.005131426     0.902860303    18.532186190     0.407333586    -0.228403729     0.178636743
   33    21.068354757     8.277186891    15.934403575     0.409815115    -0.225661235     0.176432930
   34    30.665658728     3.261952852    18.652636049     0.482437534     0.101603844    -0.083250734
   35    28.037947940     7.863597117    10.828848549     0.417360737    -0.213813509     0.173475643
   36    27.551716309     2.850356993    16.162919256     0.450682592    -0.176841668     0.124948893
   37    28.057275670     5.463236878    18.099630515     0.411555740    -0.215556953     0.184816322
   38    26.142323859     6.380443649    14.798769261     0.428323560    -0.197969082     0.165369801
   39    28.328830560     6.075784362    14.224295252     0.435628568    -0.185613540     0.160547080
   40    23.095240992     9.094540110    16.771260153     0.408498339    -0.224441606     0.180983627
   41    26.594613035     2.286444674    14.212237266     0.449866576    -0.175770001     0.129325057
   42    20.878723315     8.728032140    13.661271316     0.419655425    -0.199900168     0.184198933
   43    24.416534042     7.312722634    15.805662327     0.425195406    -0.200905224     0.169840978
   44    29.356929250     4.312064023    15.089001160     0.437373218    -0.186158039     0.155080149
   45    24.696360060     9.828771473    15.264826412     0.414020372    -0.211416293     0.184093136
   46    27.788386471     1.507275113    12.564567757     0.447746309    -0.182134846     0.127867668
   47    27.212850501     2.077008853    20.129332486     0.415146841    -0.211744719     0.181155388
   48    30.417765607     3.733858720    11.050434578     0.409021681    -0.228950310     0.174020172
   49    23.657232044     5.586017327    12.140329406    -0.416360261     0.197406708    -0.194099780
   50    26.811992069     9.660103663    17.261383317     0.403320200    -0.219224915     0.198174804
   51    30.088962172     6.093716041    11.189768202     0.419952281    -0.197560285     0.186037671
   52    29.796414742     9.856097799    11.890946830     0.403613768    -0.214143744     0.203072359
   53    29.065641406     4.536259418    19.813959637     0.408116984    -0.225377534     0.180680643
   54    25.224753638     2.642968706    20.125377375     0.405053022    -0.244737640     0.161355313
   55    23.670976784    10.311277934    13.026783910     0.405086132    -0.222488202     0.190798915
   56    26.782118317     4.303899584    19.990836622     0.415508064    -0.213397178     0.178366737
   57    25.671784835     6.230067288    17.620605278     0.417907425    -0.208699037     0.178320207
   58    24.544745181     0.518199104    17.410934950     0.406771513    -0.227076180     0.181585640
   59    26.196475222     1.997228878    18.126048662     0.413079046    -0.220137724     0.175798419
   60    29.301781141     6.676544038    19.371669911     0.408754553    -0.220319567     0.185415759
   61    29.466658445     2.050040372    20.275079737     0.424267354    -0.207104868     0.164635313
   62    29.298427640     7.565950834    12.709241805     0.421970516    -0.199403278     0.179385663
   63    22.561006944     8.099582351    19.903077763     0.401282082    -0.227798083     0.192563558
   64    23.900966428     9.421274505    10.969896602     0.407719397    -0.213077514     0.195864408
   65    25.027912138     4.147898421    13.816849173     0.384542550    -0.262190950     0.182709970
   66    21.426221713     7.029645872    18.410205120     0.397973482    -0.232364180     0.193969059
   67    28.257205180     3.058549931    18.522001224     0.414584727    -0.222864940     0.168673420
   68    21.420245986     2.589036041    15.621369157     0.472385829    -0.149731825     0.066573337
   21    32.314108387     6.802346099    14.687871902    -0.413574706     0.205808530    -0.191308158
   22    39.646414057     2.185968553    16.727798622     0.458888655    -0.167923893     0.105937570
   23    39.530487639     9.713294265    17.592638253     0.409494961    -0.219161004     0.185154885
   24    34.477278212     4.601007913    18.420749674     0.418938286    -0.202880575     0.182565562
   25    35.755937022     0.844858196    11.705765745     0.403693908    -0.223922129     0.192067980
   26    32.315162980     1.427236078    18.242910952     0.113430089     0.379632230    -0.304980303
   27    30.979786157     3.427494556    13.531114377     0.418891428    -0.213748357     0.169828182
   28    37.972946874     5.866308303    11.800393242     0.424483982    -0.199488832     0.173255749
   29    38.685576696     8.519121205    15.879908068     0.401683092    -0.226116274     0.193706283
   30    37.455543426     9.432782586    12.576953342     0.414656089    -0.218345898     0.174314075
   31    35.967912487    10.396533278    19.591344557     0.407851381    -0.229231319     0.176380989
   32    38.094787376     1.047520515    18.820273059     0.407275972    -0.227935118     0.179365170
   33    31.158010707     8.421847102    16.222490444     0.409524261    -0.226094813     0.176553151
   34    40.755314678     3.406613063    18.940722919     0.482010195     0.108954894    -0.076124920
   35    38.127603890     8.008257329    11.116935418     0.417122642    -0.214131037     0.173656560
   36    37.641372258     2.995017205    16.451006126     0.450685118    -0.175425093     0.126921083
   37    38.146931619     5.607897089    18.387717385     0.411577671    -0.215324822     0.185037947
   38    36.231979809     6.525103860    15.086856131     0.428181848    -0.198125061     0.165549887
   39    38.418486510     6.220444574    14.512382122     0.435454812    -0.185849844     0.160744961
   40    33.184896942     9.239200322    17.059347022     0.408253909    -0.224742044     0.181162247
   41    36.684268985     2.431104886    14.500324135     0.449744113    -0.174689461     0.131201468
   42    30.968379265     8.872692352    13.949358185     0.419401455    -0.200525482     0.184097667
   43    34.506189992     7.457382846    16.093749196     0.425062077    -0.201047180     0.170006653
   44    39.446585200     4.456724235    15.377088030     0.437155758    -0.186407400     0.155393450
   45    34.786016010     9.973431684    15.552913282     0.413820576    -0.211731543     0.184180034
   46    37.878042420     1.651935325    12.852654626     0.447574864    -0.181366698     0.129548684
   47    37.302506451     2.221669064    20.417419356     0.415125388    -0.211100272     0.181954905
   48    40.507421557     3.878518932    11.338521447     0.408565452    -0.229382996     0.174521381
   49    33.746887994     5.730677539    12.428416275    -0.419774576     0.185602479    -0.198345720
   50    36.901648019     9.804763875    17.549470186     0.403044825    -0.219525451     0.198402231
   51    40.178618122     6.238376253    11.477855072     0.419735338    -0.197851024     0.186218200
   52    39.886070692    10.000758011    12.179033700     0.403287076    -0.214540856     0.203302128
   53    39.155297356     4.680919630    20.102046506     0.408133471    -0.225190509     0.180876490
   54    35.314409587     2.787628918    20.413464245     0.405135933    -0.243982249     0.162288441
   55    33.760632733    10.455938145    13.314870779     0.404884563    -0.222789669     0.190874970
   56    36.871774267     4.448559796    20.278923492     0.415540224    -0.212860237     0.178932507
   57    35.761440785     6.374727500    17.908692148     0.417883069    -0.208533378     0.178570911
   58    34.634401130     0.662859315    17.699021819     0.406576631    -0.226695332     0.182495670
   59    36.286131171     2.141889089    18.414135532     0.412959908    -0.219692792     0.176632928
   60    39.391437091     6.821204249    19.659756781     0.408788089    -0.220075031     0.185632108
   61    39.556314395     2.194700584    20.563166607     0.424276070    -0.206319662     0.165595933
   62    39.388083590     7.710611045    12.997328674     0.421685662    -0.199651687     0.179778772
   63    32.650662894     8.244242563    20.191164632     0.400866816    -0.228319180     0.192811171
   64    33.990622378     9.565934717    11.257983471     0.407518652    -0.213415021     0.195914718
   65    35.117568087     4.292558633    14.104936042     0.377600495    -0.264613046     0.193385114
   66    31.515877663     7.174306084    18.698291990     0.397564369    -0.232864137     0.194208306
   67    38.346861130     3.203210143    18.810088094     0.414575598    -0.222492262     0.169187077
   68    31.509901936     2.733696253    15.909456027     0.471494936    -0.153413163     0.064474230
   21     2.180216008    16.393458985    13.854236717    -0.413412892     0.206075744    -0.191370238
   22     9.512521679    11.777081439    15.894163437     0.459713201    -0.163929813     0.108585399
   23     9.396595261    19.304407151    16.759003068     0.410148838    -0.218565824     0.184409628
   24     4.343385834    14.192120799    17.587114488     0.418744619    -0.203248727     0.182600380
   25     5.622044644    10.435971082    10.872130559     0.403510917    -0.224152878     0.192183316
   26     2.181270601    11.018348964    17.409275767     0.107769374     0.395724316    -0.285986062
   27     0.845893778    13.018607442    12.697479192     0.417898809    -0.216196315     0.169173695
   28     7.839054496    15.457421189    10.966758056     0.424843428    -0.198609506     0.173384907
   29     8.551684317    18.110234091    15.046272882     0.402388624    -0.225483406     0.192978312
   30     7.321651047    19.023895472    11.743318157     0.415288727    -0.217433065     0.173948657
   31     5.834020109    19.987646164    18.757709372     0.408230328    -0.228985508     0.175822741
   32     7.960894997    10.638633401    17.986637874     0.407235281    -0.228064566     0.179293000
   33     1.024118329    18.012959989    15.388855259     0.409356142    -0.226495173     0.176429832
   34    10.621422300    12.997725949    18.107087734     0.481639070     0.116018511    -0.067553768
   35     7.993711512    17.599370215    10.283300233     0.417566542    -0.213286474     0.173629096
   36     7.507479880    12.586130091    15.617370941     0.451240073    -0.172751680     0.128605031
   37     8.013039241    15.199009976    17.554082199     0.411478427    -0.215671054     0.184855349
   38     6.098087431    16.116216746    14.253220946     0.428152119    -0.198013255     0.165760411
   39     8.284594131    15.811557460    13.678746936     0.435593593    -0.185168725     0.161154474
   40     3.051004564    18.830313208    16.225711837     0.408317681    -0.224909580     0.180810265
   41     6.550376607    12.022217772    13.666688950     0.450311282    -0.172162895     0.132588412
   42     0.834486886    18.463805238    13.115723000     0.419101242    -0.200952232     0.184315896
   43     4.372297614    17.048495732    15.260114011     0.425029530    -0.201043852     0.170091940
   44     9.312692822    14.047837121    14.543452845     0.437276153    -0.185620031     0.155996058
   45     4.652123632    19.564544570    14.719278096     0.413973474    -0.211698007     0.183874732
   46     7.744150042    11.243048211    12.019019441     0.448063335    -0.179338663     0.130678583
   47     7.168614072    11.812781950    19.583784171     0.415008498    -0.211491493     0.181767145
   48    10.373529178    13.469631818    10.504886262     0.408725591    -0.228553035     0.175233849
   49     3.612995616    15.321790425    11.594781090    -0.424999275     0.174048483    -0.197693556
   50     6.767755640    19.395876761    16.715835001     0.403477425    -0.219302959     0.197767994
   51    10.044725744    15.829489139    10.644219886     0.420089314    -0.197005114     0.186316808
   52     9.752178314    19.591870897    11.345398515     0.403921863    -0.213479891     0.203158719
   53     9.021404977    14.272032516    19.268411321     0.408048545    -0.225767302     0.180348302
   54     5.180517209    12.378741804    19.579829060     0.404858155    -0.244600389     0.162050992
   55     3.626740355    20.047051031    12.481235594     0.405131157    -0.222697933     0.190458333
   56     6.737881888    14.039672682    19.445288307     0.415397815    -0.213345406     0.178685178
   57     5.627548407    15.965840386    17.075056963     0.417727976    -0.208812512     0.178607595
   58     4.500508752    10.253972201    16.865386634     0.406489023    -0.227243084     0.182008942
   59     6.152238793    11.733001975    17.580500346     0.412924021    -0.219905770     0.176451709
   60     9.257544712    16.412317135    18.826121595     0.408723319    -0.220412513     0.185374142
   61     9.422422016    11.785813470    19.729531422     0.424107317    -0.206702122     0.165551250
   62     9.254191212    17.301723931    12.163693489     0.422064543    -0.198825320     0.179805489
   63     2.516770515    17.835355449    19.357529447     0.400570211    -0.229030105     0.192584312
   64     3.856729999    19.157047603    10.424348286     0.407724302    -0.213375025     0.195530029
   65     4.983675709    13.883671519    13.271300857     0.425127061    -0.192033326     0.179972732
   66     1.381985285    16.765418970    17.864656805     0.397175973    -0.233625205     0.194088923
   67     8.212968751    12.794323029    17.976452909     0.414560327    -0.222720257     0.168924311
   68     1.376009558    12.324809139    15.075820841     0.471704327    -0.148971014     0.072819397
   21    12.269871958    16.538119196    14.142323586    -0.414023278     0.204905900    -0.191306815
   22    19.602177629    11.921741651    16.182250306     0.458821905    -0.167372855     0.107092424
   23    19.486251210    19.449067363    17.047089938     0.410083185    -0.217875650     0.185369853
   24    14.433041784    14.336781011    17.875201358     0.419115394    -0.202393549     0.182699583
   25    15.711700594    10.580631293    11.160217429     0.403866267    -0.223348787     0.192372964
   26    12.270926551    11.163009176    17.697362637     0.117616899     0.390182780    -0.289695812
   27    10.935549728    13.163267653    12.985566062     0.417771101    -0.216288254     0.169371479
   28    17.928710446    15.602081400    11.254844926     0.424960516    -0.198602665     0.173105580
   29    18.641340267    18.254894303    15.334359752     0.402209422    -0.224833624     0.194106730
   30    17.411306997    19.168555683    12.031405026     0.415339363    -0.217249963     0.174056506
   31    15.923676059    20.132306376    19.045796241     0.408749829    -0.227648827     0.176350757
   32    18.050550947    10.783293613    18.274724744     0.407378654    -0.227669476     0.179469334
   33    11.113774279    18.157620200    15.676942129     0.410015207    -0.225233514     0.176514572
   34    20.711078250    13.142386161    18.395174603     0.482409782     0.109194071    -0.073194650
   35    18.083367461    17.744030427    10.571387103     0.417596135    -0.213226177     0.173631982
   36    17.597135830    12.730790302    15.905457810     0.450693587    -0.174839737     0.127696348
   37    18.102695191    15.343670187    17.842169069     0.411828660    -0.214679453     0.185229282
   38    16.187743381    16.260876958    14.541307815     0.428571533    -0.197107235     0.165756385
   39    18.374250081    15.956217672    13.966833806     0.435802563    -0.184761766     0.161056562
   40    13.140660513    18.974973419    16.513798707     0.408922727    -0.223638031     0.181019984
   41    16.640032557    12.166877983    13.954775820     0.449720006    -0.174201006     0.131931519
   42    10.924142836    18.608465450    13.403809870     0.419682034    -0.199815188     0.184230511
   43    14.461953564    17.193155943    15.548200881     0.425477298    -0.200033863     0.170163224
   44    19.402348772    14.192497332    14.831539714     0.437504111    -0.185252865     0.155793224
   45    14.741779581    19.709204782    15.007364966     0.414485407    -0.210499959     0.184096753
   46    17.833805992    11.387708423    12.307106311     0.447591859    -0.180857699     0.130199924
   47    17.258270022    11.957442162    19.871871040     0.415295893    -0.210742363     0.181980708
   48    20.463185128    13.614292029    10.792973132     0.409015032    -0.228778341     0.174261799
   49    13.702651566    15.466450637    11.882867960    -0.421563995     0.178952018    -0.200648880
   50    16.857411590    19.540536972    17.003921871     0.403939287    -0.217906582     0.198367774
   51    20.134381694    15.974149351    10.932306756     0.420127464    -0.196932974     0.186307052
   52    19.841834264    19.736531108    11.633485384     0.403972990    -0.213302301     0.203243577
   53    19.111060927    14.416692728    19.556498191     0.408393454    -0.224618327     0.181001088
   54    15.270173159    12.523402016    19.867915929     0.405089262    -0.243935737     0.162474755
   55    13.716396305    20.191711243    12.769322464     0.405564966    -0.221756827     0.190633072
   56    16.827537838    14.184332894    19.733375176     0.415673043    -0.212526122     0.179021141
   57    15.717204356    16.110500598    17.363143832     0.418119844    -0.207919819     0.178732048
   58    14.590164702    10.398632413    17.153473504     0.406561476    -0.226814267     0.182381618
   59    16.241894743    11.877662187    17.868587216     0.412994836    -0.219571985     0.176701469
   60    19.347200662    16.556977347    19.114208465     0.409101424    -0.219321222     0.185833869
   61    19.512077966    11.930473681    20.017618291     0.424479718    -0.205872028     0.165631147
   62    19.343847161    17.446384143    12.451780359     0.422136810    -0.198660440     0.179818084
   63    12.606426465    17.980015661    19.645616317     0.401152775    -0.227893411     0.192720119
   64    13.946385949    19.301707815    10.712435156     0.408174859    -0.212399816     0.195651738
   65    15.073331659    14.028331731    13.559387727     0.371959585    -0.274001012     0.191231569
   66    11.471641234    16.910079181    18.152743674     0.397759554    -0.232617656     0.194104001
   67    18.302624701    12.938983240    18.264539778     0.414796704    -0.222034626     0.169246326
   68    11.465665507    12.469469350    15.363907711     0.473253372    -0.144260829     0.072249976
   21    22.359527908    16.682779408    14.430410456    -0.413366401     0.205717250    -0.191855758
   22    29.691833578    12.066401863    16.470337176     0.457855421    -0.169335941     0.108137653
   23    29.575907160    19.593727574    17.335176807     0.409958609    -0.218584609     0.184809923
   24    24.522697734    14.481441222    18.163288228     0.418566623    -0.203499878     0.182728712
   25    25.801356544    10.725291505    11.448304299     0.403544443    -0.224208735     0.192047718
   26    22.360582501    11.307669388    17.985449506     0.111300082     0.390324179    -0.291991999
   27    21.025205678    13.307927865    13.273652931     0.418907695    -0.214086413     0.169361599
   28    28.018366396    15.746741612    11.542931795     0.424649142    -0.199175116     0.173211949
   29    28.730996217    18.399554515    15.622446622     0.402210514    -0.225441351     0.193398292
   30    27.500962947    19.313215895    12.319491896     0.415090693    -0.217786587     0.173979076
   31    26.013332008    20.276966587    19.333883111     0.408245359    -0.228731625     0.176118059
   32    28.140206897    10.927953824    18.562811613     0.406917912    -0.228432780     0.179544640
   33    21.203430228    18.302280412    15.965028998     0.409749062    -0.225594552     0.176671458
   34    30.800734199    13.287046373    18.683261473     0.484052863     0.104382414    -0.069261367
   35    28.173023411    17.888690638    10.859473972     0.417335916    -0.213772265     0.173586152
   36    27.686791780    12.875450514    16.193544680     0.449906560    -0.176543645     0.128126612
   37    28.192351141    15.488330399    18.130255939     0.411194929    -0.215953538     0.185156150
   38    26.277399330    16.405537170    14.829394685     0.428068264    -0.198308701     0.165623733
   39    28.463906031    16.100877883    14.254920676     0.435392650    -0.185899441     0.160855955
   40    23.230316463    19.119633631    16.801885576     0.408498082    -0.224419544     0.181011560
   41    26.729688506    12.311538195    14.242862689     0.449050858    -0.175783492     0.132111660
   42    21.013798786    18.753125661    13.691896739     0.419555510    -0.199860467     0.184469423
   43    24.551609513    17.337816155    15.836287750     0.424964335    -0.201199741     0.170070510
   44    29.492004722    14.337157544    15.119626584     0.437053870    -0.186543101     0.155517158
   45    24.831435531    19.853864994    15.295451836     0.414053610    -0.211423542     0.184010038
   46    27.923461942    11.532368635    12.595193180     0.446984894    -0.182297824     0.130276661
   47    27.347925972    12.102102374    20.159957910     0.414730773    -0.211752535     0.182096814
   48    30.552841078    13.758952241    11.081060001     0.408573283    -0.229391223     0.174492232
   49    23.792307516    15.611110848    12.170954829    -0.421466970     0.178716253    -0.201062413
   50    26.947067540    19.685197184    17.292008740     0.403450249    -0.219051849     0.198101449
   51    30.224037643    16.118809562    11.220393626     0.419832255    -0.197637528     0.186226435
   52    29.931490213    19.881191320    11.921572254     0.403753274    -0.213937426     0.203012492
   53    29.200716877    14.561352939    19.844585060     0.407806225    -0.225786975     0.180871016
   54    25.359829109    12.668062227    20.156002799     0.404686949    -0.244642266     0.162415008
   55    23.806052255    20.336371455    13.057409333     0.405237262    -0.222424255     0.190552387
   56    26.917193788    14.328993105    20.021462046     0.415164035    -0.213499311     0.179044320
   57    25.806860306    16.255160809    17.651230702     0.417541419    -0.209103607     0.178703231
   58    24.679820652    10.543292625    17.441560373     0.406319045    -0.227264774     0.182361059
   59    26.331550693    12.022322399    18.156674085     0.412635460    -0.220244248     0.176704410
   60    29.436856612    16.701637559    19.402295334     0.408446696    -0.220686773     0.185657332
   61    29.601733916    12.075133893    20.305705161     0.423773008    -0.207174421     0.165816757
   62    29.433503111    17.591044355    12.739867228     0.421820565    -0.199444961     0.179691731
   63    22.696082415    18.124675872    19.933703186     0.401116751    -0.227742876     0.192972884
   64    24.036041899    19.446368026    11.000522025     0.407893018    -0.213024407     0.195560447
   65    25.162987609    14.172991942    13.847474596     0.366884273    -0.275856092     0.198240629
   66    21.561297184    17.054739393    18.440830544     0.397843328    -0.232201670     0.194430117
   67    28.392280651    13.083643452    18.552626648     0.414184927    -0.223110763     0.169329365
   68    21.555321457    12.614129562    15.651994581     0.472122906    -0.149086590     0.069807951
   21    32.449183858    16.827439620    14.718497325    -0.413456333     0.206053415    -0.191300420
   22    39.781489528    12.211062074    16.758424046     0.458253917    -0.167631570     0.109100892
   23    39.665563110    19.738387786    17.623263677     0.409710972    -0.219404389     0.184387183
   24    34.612353683    14.626101434    18.451375097     0.418235418    -0.203899201     0.183041664
   25    35.891012493    10.869951717    11.736391168     0.403199638    -0.224433719     0.192508592
   26    32.450238451    11.452329599    18.273536376     0.120337301     0.390767839    -0.287783652
   27    31.114861628    13.452588077    13.561739801     0.418647682    -0.215460820     0.168257997
   28    38.108022345    15.891401824    11.831018665     0.424297555    -0.199773294     0.173384590
   29    38.820652167    18.544214726    15.910533491     0.401925990    -0.226228928     0.193069860
   30    37.590618897    19.457876107    12.607578765     0.414704270    -0.218404437     0.174126018
   31    36.102987958    20.421626799    19.621969981     0.408020152    -0.229465125     0.175685264
   32    38.229862847    11.072614036    18.850898483     0.406710762    -0.228672107     0.179709274
   33    31.293086178    18.446940623    16.253115868     0.409488443    -0.226267170     0.176415370
   34    40.890390149    13.431706584    18.971348343     0.483111636     0.110219184    -0.066744877
   35    38.262679361    18.033350850    11.147560842     0.416909238    -0.214333706     0.173918803
   36    37.776447729    13.020110726    16.481631549     0.450048372    -0.175534131     0.129012526
   37    38.282007090    15.632990610    18.418342808     0.410967566    -0.216311296     0.185243307
   38    36.367055280    16.550197381    15.117481555     0.427731651    -0.198728863     0.165989380
   39    38.553561981    16.245538095    14.543007545     0.435059890    -0.186205179     0.161401744
   40    33.319972413    19.264293843    17.089972446     0.408236954    -0.224986963     0.180896257
   41    36.819344456    12.456198407    14.530949559     0.449135059    -0.174872041     0.133031831
   42    31.103454736    18.897785873    13.979983609     0.419362914    -0.200568630     0.184138456
   43    34.641265463    17.482476367    16.124374620     0.424647223    -0.201655972     0.170322062
   44    39.581660671    14.481817756    15.407713454     0.436761717    -0.186670264     0.156183914
   45    34.921091481    19.998525205    15.583538705     0.413786453    -0.212021756     0.183922662
   46    38.013117892    11.677028846    12.883280050     0.447007706    -0.181590158     0.131183554
   47    37.437581922    12.246762585    20.448044779     0.414564082    -0.211877410     0.182330977
   48    40.642497028    13.903612453    11.369146871     0.408135731    -0.229915845     0.174825426
   49    33.881963465    15.755771060    12.459041699    -0.420835635     0.185211445    -0.196453783
   50    37.036723490    19.829857396    17.580095610     0.403277782    -0.219743904     0.197685729
   51    40.313693593    16.263469774    11.508480495     0.419469815    -0.198103028     0.186548289
   52    40.021146163    20.025851532    12.209659124     0.403342497    -0.214522546     0.203211484
   53    39.290372827    14.706013151    20.132671930     0.407541219    -0.226308543     0.180816478
   54    35.449485059    12.812722439    20.444089669     0.404296044    -0.245130734     0.162651874
   55    33.895708204    20.481031666    13.345496203     0.404917983    -0.222918893     0.190653072
   56    37.006849738    14.473653317    20.309548916     0.414886401    -0.213860499     0.179256690
   57    35.896516256    16.399821021    17.939317572     0.417224473    -0.209491186     0.178989336
   58    34.769476601    10.687952836    17.729647243     0.406020574    -0.227658106     0.182535149
   59    36.421206642    12.166982610    18.444760955     0.412372682    -0.220552734     0.176932932
   60    39.526512562    16.846297770    19.690382204     0.408248471    -0.221096008     0.185606414
   61    39.691389866    12.219794105    20.593792030     0.423684743    -0.207147094     0.166076248
   62    39.523159061    17.735704566    13.027954098     0.421529925    -0.199890304     0.179878818
   63    32.785738365    18.269336084    20.221790056     0.400614346    -0.228889947     0.192659123
   64    34.125697849    19.591028238    11.288608895     0.407595329    -0.213462118     0.195703787
   65    35.252643558    14.317652154    14.135561466     0.375758060    -0.274366351     0.183109219
   66    31.650953134    17.199399605    18.728917413     0.397288633    -0.233372998     0.194161751
   67    38.481936601    13.228303664    18.840713518     0.413990670    -0.223411244     0.169408210
   68    31.644977407    12.758789774    15.940081450     0.471078953    -0.151522905     0.071592103
   21     2.315291480    26.418552506    13.884862140    -0.414092714     0.205434193    -0.190588604
   22     9.647597150    21.802174960    15.924788860     0.459073352    -0.166802291     0.106904879
   23     9.531670732    29.329500672    16.789628491     0.410609678    -0.218112075     0.183920677
   24     4.478461305    24.217214320    17.617739912     0.419188133    -0.202932582     0.181933163
   25     5.757120115    20.461064603    10.902755983     0.403943151    -0.223746031     0.191748911
   26     2.316346072    21.043442485    17.439901190     0.104510982     0.387421650    -0.298298373
   27     0.980969250    23.043700963    12.728104616     0.418720541    -0.214523991     0.169270686
   28     7.974129967    25.482514710    10.997383480     0.425266694    -0.198862290     0.172052400
   29     8.686759788    28.135327612    15.076898306     0.402909493    -0.225059134     0.192385880
   30     7.456726518    29.048988993    11.773943580     0.415440975    -0.217699419     0.173250568
   31     5.969095580    30.012739685    18.788334795     0.408844271    -0.228453520     0.175086697
   32     8.095970468    20.663726922    18.017263298     0.407253849    -0.228224304     0.179047395
   33     1.159193800    28.038053510    15.419480683     0.410051897    -0.225603208     0.175956342
   34    10.756497771    23.022819470    18.137713157     0.482120066     0.111119524    -0.072198982
   35     8.128786983    27.624463736    10.313925657     0.417859921    -0.213502738     0.172654764
   36     7.642555351    22.611223612    15.647996364     0.450938702    -0.174527813     0.127256941
   37     8.148114712    25.224103497    17.584707623     0.412008948    -0.215139977     0.184291663
   38     6.233162902    26.141310267    14.283846369     0.428773721    -0.197546080     0.164707750
   39     8.419669602    25.836650981    13.709372360     0.436093674    -0.185082548     0.159896084
   40     3.186080035    28.855406729    16.256337261     0.408925133    -0.224225274     0.180286610
   41     6.685452078    22.047311293    13.697314374     0.450014995    -0.173830098     0.131413855
   42     0.969562358    28.488898759    13.146348424     0.419717128    -0.200052461     0.183892754
   43     4.507373085    27.073589253    15.290739435     0.425640198    -0.200524958     0.169174947
   44     9.447768293    24.072930642    14.574078268     0.437833215    -0.185474083     0.154600906
   45     4.787199103    29.589638091    14.749903520     0.414518555    -0.211158054     0.183266592
   46     7.879225513    21.268141732    12.049644865     0.447872368    -0.180557705     0.129650518
   47     7.303689543    21.837875471    19.614409594     0.415025342    -0.211592776     0.181610744
   48    10.508604649    23.494725339    10.535511686     0.409284987    -0.228986793     0.173351804
   49     3.748071087    25.346883946    11.625406514    -0.419180660     0.192075704    -0.193376571
   50     6.902831111    29.420970282    16.746460425     0.404055934    -0.218879023     0.197055259
   51    10.179801215    25.854582660    10.674845310     0.420484635    -0.197208708     0.185206363
   52     9.887253785    29.616964418    11.376023938     0.404138291    -0.213820145     0.202368939
   53     9.156480448    24.297126037    19.299036745     0.408467762    -0.225239302     0.180059280
   54     5.315592680    22.403835325    19.610454483     0.404815573    -0.244692808     0.162017844
   55     3.761815826    30.072144552    12.511861017     0.405455342    -0.222443743     0.190065111
   56     6.872957359    24.064766203    19.475913730     0.415531288    -0.213279125     0.178453815
   57     5.762623878    25.990933907    17.105682386     0.418233324    -0.208437341     0.177861636
   58     4.635584223    20.279065722    16.896012058     0.406437174    -0.227265048     0.182097286
   59     6.287314264    21.758095496    17.611125770     0.412875645    -0.220105723     0.176315548
   60     9.392620183    26.437410656    18.856747019     0.409374971    -0.219765956     0.184702619
   61     9.557497487    21.810906991    19.760156845     0.424188508    -0.206725481     0.165313900
   62     9.389266683    27.326817452    12.194318913     0.422494176    -0.198907223     0.178702511
   63     2.651845986    27.860448970    19.388154871     0.401430796    -0.228061653     0.191940613
   64     3.991805470    29.182141124    10.454973710     0.408055612    -0.213063288     0.195178515
   65     5.118751180    23.908765040    13.301926281     0.381686939    -0.262990046     0.187486842
   66     1.517060756    26.790512491    17.895282228     0.398002153    -0.232727887     0.193473556
   67     8.348044222    22.819416550    18.007078332     0.414732932    -0.222610058     0.168645656
   68     1.511085029    22.349902660    15.106446265     0.471679506    -0.150872037     0.068964281
   21    12.404947429    26.563212718    14.172949010    -0.414171482     0.205305558    -0.190556058
   22    19.737253100    21.946835172    16.212875730     0.458529127    -0.166719649     0.109341657
   23    19.621326681    29.474160884    17.077715361     0.410591364    -0.217733464     0.184409519
   24    14.568117255    24.361874532    17.905826782     0.419486792    -0.201742084     0.182567695
   25    15.846776065    20.605724814    11.190842853     0.404135902    -0.223298380     0.191864552
   26    12.406002022    21.188102697    17.727988060     0.099105595     0.392376623    -0.293630153
   27    11.070625199    23.188361175    13.016191485     0.419197817    -0.214831743     0.167691718
   28    18.063785917    25.627174921    11.285470349     0.425250271    -0.198435624     0.172584790
   29    18.776415738    28.279987824    15.364985175     0.402909877    -0.224531763     0.193000308
   30    17.546382468    29.193649204    12.062030450     0.415638037    -0.217260778     0.173328522
   31    16.058751530    30.157399897    19.076421665     0.408895108    -0.228033671     0.175514773
   32    18.185626418    20.808387134    18.305350167     0.407596944    -0.227033342     0.179779288
   33    11.248849750    28.182713721    15.707567552     0.410304024    -0.225316782     0.175735470
   34    20.846153721    23.167479682    18.425800027     0.483154176     0.109899992    -0.066962927
   35    18.218442932    27.769123948    10.602012526     0.417910477    -0.213117459     0.173008040
   36    17.732211301    22.755883824    15.936083234     0.450562162    -0.174370322     0.128797240
   37    18.237770662    25.368763708    17.872794493     0.412228557    -0.214207753     0.184885519
   38    16.322818852    26.285970479    14.571933239     0.428843959    -0.196959039     0.165227103
   39    18.509325552    25.981311193    13.997459230     0.436104229    -0.184615616     0.160406284
   40    13.275735984    29.000066940    16.544424130     0.409089679    -0.223851746     0.180377466
   41    16.775108028    22.191971504    13.985401243     0.449699800    -0.173756760     0.132584609
   42    11.059218307    28.633558971    13.434435293     0.420057908    -0.199879335     0.183301951
   43    14.597029035    27.218249464    15.578826304     0.425723632    -0.199958469     0.169634900
   44    19.537424243    24.217590853    14.862165138     0.437826024    -0.185028821     0.155153819
   45    14.876855053    29.734298303    15.037990389     0.414634858    -0.210803330     0.183411806
   46    17.968881463    21.412801944    12.337731734     0.447636757    -0.180478447     0.130571299
   47    17.393345493    21.982535683    19.902496464     0.415521056    -0.209935837     0.182398454
   48    20.598260599    23.639385550    10.823598555     0.409208699    -0.228532705     0.174129387
   49    13.837727037    25.491544158    11.913493383    -0.420782569     0.183984958    -0.197715868
   50    16.992487061    29.565630493    17.034547294     0.404082320    -0.218371739     0.197563313
   51    20.269457165    25.999242872    10.962932180     0.420457030    -0.196798712     0.185704478
   52    19.976909735    29.761624629    11.664110808     0.404281763    -0.213496853     0.202423690
   53    19.246136398    24.441786249    19.587123614     0.408816304    -0.224156364     0.180618809
   54    15.405248630    22.548495537    19.898541353     0.405493460    -0.243052095     0.162790456
   55    13.851471776    30.216804764    12.799947887     0.405723689    -0.222095165     0.189900042
   56    16.962613309    24.209426415    19.764000600     0.416015189    -0.211751408     0.179144366
   57    15.852279828    26.135594119    17.393769256     0.418492977    -0.207361377     0.178507387
   58    14.725240173    20.423725934    17.184098927     0.406995425    -0.226002653     0.182421285
   59    16.376970214    21.902755708    17.899212639     0.413310447    -0.218836801     0.176875462
   60    19.482276133    26.582070868    19.144833888     0.409534727    -0.218991721     0.185267194
   61    19.647153437    21.955567202    20.048243715     0.424642190    -0.205083786     0.166191610
   62    19.478922633    27.471477664    12.482405782     0.422480036    -0.198512419     0.179174324
   63    12.741501936    28.005109182    19.676241740     0.401787257    -0.227449204     0.191921493
   64    14.081461420    29.326801336    10.743060579     0.408308356    -0.212840376     0.194892948
   65    15.208407130    24.053425252    13.590013150     0.372689990    -0.277452987     0.184721443
   66    11.606716706    26.935172702    18.183369098     0.398375671    -0.232150959     0.193397924
   67    18.437700172    22.964076761    18.295165202     0.415048065    -0.221473619     0.169365109
   68    11.600740978    22.494562871    15.394533135     0.472399133    -0.148136946     0.069960733
   21    22.494603379    26.707872929    14.461035879    -0.414066454     0.205139419    -0.190962798
   22    29.826909049    22.091495384    16.500962600     0.459246211    -0.165463912     0.108234060
   23    29.710982631    29.618821095    17.365802231     0.410226190    -0.218254695     0.184605962
   24    24.657773205    24.506534743    18.193913651     0.418955059    -0.202927798     0.182474566
   25    25.936432015    20.750385026    11.478929722     0.403806740    -0.223808363     0.191963366
   26    22.495657972    21.332762909    18.016074930     0.105243170     0.393273369    -0.290275615
   27    21.160281149    23.333021386    13.304278355     0.419619908    -0.214119489     0.167546940
   28    28.153441867    25.771835133    11.573557219     0.424964016    -0.198535193     0.173174369
   29    28.866071688    28.424648036    15.653072045     0.402498575    -0.225035435     0.193271701
   30    27.636038418    29.338309416    12.350117319     0.415334757    -0.217224722     0.174098994
   31    26.148407479    30.302060108    19.364508535     0.408663683    -0.228302401     0.175704318
   32    28.275282368    20.953047345    18.593437037     0.407133884    -0.228149939     0.179414620
   33    21.338505699    28.327373933    15.995654422     0.410167704    -0.225261657     0.176123935
   34    30.935809670    23.312139894    18.713886897     0.481958353     0.114911767    -0.067167196
   35    28.308098882    27.913784159    10.890099396     0.417610994    -0.213115799     0.173731729
   36    27.821867251    22.900544035    16.224170103     0.450903796    -0.173880985     0.128262115
   37    28.327426612    25.513423920    18.160881362     0.411648872    -0.215487900     0.184689391
   38    26.412474801    26.430630691    14.860020109     0.428430112    -0.197552188     0.165592186
   39    28.598981502    26.125971404    14.285546099     0.435721371    -0.185003305     0.160998957
   40    23.365391934    29.144727152    16.832511000     0.408907853    -0.223972207     0.180640024
   41    26.864763978    22.336631716    14.273488113     0.449927898    -0.173443363     0.132220599
   42    21.148874257    28.778219182    13.722522163     0.420005753    -0.199603982     0.183721032
   43    24.686684984    27.362909676    15.866913174     0.425337828    -0.200505622     0.169956547
   44    29.627080193    24.362251065    15.150252007     0.437373004    -0.185568042     0.155786256
   45    24.966511002    29.878958515    15.326077259     0.414422229    -0.210906321     0.183773610
   46    28.058537413    21.557462156    12.625818604     0.447752481    -0.180355315     0.130344450
   47    27.483001443    22.127195895    20.190583333     0.414895069    -0.211359173     0.182179531
   48    30.687916549    23.784045762    11.111685425     0.408965378    -0.228732397     0.174438558
   49    23.927382987    25.636204369    12.201580253    -0.421306232     0.181919265    -0.198510553
   50    27.082143011    29.710290705    17.322634164     0.403870816    -0.218597215     0.197746357
   51    30.359113114    26.143903083    11.251019049     0.420156483    -0.196875650     0.186302197
   52    30.066565684    29.906284841    11.952197678     0.404028215    -0.213255987     0.203182396
   53    29.335792348    24.586446460    19.875210484     0.408153246    -0.225675584     0.180226132
   54    25.494904580    22.693155748    20.186628223     0.404809356    -0.244465986     0.162375389
   55    23.941127726    30.361464976    13.088034757     0.405552703    -0.221951249     0.190432793
   56    27.052269259    24.354086626    20.052087469     0.415391544    -0.213228769     0.178838915
   57    25.941935777    26.280254330    17.681856126     0.417960860    -0.208484256     0.178446167
   58    24.814896123    20.568386146    17.472185797     0.406483165    -0.227106923     0.182191883
   59    26.466626164    22.047415920    18.187299509     0.412862483    -0.219933455     0.176561167
   60    29.571932083    26.726731080    19.432920758     0.409006732    -0.220248143     0.184943906
   61    29.736809387    22.100227414    20.336330584     0.423978251    -0.206576067     0.166038463
   62    29.568578582    27.616137876    12.770492652     0.422168056    -0.198701350     0.179699488
   63    22.831157886    28.149769393    19.964328610     0.401702616    -0.227223612     0.192365378
   64    24.171117370    29.471461547    11.031147449     0.408181267    -0.212579780     0.195442806
   65    25.298063080    24.198085463    13.878100020     0.371162226    -0.272450580     0.194959696
   66    21.696372655    27.079832914    18.471455967     0.398378177    -0.231753658     0.193868693
   67    28.527356122    23.108736973    18.583252072     0.414549712    -0.222736090     0.168929482
   68    21.690396928    22.639223083    15.682620004     0.471808774    -0.148380994     0.073345493
   21    32.584259329    26.852533141    14.749122749    -0.413816541     0.205437684    -0.191183756
   22    39.916564999    22.236155595    16.789049469     0.458436594    -0.168857010     0.106410524
   23    39.800638581    29.763481307    17.653889100     0.410085510    -0.218432202     0.184708549
   24    34.747429155    24.651194955    18.482000521     0.418836369    -0.203292094     0.182341493
   25    36.026087965    20.895045238    11.767016592     0.403408026    -0.224351833     0.192167166
   26    32.585313922    21.477423120    18.304161799     0.107072298     0.398320766    -0.282623585
   27    31.249937099    23.477681598    13.592365224     0.418181255    -0.215842990     0.168926734
   28    38.243097817    25.916495345    11.861644089     0.424781641    -0.198836678     0.173275886
   29    38.955727638    28.569308247    15.941158915     0.402280902    -0.225327278     0.193384833
   30    37.725694368    29.482969628    12.638204189     0.415074631    -0.217633603     0.174208684
   31    36.238063429    30.446720320    19.652595404     0.408484976    -0.228358676     0.176046412
   32    38.364938318    21.097707557    18.881523906     0.406955355    -0.228789513     0.179004744
   33    31.428161649    28.472034144    16.283741291     0.409920045    -0.225471864     0.176431277
   34    41.025465620    23.456800105    19.001973766     0.482696383     0.106964705    -0.074583869
   35    38.397754832    28.058444371    11.178186266     0.417433546    -0.213482633     0.173707800
   36    37.911523200    23.045204247    16.512256973     0.450413231    -0.175940350     0.127172773
   37    38.417082561    25.658084132    18.448968232     0.411572805    -0.215779622     0.184518240
   38    36.502130751    26.575290902    15.148106978     0.428367447    -0.197759194     0.165507195
   39    38.688637452    26.270631616    14.573632969     0.435657890    -0.185318651     0.160807963
   40    33.455047884    29.289387364    17.120597869     0.408681270    -0.224157877     0.180922265
   41    36.954419927    22.481291928    14.561574982     0.449510377    -0.175090500     0.131467629
   42    31.238530207    28.922879394    14.010609033     0.419703315    -0.199817710     0.184179289
   43    34.776340934    27.507569888    16.155000044     0.425258052    -0.200675779     0.169955352
   44    39.716736142    24.506911277    15.438338877     0.437335234    -0.185871641     0.155530145
   45    35.056166952    30.023618726    15.614164129     0.414244772    -0.211005139     0.184060046
   46    38.148193363    21.702122367    12.913905474     0.447374060    -0.181651952     0.129842285
   47    37.572657393    22.271856106    20.478670203     0.414799277    -0.212028294     0.181619279
   48    40.777572499    23.928705974    11.399772295     0.408650866    -0.229010708     0.174810083
   49    34.017038936    25.780864581    12.489667122    -0.422330640     0.183301791    -0.195031495
   50    37.171798961    29.854950917    17.610721034     0.403696728    -0.218664667     0.198027057
   51    40.448769064    26.288563295    11.539105919     0.420035390    -0.197219787     0.186211243
   52    40.156221634    30.050945053    12.240284547     0.403765380    -0.213698331     0.203240107
   53    39.425448298    24.731106672    20.163297354     0.408082997    -0.225791834     0.180239605
   54    35.584560530    22.837815960    20.474715092     0.404695282    -0.244969618     0.161900014
   55    34.030783676    30.506125187    13.376121626     0.405319302    -0.222022995     0.190845628
   56    37.141925209    24.498746838    20.340174339     0.415302830    -0.213661081     0.178528715
   57    36.031591727    26.424914542    17.969942995     0.417857220    -0.208794582     0.178326012
   58    34.904552072    20.713046357    17.760272666     0.406281142    -0.227863485     0.181697182
   59    36.556282113    22.192076131    18.475386379     0.412657460    -0.220670078     0.176120802
   60    39.661588033    26.871391291    19.721007628     0.408958725    -0.220370004     0.184904901
   61    39.826465337    22.244887626    20.624417454     0.423953593    -0.207319975     0.165171968
   62    39.658234532    27.760798087    13.058579522     0.422059793    -0.199014878     0.179606819
   63    32.920813836    28.294429605    20.252415479     0.401343414    -0.227903975     0.192310277
   64    34.260773320    29.616121759    11.319234319     0.407945488    -0.212613570     0.195897802
   65    35.387719029    24.342745675    14.166186889     0.376904125    -0.272853284     0.183014661
   66    31.786028605    27.224493126    18.759542837     0.397943864    -0.232592137     0.193756494
   67    38.617012072    23.253397185    18.871338941     0.414375903    -0.223202061     0.168740780
   68    31.780052878    22.783883295    15.970706874     0.472727074    -0.146124667     0.071949255
   21     2.450366951    36.443646027    13.915487564    -0.413573312     0.205908433    -0.191203642
   22     9.782672621    31.827268481    15.955414284     0.459234756    -0.165415333     0.108356848
   23     9.666746203    39.354594193    16.820253915     0.409713461    -0.218666014     0.185256725
   24     4.613536776    34.242307841    17.648365336     0.419080049    -0.203138765     0.181952067
   25     5.892195586    30.486158124    10.933381407     0.403942596    -0.224042941     0.191403083
   26     2.451421543    31.068536007    17.470526614     0.098704262     0.395670252    -0.289313878
   27     1.116044721    33.068794484    12.758730039     0.418506572    -0.215208732     0.168930315
   28     8.109205438    35.507608231    11.028008903     0.424677281    -0.199190042     0.173125777
   29     8.821835260    38.160421133    15.107523729     0.401841758    -0.225683489     0.193881832
   30     7.591801989    39.074082514    11.804569004     0.414906450    -0.217973030     0.174184948
   31     6.104171051    40.037833206    18.818960219     0.408147774    -0.228836518     0.176207953
   32     8.231045939    30.688820443    18.047888721     0.407756474    -0.227839211     0.178392689
   33     1.294269271    38.063147031    15.450106106     0.409665972    -0.225988917     0.176359861
   34    10.891573242    33.047912991    18.168338581     0.481958815     0.115545862    -0.066067044
   35     8.263862454    37.649557257    10.344551080     0.417274944    -0.213824370     0.173668533
   36     7.777630822    32.636317133    15.678621788     0.450859132    -0.174096074     0.128127282
   37     8.283190183    35.249197018    17.615333047     0.411854575    -0.215556718     0.184149695
   38     6.368238373    36.166403788    14.314471793     0.428234807    -0.198125248     0.165412625
   39     8.554745073    35.861744502    13.739997784     0.435551595    -0.185600695     0.160770612
   40     3.321155506    38.880500250    16.286962684     0.408388443    -0.224617620     0.181013271
   41     6.820527549    32.072404814    13.727939797     0.449884925    -0.173726551     0.131994847
   42     1.104637829    38.513992280    13.176973847     0.419448668    -0.200428801     0.184095384
   43     4.642448556    37.098682774    15.321364858     0.425091740    -0.201083714     0.169889237
   44     9.582843764    34.098024163    14.604703692     0.437280824    -0.186110366     0.155397595
   45     4.922274574    39.614731612    14.780528943     0.413954206    -0.211563510     0.184072802
   46     8.014300984    31.293235253    12.080270288     0.447710328    -0.180667551     0.130056517
   47     7.438765014    31.862968992    19.645035018     0.415546741    -0.211120690     0.180966738
   48    10.643680120    33.519818860    10.566137109     0.408810442    -0.229168065     0.174229792
   49     3.883146558    35.371977467    11.656031937    -0.421022785     0.182437689    -0.198636110
   50     7.037906582    39.446063803    16.777085848     0.403241482    -0.219261807     0.198294142
   51    10.314876686    35.879676181    10.705470734     0.419885751    -0.197537687     0.186211757
   52    10.022329256    39.642057939    11.406649362     0.403446945    -0.214184590     0.203360576
   53     9.291555919    34.322219558    19.329662168     0.408482276    -0.225600392     0.179573642
   54     5.450668151    32.428928846    19.641079907     0.405391940    -0.244050171     0.161545317
   55     3.896891297    40.097238073    12.542486441     0.405047153    -0.222541717     0.190819256
   56     7.008032830    34.089859724    19.506539154     0.415856392    -0.213057932     0.177960048
   57     5.897699349    36.016027428    17.136307810     0.418017403    -0.208754095     0.177997693
   58     4.770659694    30.304159243    16.926637481     0.407041764    -0.226832077     0.181284890
   59     6.422389735    31.783189017    17.641751193     0.413395082    -0.219632822     0.175687023
   60     9.527695654    36.462504177    18.887372442     0.409141729    -0.220299493     0.184583799
   61     9.692572958    31.836000512    19.790782269     0.424613393    -0.206301427     0.164751899
   62     9.524342154    37.351910974    12.224944336     0.421883916    -0.199342303     0.179656917
   63     2.786921457    37.885542491    19.418780294     0.401152534    -0.228150736     0.192415920
   64     4.126880941    39.207234645    10.485599133     0.407675383    -0.213136427     0.195891923
   65     5.253826651    33.933858561    13.332551704     0.370837748    -0.275917651     0.190653649
   66     1.652136227    36.815606012    17.925907652     0.397781542    -0.232729900     0.193924311
   67     8.483119693    32.844510071    18.037703756     0.414941536    -0.222649749     0.168079181
   68     1.646160500    32.374996181    15.137071689     0.471838691    -0.149194731     0.071478542
   21    12.540022900    36.588306239    14.203574433    -0.413649530     0.205625388    -0.191343319
   22    19.872328571    31.971928693    16.243501154     0.459402340    -0.165684523     0.107229330
   23    19.756402152    39.499254405    17.108340785     0.410550287    -0.218551244     0.183531512
   24    14.703192726    34.386968053    17.936452205     0.419249376    -0.202673939     0.182080298
   25    15.981851536    30.630818335    11.221468276     0.404249510    -0.223656452     0.191207021
   26    12.541077493    31.213196218    17.758613484     0.108584128     0.397315701    -0.283460263
   27    11.205700670    33.213454696    13.046816909     0.418230566    -0.216420384     0.168063712
   28    18.198861388    35.652268442    11.316095773     0.425169561    -0.198819195     0.172342021
   29    18.911491209    38.305081345    15.395610599     0.402886252    -0.225277650     0.192178690
   30    17.681457939    39.218742725    12.092655873     0.415450308    -0.217576957     0.173381975
   31    16.193827001    40.182493418    19.107047089     0.408843756    -0.228582992     0.174918834
   32    18.320701889    30.833480655    18.335975591     0.407785906    -0.227351538     0.178946734
   33    11.383925221    38.207807242    15.738192976     0.409817957    -0.225863469     0.176167350
   34    20.981229192    33.192573203    18.456425451     0.481895842     0.112240284    -0.071961907
   35    18.353518403    37.794217469    10.632637950     0.417803509    -0.213459800     0.172844270
   36    17.867286772    32.780977345    15.966708657     0.451171920    -0.173815550     0.127405076
   37    18.372846133    35.393857229    17.903419916     0.412006215    -0.215093795     0.184351668
   38    16.457894323    36.311064000    14.602558662     0.428546250    -0.197726721     0.165082572
   39    18.644401023    36.006404714    14.028084653     0.435915791    -0.185275117     0.160157903
   40    13.410811455    39.025160461    16.575049554     0.408758783    -0.224413836     0.180429175
   41    16.910183499    32.217065025    14.016026667     0.450265408    -0.173216519     0.131366283
   42    11.194293778    38.658652492    13.465060717     0.419417221    -0.200387156     0.184212330
   43    14.732104506    37.243342985    15.609451728     0.425412479    -0.200718782     0.169517531
   44    19.672499714    34.242684374    14.892790561     0.437647026    -0.185761505     0.154782893
   45    15.011930524    39.759391824    15.068615813     0.414396769    -0.211333389     0.183339893
   46    18.103956934    31.437895465    12.368357158     0.448109140    -0.180076191     0.129501984
   47    17.528420964    32.007629204    19.933121887     0.415654316    -0.210419823     0.181535086
   48    20.733336070    33.664479071    10.854223979     0.409322632    -0.228759245     0.173563218
   49    13.972802508    35.516637679    11.944118807    -0.421222095     0.180673165    -0.199822806
   50    17.127562532    39.590724014    17.065172718     0.404095089    -0.218899039     0.196952709
   51    20.404532636    36.024336393    10.993557603     0.420396030    -0.197201323     0.185415255
   52    20.111985206    39.786718150    11.694736231     0.404134004    -0.213644467     0.202562950
   53    19.381211869    34.466879770    19.617749038     0.408631105    -0.224979872     0.180012993
   54    15.540324101    32.573589058    19.929166776     0.405510322    -0.243520383     0.162046913
   55    13.986547247    40.241898285    12.830573311     0.405346458    -0.222475118     0.190260533
   56    17.097688780    34.234519936    19.794626023     0.415972786    -0.212400978     0.178472591
   57    15.987355299    36.160687640    17.424394680     0.418213296    -0.208287284     0.178084380
   58    14.860315644    30.448819455    17.214724351     0.407056220    -0.226596218     0.181547207
   59    16.512045685    31.927849229    17.929838063     0.413405862    -0.219334036     0.176034582
   60    19.617351604    36.607164389    19.175459312     0.409297458    -0.219936682     0.184671187
   61    19.782228908    31.980660723    20.078869138     0.424764694    -0.205603618     0.165233492
   62    19.613998104    37.496571185    12.513031206     0.422369437    -0.199017357     0.178874679
   63    12.876577407    38.030202703    19.706867164     0.401494276    -0.228085141     0.191779859
   64    14.216536891    39.351894857    10.773686003     0.407935372    -0.213135195     0.195351274
   65    15.343482601    34.078518773    13.620638574     0.374604557    -0.269269300     0.192783479
   66    11.741792177    36.960266223    18.213994521     0.398084529    -0.232723767     0.193308966
   67    18.572775643    32.989170282    18.325790626     0.415045630    -0.222058956     0.168602922
   68    11.735816449    32.519656392    15.425158558     0.472731867    -0.145870423     0.072432051
   21    22.629678850    36.732966450    14.491661303    -0.413970243     0.205595187    -0.190681036
   22    29.961984520    32.116588905    16.531588023     0.458754687    -0.166960449     0.108020118
   23    29.846058102    39.643914616    17.396427654     0.410080124    -0.219330474     0.183653028
   24    24.792848676    34.531628264    18.224539075     0.419064792    -0.202943244     0.182205213
   25    26.071507486    30.775478547    11.509555146     0.404014116    -0.223414191     0.191986180
   26    22.630733443    31.357856430    18.046700353     0.101327704     0.389267230    -0.296991111
   27    21.295356620    33.358114907    13.334903778     0.418683416    -0.215918645     0.167580834
   28    28.288517338    35.796928654    11.604182643     0.425102915    -0.198590723     0.172769316
   29    29.001147159    38.449741557    15.683697469     0.402322371    -0.226145197     0.192340999
   30    27.771113889    39.363402937    12.380742743     0.415444045    -0.217656264     0.173297421
   31    26.283482950    40.327153629    19.395133958     0.408500034    -0.228911457     0.175291949
   32    28.410357839    30.978140866    18.624062460     0.407495860    -0.227812391     0.179021336
   33    21.473581170    38.352467454    16.026279845     0.410041507    -0.225879806     0.175625385
   34    31.070885142    33.337233415    18.744512320     0.482809392     0.108195048    -0.072034179
   35    28.443174353    37.938877680    10.920724820     0.417799726    -0.213287132     0.173066426
   36    27.956942722    32.925637556    16.254795527     0.450756139    -0.174373990     0.128111727
   37    28.462502083    35.538517441    18.191506786     0.411712766    -0.215642198     0.184366594
   38    26.547550273    36.455724212    14.890645532     0.428453675    -0.197804529     0.165229587
   39    28.734056973    36.151064925    14.316171523     0.435901231    -0.185014220     0.160498770
   40    23.500467405    39.169820673    16.863136423     0.408819172    -0.224550951     0.180121500
   41    26.999839449    32.361725237    14.304113536     0.449937516    -0.173443656     0.132187480
   42    21.283949728    38.803312703    13.753147587     0.419907290    -0.200134665     0.183368438
   43    24.821760455    37.388003197    15.897538598     0.425366098    -0.200796125     0.169542322
   44    29.762155664    34.387344586    15.180877431     0.437650441    -0.185330439     0.155289150
   45    25.101586473    39.904052036    15.356702683     0.414385057    -0.211418783     0.183267898
   46    28.193612884    31.582555677    12.656444028     0.447787061    -0.180241406     0.130383219
   47    27.618076914    32.152289416    20.221208757     0.415269553    -0.211390107     0.181288227
   48    30.822992020    33.809139283    11.142310849     0.409269296    -0.228379582     0.174187859
   49    24.062458458    35.661297890    12.232205676    -0.423353801     0.178780937    -0.196999836
   50    27.217218482    39.735384226    17.353259587     0.403721678    -0.219196780     0.197386875
   51    30.494188585    36.168996604    11.281644473     0.420310376    -0.197039709     0.185780896
   52    30.201641155    39.931378362    11.982823101     0.404086469    -0.213708629     0.202590096
   53    29.470867819    34.611539981    19.905835907     0.408302662    -0.225524470     0.180076788
   54    25.629980051    32.718249269    20.217253646     0.405131205    -0.244201750     0.161969787
   55    24.076203197    40.386558497    13.118660180     0.405519591    -0.222495795     0.189867014
   56    27.187344730    34.379180147    20.082712893     0.415660064    -0.213073341     0.178399726
   57    26.077011248    36.305347851    17.712481549     0.418040229    -0.208582718     0.178144932
   58    24.949971594    30.593479667    17.502811220     0.406906542    -0.226508313     0.181991896
   59    26.601701635    32.072509441    18.217924933     0.413215273    -0.219476834     0.176303878
   60    29.707007554    36.751824601    19.463546182     0.408985394    -0.220494476     0.184697410
   61    29.871884858    32.125320935    20.366956008     0.424324280    -0.206851933     0.164806503
   62    29.703654053    37.641231397    12.801118076     0.422229061    -0.198958724     0.179270874
   63    22.966233357    38.174862914    19.994954033     0.401361252    -0.228298591     0.191804324
   64    24.306192841    39.496555068    11.061772872     0.408175806    -0.213088949     0.194898978
   65    25.433138551    34.223178984    13.908725443     0.423913612    -0.204467958     0.168790117
   66    21.831448126    37.104926435    18.502081391     0.398054150    -0.232778949     0.193305082
   67    28.662431593    33.133830494    18.613877495     0.414747069    -0.222598713     0.168625862
   68    21.825472399    32.664316604    15.713245428     0.472753385    -0.146771165     0.070444742
   21    32.719334800    36.877626662    14.779748173    -0.413877077     0.205657794    -0.190815715
   22    40.051640470    32.261249116    16.819674893     0.458497847    -0.167560698     0.108181038
   23    39.935714052    39.788574828    17.684514524     0.410076109    -0.218691677     0.184422167
   24    34.882504626    34.676288476    18.512625944     0.418962374    -0.202860813     0.182532244
   25    36.161163436    30.920138759    11.797642015     0.403697975    -0.223617220     0.192414354
   26    32.720389393    31.502516641    18.334787223     0.097064675     0.386298723    -0.302244513
   27    31.385012570    33.502775119    13.622990648     0.419356851    -0.214116171     0.168208491
   28    38.378173288    35.941588866    11.892269512     0.424716523    -0.199002024     0.173245691
   29    39.090803109    38.594401768    15.971784338     0.402307053    -0.225650956     0.192952535
   30    37.860769839    39.508063149    12.668829613     0.415057745    -0.217786465     0.174057818
   31    36.373138900    40.471813841    19.683220828     0.408395950    -0.228447033     0.176138302
   32    38.500013789    31.122801078    18.912149330     0.407361429    -0.227817601     0.179320403
   33    31.563237120    38.497127665    16.314366715     0.409916259    -0.225883985     0.175912154
   34    41.160541091    33.481893626    19.032599190     0.482856061     0.109275428    -0.070063583
   35    38.532830303    38.083537892    11.208811689     0.417327468    -0.213599251     0.173819287
   36    38.046598671    33.070297768    16.542882397     0.450372835    -0.175158747     0.128388952
   37    38.552158033    35.683177653    18.479593655     0.411633466    -0.215384932     0.184843774
   38    36.637206222    36.600384423    15.178732402     0.428297723    -0.197829445     0.165603656
   39    38.823712923    36.295725137    14.604258392     0.435527727    -0.185437551     0.161023334
   40    33.590123355    39.314480885    17.151223293     0.408670571    -0.224409696     0.180634031
   41    37.089495398    32.506385449    14.592200406     0.449470439    -0.174415735     0.132497079
   42    31.373605678    38.947972915    14.041234456     0.419748718    -0.200244626     0.183611284
   43    34.911416405    37.532663409    16.185625467     0.425212296    -0.200766473     0.169962721
   44    39.851811613    34.532004798    15.468964301     0.437208334    -0.185948312     0.155795051
   45    35.191242423    40.048712247    15.644789552     0.414204518    -0.211215177     0.183909668
   46    38.283268834    31.727215888    12.944530897     0.447372903    -0.181027810     0.130715026
   47    37.707732864    32.296949627    20.509295627     0.415146939    -0.211194762     0.181796017
   48    40.912647970    33.953799495    11.430397718     0.408633869    -0.229085164     0.174752249
   49    34.152114407    35.805958102    12.520292546    -0.424827523     0.181654323    -0.191110655
   50    37.306874432    39.880044438    17.641346457     0.403550966    -0.218790288     0.198185337
   51    40.583844535    36.313656816    11.569731342     0.419890151    -0.197351377     0.186399288
   52    40.291297105    40.076038574    12.270909971     0.403617074    -0.214035424     0.203179956
   53    39.560523769    34.756200193    20.193922777     0.408222300    -0.225360736     0.180463549
   54    35.719636001    32.862909481    20.505340516     0.405064259    -0.244163907     0.162194120
   55    34.165859147    40.531218708    13.406747050     0.405277600    -0.222302792     0.190608329
   56    37.277000680    34.523840359    20.370799763     0.415543398    -0.212956318     0.178810769
   57    36.166667198    36.450008063    18.000568419     0.417916269    -0.208486171     0.178548337
   58    35.039627543    30.738139878    17.790898090     0.406716426    -0.226503697     0.182422104
   59    36.691357584    32.217169652    18.506011802     0.413027546    -0.219554293     0.176646989
   60    39.796663504    36.896484812    19.751633051     0.408890242    -0.220127806     0.185344326
   61    39.961540808    32.269981147    20.655042877     0.424236936    -0.206481482     0.165494471
   62    39.793310003    37.785891608    13.089204945     0.421935403    -0.199223384     0.179667912
   63    33.055889307    38.319523126    20.283040903     0.401158427    -0.228438882     0.192061433
   64    34.395848791    39.641215280    11.349859742     0.407916186    -0.212887267     0.195661435
   65    35.522794500    34.367839196    14.196812313     0.379851130    -0.267110895     0.185377692
   66    31.921104076    37.249586647    18.790168261     0.397820818    -0.233033313     0.193478866
   67    38.752087543    33.278490706    18.901964365     0.414623152    -0.222541150     0.169006148
   68    31.915128349    32.808976816    16.001332297     0.471977363    -0.148857267     0.071266279
   21     2.332011708     6.400501200    23.835596655    -0.413593500     0.205393507    -0.191713129
   22     9.664317379     1.784123655    25.875523375     0.458421733    -0.168687705     0.106742555
   23     9.548390960     9.311449367    26.740363006     0.409967558    -0.218830860     0.184498390
   24     4.495181534     4.199163015    27.568474427     0.419172492    -0.202590327     0.182350161
   25     5.773840344     0.443013297    20.853490498     0.403533445    -0.224180282     0.192104033
   26     2.333066301     1.025391180    27.390635705     0.096112449     0.391164886    -0.296230365
   27     0.997689478     3.025649657    22.678839130     0.418498156    -0.215210392     0.168949047
   28     7.990850196     5.464463404    20.948117995     0.424533345    -0.199325233     0.173323082
   29     8.703480017     8.117276307    25.027632821     0.402188744    -0.225685984     0.193158098
   30     7.473446747     9.030937687    21.724678095     0.414909885    -0.218072182     0.174052609
   31     5.985815809     9.994688379    28.739069310     0.408225775    -0.228722652     0.176175098
   32     8.112690697     0.645675616    27.967997812     0.407650855    -0.227599679     0.178939003
   33     1.175914029     8.020002204    25.370215197     0.409511309    -0.225901002     0.176831064
   34    10.773218000     3.004768165    28.088447672     0.482874643     0.104075834    -0.077461605
   35     8.145507211     7.606412431    20.264660171     0.417196229    -0.213909882     0.173752322
   36     7.659275580     2.593172306    25.598730879     0.450342198    -0.175847138     0.127552688
   37     8.164834941     5.206052191    27.535442138     0.411917789    -0.214878458     0.184799847
   38     6.249883131     6.123258962    24.234580884     0.428318675    -0.197824290     0.165555619
   39     8.436389831     5.818599676    23.660106875     0.435505480    -0.185624451     0.160868082
   40     3.202800263     8.837355423    26.207071775     0.408408749    -0.224479137     0.181139203
   41     6.702172307     2.029259987    23.648048888     0.449363282    -0.175131036     0.131915733
   42     0.986282586     8.470847453    23.097082939     0.419272401    -0.200300654     0.184635593
   43     4.524093314     7.055537947    25.241473950     0.425213567    -0.200735840     0.169995720
   44     9.464488522     4.054879336    24.524812783     0.437161641    -0.186291853     0.155515419
   45     4.803919332     9.571586786    24.700638035     0.414020220    -0.211414558     0.184095470
   46     7.895945742     1.250090427    22.000379380     0.447219984    -0.181740089     0.130249091
   47     7.320409772     1.819824166    29.565144109     0.415507953    -0.210702065     0.181542779
   48    10.525324878     3.476674033    20.486246201     0.408437175    -0.229646934     0.174474525
   49     3.764791316     5.328832640    21.576141028    -0.420589523     0.181476568    -0.200426317
   50     6.919551340     9.402918976    26.697194939     0.403405343    -0.219030049     0.198216969
   51    10.196521444     5.836531355    20.625579825     0.419787535    -0.197590128     0.186377485
   52     9.903974014     9.598913112    21.326758453     0.403523428    -0.214020779     0.203381290
   53     9.173200677     4.279074732    29.249771259     0.408550509    -0.224649273     0.180607824
   54     5.332312909     2.385784020    29.561188998     0.405408249    -0.243773985     0.161920956
   55     3.778536055    10.054093247    22.462595532     0.405134430    -0.222507121     0.190674262
   56     6.889677588     4.046714898    29.426648245     0.415904380    -0.212459375     0.178562485
   57     5.779344107     5.972882602    27.056416901     0.418106425    -0.208231432     0.178400360
   58     4.652304452     0.261014417    26.846746572     0.406994169    -0.226500353     0.181805767
   59     6.304034493     1.740044191    27.561860285     0.413299376    -0.219432845     0.176161439
   60     9.409340412     6.419359351    28.807481534     0.409137410    -0.219547509     0.185487118
   61     9.574217716     1.792855685    29.710891360     0.424641267    -0.205962808     0.165103350
   62     9.405986912     7.308766147    22.145053428     0.421849897    -0.199329956     0.179750475
   63     2.668566215     7.842397665    29.338889385     0.400892362    -0.228011302     0.193122138
   64     4.008525699     9.164089819    20.405708224     0.407764043    -0.213127433     0.195717098
   65     5.135471409     3.890713734    23.252660795     0.368520284    -0.273357764     0.198666388
   66     1.533780985     6.772461185    27.846016743     0.397440964    -0.232726092     0.194625914
   67     8.364764451     2.801365244    27.957812847     0.414885995    -0.222083980     0.168962472
   68     1.527805257     2.331851354    25.057180780     0.471807529    -0.149113479     0.071852810
   21    12.421667658     6.545161412    24.123683524    -0.413784503     0.205190833    -0.191517903
   22    19.753973328     1.928783866    26.163610245     0.458475840    -0.169267417     0.105586199
   23    19.638046910     9.456109578    27.028449876     0.410278229    -0.217961226     0.184836897
   24    14.584837484     4.343823226    27.856561296     0.419266572    -0.202624927     0.182095252
   25    15.863496294     0.587673509    21.141577367     0.404120872    -0.223914363     0.191177089
   26    12.422722251     1.170051392    27.678722575     0.102582455     0.377966328    -0.310834835
   27    11.087345428     3.170309869    22.966926000     0.418356732    -0.215471947     0.168965928
   28    18.080506146     5.609123616    21.236204864     0.424995123    -0.198549082     0.173082084
   29    18.793135967     8.261936519    25.315719690     0.402598038    -0.224754195     0.193391756
   30    17.563102697     9.175597899    22.012764964     0.415261391    -0.217427643     0.174020682
   31    16.075471758    10.139348591    29.027156180     0.408654539    -0.227716960     0.176483579
   32    18.202346647     0.790335828    28.256084682     0.407749850    -0.227782836     0.178479801
   33    11.265569978     8.164662416    25.658302067     0.409875759    -0.225430809     0.176586557
   34    20.862873950     3.149428376    28.376534542     0.482932204     0.103285203    -0.078157872
   35    18.235163161     7.751072642    20.552747041     0.417652854    -0.213235751     0.173483741
   36    17.748931530     2.737832518    25.886817749     0.450614792    -0.175961563     0.126427204
   37    18.254490891     5.350712403    27.823529007     0.411990741    -0.215064240     0.184420719
   38    16.339539081     6.267919174    24.522667754     0.428531479    -0.197373699     0.165542726
   39    18.526045781     5.963259887    23.948193744     0.435819385    -0.185029029     0.160703832
   40    13.292456213     8.982015635    26.495158645     0.408767752    -0.223825111     0.181138744
   41    16.791828257     2.173920199    23.936135758     0.449785209    -0.175043818     0.130586859
   42    11.075938536     8.615507665    23.385169808     0.419519194    -0.200115755     0.184275148
   43    14.613749263     7.200198159    25.529560819     0.425414574    -0.200272152     0.170039716
   44    19.554144472     4.199539548    24.812899653     0.437541837    -0.185572599     0.155305991
   45    14.893575281     9.716246998    24.988724904     0.414285303    -0.210714796     0.184301282
   46    17.985601692     1.394750638    22.288466249     0.447696003    -0.181542752     0.128881797
   47    17.410065722     1.964484377    29.853230979     0.415656363    -0.211012411     0.180841230
   48    20.614980828     3.621334245    20.774333070     0.409085329    -0.228592988     0.174340012
   49    13.854447266     5.473492852    21.864227898    -0.421293927     0.186762271    -0.193987837
   50    17.009207290     9.547579188    26.985281809     0.403773108    -0.218072795     0.198523381
   51    20.286177393     5.981191566    20.913666694     0.420189441    -0.197024092     0.186070795
   52    19.993629963     9.743573324    21.614845323     0.404010957    -0.213452847     0.203009923
   53    19.262856627     4.423734943    29.537858129     0.408646393    -0.224885052     0.180096748
   54    15.421968859     2.530444231    29.849275868     0.405511405    -0.243992160     0.161332967
   55    13.868192005    10.198753458    22.750682402     0.405200251    -0.222100268     0.191008448
   56    16.979333538     4.191375109    29.714735115     0.416003423    -0.212712972     0.178029052
   57    15.869000056     6.117542813    27.344503771     0.418214817    -0.208197139     0.178186188
   58    14.741960402     0.405674629    27.134833442     0.407131693    -0.226300640     0.181746541
   59    16.393690443     1.884704402    27.849947154     0.413433192    -0.219424146     0.175858011
   60    19.498996362     6.564019562    29.095568403     0.409221912    -0.219788841     0.185014303
   61    19.663873666     1.937515897    29.998978229     0.424762129    -0.206367639     0.164284908
   62    19.495642861     7.453426359    22.433140297     0.422173544    -0.198790091     0.179588414
   63    12.758222165     7.987057876    29.626976255     0.401511800    -0.227395021     0.192561104
   64    14.098181649     9.308750030    20.693795094     0.407749775    -0.212811278     0.196090491
   65    15.225127359     4.035373946    23.540747665     0.381293810    -0.273641125     0.172440034
   66    11.623436934     6.917121397    28.134103612     0.398099364    -0.232075097     0.194056811
   67    18.454420401     2.946025456    28.245899717     0.415002394    -0.222304717     0.168385349
   68    11.617461207     2.476511566    25.345267649     0.471610545    -0.151064077     0.069015496
   21    22.511323608     6.689821624    24.411770394    -0.413624333     0.205752767    -0.191260844
   22    29.843629278     2.073444078    26.451697114     0.458179968    -0.169786805     0.106035643
   23    29.727702860     9.600769790    27.316536745     0.409422224    -0.219179288     0.185294043
   24    24.674493434     4.488483438    28.144648166     0.418665927    -0.203538272     0.182458250
   25    25.953152244     0.732333720    21.429664237     0.403730965    -0.224470156     0.191349044
   26    22.512378201     1.314711603    27.966809444     0.101108310     0.380847817    -0.307785721
   27    21.177001378     3.314970081    23.255012870     0.419108659    -0.213856597     0.169154628
   28    28.170162096     5.753783827    21.524291734     0.424478070    -0.199302408     0.173484634
   29    28.882791917     8.406596730    25.603806560     0.401687399    -0.225938024     0.193905242
   30    27.652758647     9.320258110    22.300851834     0.414765900    -0.218166630     0.174277277
   31    26.165127708    10.284008803    29.315243049     0.407846535    -0.229046645     0.176631929
   32    28.292002597     0.934996040    28.544171552     0.407028326    -0.228700829     0.178952151
   33    21.355225928     8.309322627    25.946388936     0.409748592    -0.225741168     0.176485172
   34    30.952529899     3.294088588    28.664621411     0.482995352     0.104326200    -0.076364482
   35    28.324819111     7.895732854    20.840833911     0.417107076    -0.213964392     0.173899183
   36    27.838587479     2.882492730    26.174904618     0.450248625    -0.176592553     0.126851274
   37    28.344146841     5.495372614    28.111615877     0.411202634    -0.216164853     0.184892267
   38    26.429195030     6.412579385    24.810754623     0.428017333    -0.198289099     0.165778756
   39    28.615701731     6.107920099    24.236280614     0.435331767    -0.185841639     0.161087361
   40    23.382112163     9.126675846    26.783245515     0.408357861    -0.224566438     0.181145721
   41    26.881484206     2.318580410    24.224222628     0.449384116    -0.175748625     0.131020369
   42    21.165594486     8.760167877    23.673256678     0.419689152    -0.199912088     0.184109132
   43    24.703405213     7.344858371    25.817647689     0.424909398    -0.201214883     0.170189818
   44    29.643800421     4.344199759    25.100986522     0.437064817    -0.186319623     0.155754114
   45    24.983231231     9.860907209    25.276811774     0.413859159    -0.211544009     0.184308788
   46    28.075257642     1.539410850    22.576553119     0.447298801    -0.182244021     0.129270644
   47    27.499721672     2.109144589    30.141317848     0.414903763    -0.212039022     0.181367914
   48    30.704636778     3.765994456    21.062419940     0.408608709    -0.229013028     0.174905563
   49    23.944103215     5.618153064    22.152314767    -0.418901778     0.189950603    -0.196061391
   50    27.098863240     9.692239399    27.273368679     0.402928003    -0.219362356     0.198819469
   51    30.375833343     6.125851778    21.201753564     0.419667476    -0.197710145     0.186520529
   52    30.083285913     9.888233536    21.902932192     0.403355422    -0.214219978     0.203504802
   53    29.352512577     4.568395155    29.825944999     0.407769390    -0.226126074     0.180530117
   54    25.511624809     2.675104443    30.137362737     0.404778527    -0.245031097     0.161598594
   55    23.957847955    10.343413670    23.038769271     0.405017220    -0.222524615     0.190902716
   56    27.068989488     4.336035321    30.002821984     0.415257223    -0.213784991     0.178486459
   57    25.958656006     6.262203025    27.632590640     0.417614223    -0.209128486     0.178503885
   58    24.831616351     0.550334840    27.422920312     0.406525209    -0.227194484     0.181988793
   59    26.483346392     2.029364614    28.138034024     0.412819552    -0.220328608     0.176168447
   60    29.588652312     6.708679774    29.383655273     0.408403578    -0.220953060     0.185435333
   61    29.753529616     2.082176108    30.287065099     0.423994862    -0.207467897     0.164880043
   62    29.585298811     7.598086570    22.721227167     0.421649900    -0.199551532     0.179973743
   63    22.847878115     8.131718088    29.915063125     0.401170536    -0.228167409     0.192358608
   64    24.187837599     9.453410242    20.981881964     0.407686700    -0.213099059     0.195909024
   65    25.314783308     4.180034158    23.828834535     0.373454295    -0.269363376     0.194872424
   66    21.713092884     7.061781608    28.422190482     0.397912134    -0.232627482     0.193779225
   67    28.544076351     3.090685667    28.533986586     0.414254292    -0.223382364     0.168800774
   68    21.707117157     2.621171777    25.633354519     0.471519840    -0.151886583     0.067819663
   21    32.600979558     6.834481835    24.699857264    -0.412949084     0.206716282    -0.191680548
   22    39.933285228     2.218104290    26.739783984     0.458478763    -0.167373439     0.108551166
   23    39.817358810     9.745430001    27.604623615     0.409538103    -0.218886023     0.185384603
   24    34.764149383     4.633143649    28.432735035     0.418546085    -0.203157628     0.183156088
   25    36.042808193     0.876993932    21.717751106     0.403650175    -0.223998104     0.192071304
   26    32.602034150     1.459371815    28.254896314     0.104347955     0.384807801    -0.301719175
   27    31.266657328     3.459630292    23.543099739     0.418528366    -0.214471068     0.169812154
   28    38.259818045     5.898444039    21.812378603     0.424514489    -0.199049383     0.173685899
   29    38.972447867     8.551256942    25.891893429     0.401798665    -0.225716918     0.193932220
   30    37.742414596     9.464918322    22.588938704     0.414708344    -0.218071624     0.174532967
   31    36.254783658    10.428669014    29.603329919     0.407710147    -0.229007575     0.176997080
   32    38.381658547     1.079656251    28.832258421     0.406916864    -0.228264727     0.179760619
   33    31.444881878     8.453982839    26.234475806     0.409169619    -0.226444109     0.176927353
   34    41.042185849     3.438748800    28.952708281     0.482914150     0.108663059    -0.070613480
   35    38.414475061     8.040393065    21.128920780     0.417132988    -0.213770452     0.174075456
   36    37.928243429     3.027152941    26.462991488     0.450371669    -0.174995807     0.128615035
   37    38.433802790     5.640032826    28.399702747     0.411184181    -0.215656194     0.185526212
   38    36.518850980     6.557239597    25.098841493     0.427911153    -0.198240056     0.166111185
   39    38.705357681     6.252580310    24.524367483     0.435328912    -0.185591167     0.161383570
   40    33.471768113     9.271336058    27.071332384     0.407995881    -0.224926187     0.181514659
   41    36.971140156     2.463240622    24.512309497     0.449473715    -0.174289346     0.132652189
   42    31.255250436     8.904828088    23.961343547     0.419056871    -0.200785460     0.184598316
   43    34.793061163     7.489518582    26.105734558     0.424745949    -0.201237395     0.170570776
   44    39.733456371     4.488859971    25.389073392     0.437072414    -0.186060123     0.156042735
   45    35.072887181    10.005567421    25.564898643     0.413574303    -0.211828000     0.184621761
   46    38.164913591     1.684071062    22.864639988     0.447378637    -0.180999205     0.130735010
   47    37.589377621     2.253804801    30.429404718     0.414644631    -0.211796604     0.182241676
   48    40.794292728     3.910654668    21.350506809     0.408632403    -0.228880861     0.175023172
   49    34.033759165     5.762813275    22.440401637    -0.418546816     0.192854810    -0.193973155
   50    37.188519189     9.836899611    27.561455548     0.402846776    -0.219368506     0.198977219
   51    40.465489293     6.270511990    21.489840433     0.419702210    -0.197476399     0.186689921
   52    40.172941863    10.032893747    22.191019062     0.403359315    -0.214120514     0.203601740
   53    39.442168527     4.713055366    30.114031868     0.407666754    -0.225773355     0.181202125
   54    35.601280758     2.819764655    30.425449607     0.404419146    -0.244767351     0.162892905
   55    34.047503904    10.488073882    23.326856141     0.404718971    -0.222885093     0.191114598
   56    37.158645437     4.480695532    30.290908854     0.415041268    -0.213477049     0.179355220
   57    36.048311956     6.406863237    27.920677510     0.417507938    -0.208804859     0.179130267
   58    34.921272301     0.694995052    27.711007181     0.406263094    -0.227123449     0.182661538
   59    36.573002342     2.174024826    28.426120893     0.412598397    -0.220052746     0.177029240
   60    39.678308261     6.853339986    29.671742142     0.408422064    -0.220403354     0.186047787
   61    39.843185566     2.226836320    30.575151969     0.423723454    -0.207227202     0.165877427
   62    39.674954761     7.742746782    23.009314036     0.421669620    -0.199313278     0.180191424
   63    32.937534065     8.276378300    30.203149994     0.400508957    -0.228806266     0.192977377
   64    34.277493549     9.598070453    21.269968833     0.407386694    -0.213479031     0.196119314
   65    35.404439258     4.324694369    24.116921404     0.377752123    -0.264753358     0.192896327
   66    31.802748834     7.206441820    28.710277352     0.397152959    -0.233448781     0.194348126
   67    38.633732300     3.235345879    28.822073456     0.414163658    -0.222935603     0.169611855
   68    31.796773107     2.765831989    25.921441389     0.471336623    -0.152196686     0.068395591
   21     2.467087179    16.425594721    23.866222078    -0.412958743     0.206681966    -0.191696744
   22     9.799392850    11.809217176    25.906148799     0.458346907    -0.170002667     0.104962878
   23     9.683466431    19.336542888    26.770988430     0.409701399    -0.219191957     0.184660904
   24     4.630257005    14.224256536    27.599099850     0.418698184    -0.203358649     0.182584474
   25     5.908915815    10.468106818    20.884115921     0.403581718    -0.224110099     0.192084514
   26     2.468141772    11.050484701    27.421261129     0.105997419     0.391437928    -0.292473752
   27     1.132764949    13.050743178    22.709464554     0.417621651    -0.215974453     0.170138744
   28     8.125925667    15.489556925    20.978743418     0.424498034    -0.199532583     0.173170920
   29     8.838555488    18.142369828    25.058258244     0.401895237    -0.226109639     0.193273510
   30     7.608522218    19.056031208    21.755303518     0.414750811    -0.218406302     0.174012794
   31     6.120891280    20.019781900    28.769694734     0.408128889    -0.229060542     0.175960445
   32     8.247766168    10.670769137    27.998623236     0.407168519    -0.228080630     0.179424145
   33     1.310989500    18.045095725    25.400840621     0.409081853    -0.226786152     0.176692044
   34    10.908293471    13.029861686    28.119073096     0.482655167     0.102812140    -0.080459018
   35     8.280582682    17.631505952    20.295285595     0.417127368    -0.214137883     0.173636765
   36     7.794351051    12.618265827    25.629356302     0.450329088    -0.176718285     0.126389717
   37     8.299910412    15.231145712    27.566067561     0.411584210    -0.215435275     0.184894782
   38     6.384958602    16.148352483    24.265206308     0.427967542    -0.198458610     0.165704444
   39     8.571465302    15.843693197    23.690732298     0.435292529    -0.185996130     0.161015073
   40     3.337875734    18.862448944    26.237697199     0.408063870    -0.225201584     0.181019681
   41     6.837247778    12.054353508    23.678674312     0.449441857    -0.175771486     0.130791443
   42     1.121358057    18.495940974    23.127708362     0.418803328    -0.201353338     0.184555157
   43     4.659168785    17.080631468    25.272099373     0.424827465    -0.201449164     0.170117194
   44     9.599563993    14.079972857    24.555438207     0.436982485    -0.186529719     0.155733658
   45     4.938994803    19.596680307    24.731263458     0.413677714    -0.212158247     0.184009857
   46     8.031021213    11.275183948    22.031004803     0.447289379    -0.182241854     0.129306294
   47     7.455485243    11.844917687    29.595769533     0.415027983    -0.211256592     0.181995674
   48    10.660400349    13.501767554    20.516871624     0.408458077    -0.229623894     0.174455916
   49     3.899866787    15.353926161    21.606766452    -0.423593717     0.179042432    -0.196245179
   50     7.054626811    19.428012497    26.727820363     0.403316954    -0.219428936     0.197955491
   51    10.331596915    15.861624876    20.656205248     0.419687457    -0.197863906     0.186312407
   52    10.039049485    19.624006633    21.357383877     0.403448962    -0.214371620     0.203159403
   53     9.308276148    14.304168253    29.280396683     0.408159877    -0.225188354     0.180819578
   54     5.467388380    12.410877541    29.591814422     0.404766701    -0.244574193     0.162318767
   55     3.913611526    20.079186768    22.493220956     0.404702690    -0.223376232     0.190574897
   56     7.024753059    14.071808419    29.457273669     0.415375315    -0.213175171     0.178940477
   57     5.914419578    15.997976123    27.087042325     0.417675899    -0.208964931     0.178551114
   58     4.787379923    10.286107938    26.877371996     0.406413736    -0.227115043     0.182336591
   59     6.439109964    11.765137712    27.592485708     0.412767235    -0.220069027     0.176614929
   60     9.544415883    16.444452872    28.838106957     0.408988571    -0.219978159     0.185305042
   61     9.709293187    11.817949206    29.741516783     0.424229204    -0.206530413     0.165453230
   62     9.541062383    17.333859668    22.175678851     0.421686496    -0.199618978     0.179813134
   63     2.803641686    17.867491186    29.369514809     0.400727866    -0.228510098     0.192873826
   64     4.143601170    19.189183340    20.436333648     0.407294954    -0.214063817     0.195671926
   65     5.270546880    13.915807255    23.283286219     0.378080261    -0.268728257     0.186655940
   66     1.668856456    16.797554706    27.876642166     0.397245896    -0.233210517     0.194444215
   67     8.499839922    12.826458765    27.988438271     0.414477081    -0.222647864     0.169223751
   68     1.662880728    12.356944875    25.087806203     0.471874653    -0.149640040     0.070300574
   21    12.556743129    16.570254933    24.154308948    -0.413565851     0.205418096    -0.191746428
   22    19.889048799    11.953877388    26.194235668     0.458919158    -0.167098046     0.107104853
   23    19.773122381    19.481203099    27.059075299     0.410296635    -0.217297837     0.185575649
   24    14.719912955    14.368916747    27.887186720     0.419159002    -0.201899294     0.183145859
   25    15.998571765    10.612767030    21.172202791     0.403788073    -0.223636713     0.192202530
   26    12.557797722    11.195144913    27.709347998     0.109036950     0.381754694    -0.303931402
   27    11.222420899    13.195403390    22.997551424     0.418185445    -0.214793328     0.170249112
   28    18.215581617    15.634217137    21.266830288     0.424848676    -0.198184900     0.173857263
   29    18.928211438    18.287030040    25.346345114     0.402475864    -0.224240176     0.194240888
   30    17.698178168    19.200691420    22.043390388     0.415254015    -0.216831558     0.174780372
   31    16.210547229    20.164442112    29.057781603     0.408802478    -0.227467213     0.176463030
   32    18.337422118    10.815429349    28.286710106     0.407570873    -0.227131129     0.179714868
   33    11.400645449    18.189755937    25.688927490     0.409709643    -0.225634085     0.176712388
   34    20.997949421    13.174521897    28.407159965     0.482237198     0.108610650    -0.075173207
   35    18.370238632    17.776166163    20.583372465     0.417523460    -0.212839241     0.174280285
   36    17.884007001    12.762926039    25.917443172     0.450759320    -0.174553488     0.127855839
   37    18.389566362    15.375805924    27.854154431     0.411907947    -0.214408203     0.185367112
   38    16.474614552    16.293012695    24.553293177     0.428419120    -0.197070298     0.166193727
   39    18.661121252    15.988353408    23.978819168     0.435665565    -0.184627354     0.161580492
   40    13.427531684    19.007109156    26.525784069     0.408723088    -0.223830407     0.181232961
   41    16.926903728    12.199013720    23.966761181     0.449818426    -0.173908275     0.131982178
   42    11.211014007    18.640601186    23.415795232     0.419300171    -0.200473280     0.184385007
   43    14.748824734    17.225291680    25.560186243     0.425331388    -0.200027656     0.170534885
   44    19.689219943    14.224633069    24.843525076     0.437378601    -0.185103513     0.156322259
   45    15.028650752    19.741340519    25.019350328     0.414285691    -0.210650285     0.184374141
   46    18.120677163    11.419844159    22.319091673     0.447685537    -0.180600754     0.130234510
   47    17.545141193    11.989577899    29.883856402     0.415435181    -0.210300041     0.182174375
   48    20.750056299    13.646427766    20.804958494     0.408871912    -0.228386229     0.175109937
   49    13.989522737    15.498586373    21.894853321    -0.422063869     0.179950555    -0.198695467
   50    17.144282761    19.572672709    27.015907233     0.403929519    -0.217799239     0.198505504
   51    20.421252864    16.006285087    20.944292118     0.420015177    -0.196625089     0.186884525
   52    20.128705434    19.768666845    21.645470746     0.403812390    -0.213018141     0.203859818
   53    19.397932098    14.448828464    29.568483553     0.408512397    -0.224319497     0.181103242
   54    15.557044330    12.555537752    29.879901291     0.405383845    -0.243250232     0.162767510
   55    14.003267476    20.223846979    22.781307825     0.405274942    -0.221981722     0.190987792
   56    17.114409009    14.216468630    29.745360538     0.415815913    -0.212020812     0.179288322
   57    16.004075527    16.142636334    27.375129194     0.418129762    -0.207560168     0.179126433
   58    14.877035873    10.430768150    27.165458866     0.406769176    -0.226009567     0.182916684
   59    16.528765914    11.909797924    27.880572578     0.413160417    -0.218918785     0.177124350
   60    19.634071833    16.589113083    29.126193827     0.409139532    -0.219273058     0.185806807
   61    19.798949137    11.962609418    30.029603653     0.424578773    -0.205532275     0.165799123
   62    19.630718332    17.478519880    22.463765721     0.422055264    -0.198333401     0.180369665
   63    12.893297636    18.012151397    29.657601678     0.401354428    -0.227609024     0.192636328
   64    14.233257120    19.333843551    20.724420518     0.407834880    -0.212721215     0.196011211
   65    15.360202830    14.060467467    23.571373089     0.378746931    -0.264841441     0.190813452
   66    11.758512405    16.942214918    28.164729036     0.397934979    -0.232340676     0.194076177
   67    18.589495872    12.971118977    28.276525140     0.414910586    -0.221624719     0.169504247
   68    11.752536678    12.501605087    25.375893073     0.471459240    -0.152653032     0.066507424
   21    22.646399079    16.714915145    24.442395818    -0.413539773     0.205043706    -0.192202849
   22    29.978704749    12.098537599    26.482322538     0.458168656    -0.168860699     0.107552530
   23    29.862778331    19.625863311    27.347162169     0.409392583    -0.219085214     0.185470705
   24    24.809568905    14.513576959    28.175273589     0.418184175    -0.203688856     0.183392600
   25    26.088227715    10.757427241    21.460289660     0.403417035    -0.224256102     0.192259972
   26    22.647453672    11.339805124    27.997434868     0.101363492     0.384920060    -0.302592118
   27    21.312076849    13.340063602    23.285638293     0.418532283    -0.214120171     0.170244766
   28    28.305237567    15.778877348    21.554917157     0.424247277    -0.199583552     0.173725801
   29    29.017867388    18.431690251    25.634431983     0.401550128    -0.226006711     0.194109406
   30    27.787834118    19.345351631    22.331477258     0.414578005    -0.218244049     0.174627069
   31    26.300203179    20.309102324    29.345868473     0.408003636    -0.229101549     0.176197371
   32    28.427078068    10.960089561    28.574796975     0.406632960    -0.228551202     0.180038839
   33    21.490301399    18.334416148    25.977014360     0.409704553    -0.225347061     0.177090038
   34    31.087605370    13.319182109    28.695246835     0.482865065     0.106337859    -0.074388099
   35    28.459894582    17.920826375    20.871459334     0.416853443    -0.214223707     0.174187858
   36    27.973662950    12.907586251    26.205530042     0.450011833    -0.176200095     0.128229782
   37    28.479222312    15.520466135    28.142241300     0.410844620    -0.216137703     0.185718044
   38    26.564270501    16.437672906    24.841380047     0.427730166    -0.198499234     0.166267734
   39    28.750777202    16.133013620    24.266906037     0.434999347    -0.186180609     0.161593159
   40    23.517187634    19.151769367    26.813870938     0.408328860    -0.224346552     0.181483241
   41    27.016559677    12.343673931    24.254848051     0.449099816    -0.175417907     0.132430788
   42    21.300669957    18.785261398    23.703882101     0.419531767    -0.199501617     0.184911333
   43    24.838480684    17.369951892    25.848273112     0.424658173    -0.201340295     0.170667870
   44    29.778875892    14.369293280    25.131611946     0.436712027    -0.186664387     0.156329817
   45    25.118306702    19.886000730    25.307437197     0.413804568    -0.211547530     0.184427281
   46    28.210333113    11.564504371    22.607178542     0.446997230    -0.182005734     0.130642218
   47    27.634797143    12.134238110    30.171943272     0.414417548    -0.211951555     0.182577748
   48    30.839712249    13.791087977    21.093045363     0.408305752    -0.229527600     0.174938543
   49    24.079178686    15.643246585    22.182940191    -0.419619700     0.182060058    -0.201924349
   50    27.233938711    19.717332920    27.303994102     0.403200069    -0.219376721     0.198251252
   51    30.510908814    16.150945299    21.232378987     0.419364119    -0.198083974     0.186805982
   52    30.218361384    19.913327057    21.933557616     0.403142518    -0.214409718     0.203726735
   53    29.487588048    14.593488676    29.856570422     0.407399980    -0.226050713     0.181456141
   54    25.646700280    12.700197964    30.167988161     0.404201439    -0.244968064     0.163131370
   55    24.092923426    20.368507191    23.069394695     0.404918279    -0.222549192     0.191083868
   56    27.204064959    14.361128842    30.033447408     0.414795533    -0.213716525     0.179638282
   57    26.093731477    16.287296546    27.663216064     0.417181387    -0.209262009     0.179357470
   58    24.966691823    10.575428361    27.453545735     0.406166292    -0.227116697     0.182885071
   59    26.618421863    12.054458135    28.168659447     0.412389158    -0.220302678     0.177205847
   60    29.723727783    16.733773295    29.414280696     0.408156078    -0.220844911     0.186107875
   61    29.888605087    12.107269629    30.317690523     0.423558307    -0.207312509     0.166192310
   62    29.720374282    17.623180091    22.751852590     0.421336724    -0.199874898     0.180347969
   63    22.982953586    18.156811609    29.945688548     0.401109696    -0.227729697     0.193003102
   64    24.322913070    19.478503763    21.012507387     0.407549385    -0.213130864     0.196159970
   65    25.449858780    14.205127679    23.859459958     0.373799098    -0.265347913     0.199661513
   66    21.848168355    17.086875129    28.452815906     0.397838486    -0.232147130     0.194505140
   67    28.679151822    13.115779188    28.564612010     0.413883663    -0.223246641     0.169885992
   68    21.842192628    12.646265298    25.663979942     0.472219724    -0.148858357     0.069639942
   21    32.736055029    16.859575356    24.730482687    -0.412820842     0.206564466    -0.192119946
   22    40.068360699    12.243197811    26.770409407     0.458458869    -0.168038933     0.107602891
   23    39.952434281    19.770523523    27.635249039     0.409217401    -0.219905773     0.184885287
   24    34.899224854    14.658237170    28.463360459     0.418199521    -0.203512258     0.183553594
   25    36.177883664    10.902087453    21.748376530     0.403189244    -0.224458103     0.192501931
   26    32.737109622    11.484465336    28.285521738     0.107961661     0.384153992    -0.301280584
   27    31.401732799    13.484723813    23.573725163     0.418045606    -0.215351087     0.169887552
   28    38.394893516    15.923537560    21.843004027     0.424043677    -0.200106561     0.173621210
   29    39.107523338    18.576350463    25.922518853     0.401370076    -0.226803341     0.193551819
   30    37.877490067    19.490011843    22.619564127     0.414427763    -0.218861811     0.174210036
   31    36.389859129    20.453762535    29.633955342     0.407654070    -0.229739385     0.176175975
   32    38.516734018    11.104749772    28.862883845     0.406619992    -0.228401662     0.180257767
   33    31.579957349    18.479076360    26.265101230     0.408961998    -0.226700730     0.177078691
   34    41.177261320    13.463842321    28.983333704     0.482502559     0.109003122    -0.072867001
   35    38.549550532    18.065486586    21.159546204     0.416663985    -0.214739706     0.174005695
   36    38.063318900    13.052246462    26.493616911     0.450199842    -0.175736388     0.128206177
   37    38.568878261    15.665126347    28.430328170     0.410957668    -0.215922685     0.185718037
   38    36.653926451    16.582333118    25.129466916     0.427585207    -0.198744825     0.166347183
   39    38.840433152    16.277673831    24.554992907     0.434927158    -0.186368723     0.161570623
   40    33.606843584    19.296429579    27.101957808     0.407793494    -0.225348293     0.181445895
   41    37.106215627    12.488334143    24.542934921     0.449269100    -0.175029771     0.132370145
   42    31.390325907    18.929921609    23.991968971     0.418793613    -0.201021758     0.184938265
   43    34.928136634    17.514612103    26.136359982     0.424461678    -0.201718469     0.170710116
   44    39.868531842    14.513953492    25.419698815     0.436641270    -0.186799039     0.156366622
   45    35.207962652    20.030660942    25.595524067     0.413421898    -0.212345011     0.184369006
   46    38.299989062    11.709164583    22.895265412     0.447116800    -0.181700167     0.130658397
   47    37.724453093    12.278898322    30.460030141     0.414402768    -0.211663602     0.182944979
   48    40.929368199    13.935748189    21.381132233     0.408008282    -0.230070084     0.174919977
   49    34.168834636    15.787906796    22.471027061    -0.421197848     0.182677245    -0.198043927
   50    37.323594660    19.861993132    27.592080972     0.402846407    -0.220067811     0.198204265
   51    40.600564764    16.295605511    21.520465857     0.419210009    -0.198511445     0.186698084
   52    40.308017334    20.057987268    22.221644485     0.402964286    -0.215081889     0.203370512
   53    39.577243998    14.738148888    30.144657292     0.407477168    -0.225876405     0.181499883
   54    35.736356229    12.844858176    30.456075030     0.404210911    -0.244811692     0.163342507
   55    34.182579375    20.513167403    23.357481564     0.404542596    -0.223466119     0.190809280
   56    37.293720908    14.505789054    30.321534277     0.414780120    -0.213522622     0.179904257
   57    36.183387427    16.431956758    27.951302933     0.417184680    -0.209158579     0.179470421
   58    35.056347772    10.720088573    27.741632605     0.405928817    -0.227242510     0.183255660
   59    36.708077813    12.199118347    28.456746317     0.412298819    -0.220226870     0.177510026
   60    39.813383732    16.878433507    29.702367566     0.408274240    -0.220652285     0.186077173
   61    39.978261037    12.251929841    30.605777392     0.423576738    -0.206907756     0.166649114
   62    39.810030232    17.767840303    23.039939460     0.421242777    -0.200267188     0.180132108
   63    33.072609536    18.301471821    30.233775418     0.400391138    -0.228889915     0.193122612
   64    34.412569020    19.623163974    21.300594257     0.407209216    -0.214071259     0.195842157
   65    35.539514729    14.349787890    24.147546828     0.366898892    -0.291128732     0.175012184
   66    31.937824305    17.231535341    28.740902775     0.397007477    -0.233441944     0.194653338
   67    38.768807772    13.260439400    28.852698879     0.413882637    -0.223127265     0.170045247
   68    31.931848578    12.790925510    25.952066812     0.471519361    -0.150833738     0.070133271
   21     2.602162650    26.450688242    23.896847502    -0.413906780     0.205437837    -0.190988148
   22     9.934468321    21.834310697    25.936774222     0.457856729    -0.169979038     0.107118356
   23     9.818541902    29.361636409    26.801613853     0.410715216    -0.217980905     0.183840520
   24     4.765332476    24.249350057    27.629725274     0.419026638    -0.202746810     0.182511390
   25     6.043991286    20.493200339    20.914741345     0.403406913    -0.224562378     0.191923426
   26     2.603217243    21.075578222    27.451886552     0.112220127     0.388016580    -0.294702862
   27     1.267840420    23.075836699    22.740089977     0.418865852    -0.215186421     0.168066064
   28     8.261001138    25.514650446    21.009368842     0.425069630    -0.198718993     0.172703711
   29     8.973630959    28.167463349    25.088883668     0.402952711    -0.224923281     0.192454229
   30     7.743597689    29.081124729    21.785928942     0.415516414    -0.217486445     0.173337117
   31     6.255966751    30.044875421    28.800320157     0.408856508    -0.228147304     0.175457014
   32     8.382841639    20.695862658    28.029248660     0.407092585    -0.228360889     0.179239871
   33     1.446064971    28.070189246    25.431466044     0.409855389    -0.225776641     0.176191566
   34    11.043368942    23.054955207    28.149698519     0.483542450     0.103030622    -0.074641746
   35     8.415658154    27.656599473    20.325911019     0.417769507    -0.213335349     0.173079947
   36     7.929426522    22.643359348    25.659981726     0.450065917    -0.176498882     0.127627643
   37     8.434985883    25.256239233    27.596692985     0.411898190    -0.214954822     0.184754718
   38     6.520034073    26.173446004    24.295831731     0.428495905    -0.197488041     0.165498439
   39     8.706540773    25.868786718    23.721357722     0.435797580    -0.185064273     0.160722382
   40     3.472951205    28.887542465    26.268322623     0.408794676    -0.224187692     0.180628879
   41     6.972323249    22.079447029    23.709299735     0.449224061    -0.175560244     0.131819359
   42     1.256433528    28.521034495    23.158333786     0.419591494    -0.200347786     0.183857941
   43     4.794244256    27.105724989    25.302724797     0.425386970    -0.200454795     0.169893499
   44     9.734639464    24.105066378    24.586063630     0.437436604    -0.185607341     0.155560702
   45     5.074070274    29.621773828    24.761888882     0.414390460    -0.211103965     0.183618252
   46     8.166096684    21.300277469    22.061630227     0.447144437    -0.182055312     0.130068119
   47     7.590560714    21.870011208    29.626394956     0.415158043    -0.211407173     0.181523570
   48    10.795475820    23.526861075    20.547497048     0.408815130    -0.229093858     0.174316360
   49     4.034942258    25.379019682    21.637391875    -0.421232332     0.181250248    -0.199277871
   50     7.189702282    29.453106018    26.758445787     0.404070594    -0.218384158     0.197573567
   51    10.466672386    25.886718397    20.686830672     0.420324959    -0.197032722     0.185755311
   52    10.174124956    29.649100154    21.388009300     0.404006458    -0.213730044     0.202727033
   53     9.443351619    24.329261774    29.311022107     0.408424298    -0.224970097     0.180493902
   54     5.602463851    22.435971062    29.622439845     0.405052506    -0.244323509     0.161982994
   55     4.048686997    30.104280289    22.523846379     0.405494339    -0.222352323     0.190088889
   56     7.159828530    24.096901940    29.487899092     0.415576633    -0.213070111     0.178597844
   57     6.049495049    26.023069644    27.117667748     0.418056435    -0.208265635     0.178477570
   58     4.922455394    20.311201459    26.907997420     0.406195813    -0.227560380     0.182266934
   59     6.574185435    21.790231233    27.623111132     0.412687101    -0.220308223     0.176503949
   60     9.679491354    26.469546393    28.868732381     0.409342454    -0.219545266     0.185036837
   61     9.844368658    21.843042727    29.772142207     0.424359881    -0.206678152     0.164932812
   62     9.676137854    27.358953189    22.206304275     0.422358504    -0.198760087     0.179186278
   63     2.938717157    27.892584707    29.400140232     0.401186349    -0.227959196     0.192572371
   64     4.278676641    29.214276861    20.466959072     0.408106224    -0.213044298     0.195093405
   65     5.405622351    23.940900776    23.313911642     0.377520674    -0.267268614     0.189856863
   66     1.803931927    26.822648227    27.907267590     0.397685881    -0.232804169     0.194031334
   67     8.634915393    22.851552286    28.019063694     0.414627745    -0.222544675     0.168990238
   68     1.797956199    22.382038396    25.118431627     0.471374940    -0.151110904     0.070506458
   21    12.691818600    26.595348454    24.184934372    -0.414761143     0.204497013    -0.190142490
   22    20.024124270    21.978970909    26.224861092     0.459114445    -0.164399782     0.110393109
   23    19.908197852    29.506296620    27.089700723     0.410787589    -0.217200003     0.184601503
   24    14.854988426    24.394010268    27.917812143     0.419513280    -0.201842945     0.182395268
   25    16.133647236    20.637860551    21.202828214     0.403930651    -0.223105956     0.192519509
   26    12.692873193    21.220238434    27.739973422     0.094998911     0.386696268    -0.302392466
   27    11.357496370    23.220496911    23.028176847     0.419179843    -0.213675391     0.169207229
   28    18.350657088    25.659310658    21.297455711     0.425269215    -0.197891010     0.173162475
   29    19.063286909    28.312123561    25.376970537     0.403039695    -0.223966884     0.193385209
   30    17.833253639    29.225784941    22.074015812     0.415644570    -0.216763361     0.173934576
   31    16.345622700    30.189535633    29.088407027     0.409304639    -0.227228029     0.175605054
   32    18.472497589    20.840522870    28.317335529     0.407689860    -0.226805306     0.179856418
   33    11.535720921    28.214849458    25.719552914     0.410525914    -0.224873687     0.175784809
   34    21.133024892    23.199615419    28.437785389     0.482930990     0.113448549    -0.062506683
   35    18.505314103    27.801259684    20.613997888     0.417956986    -0.212559025     0.173581736
   36    18.019082472    22.788019560    25.948068596     0.451020248    -0.172504064     0.129703833
   37    18.524641833    25.400899445    27.884779854     0.412397952    -0.214221767     0.184491094
   38    16.609690023    26.318106216    24.583918601     0.428806874    -0.196890781     0.165404610
   39    18.796196723    26.013446929    24.009444591     0.436124825    -0.184213350     0.160812248
   40    13.562607155    29.032202677    26.556409492     0.409370367    -0.223371318     0.180336233
   41    17.061979199    22.224107241    23.997386605     0.450246744    -0.171542213     0.133608154
   42    11.346089478    28.665694707    23.446420655     0.420098319    -0.199600377     0.183513192
   43    14.883900205    27.250385201    25.590811666     0.425766611    -0.199784179     0.169732362
   44    19.824295414    24.249726590    24.874150500     0.437809014    -0.184675618     0.155621924
   45    15.163726223    29.766434040    25.049975751     0.414850947    -0.210244346     0.183564721
   46    18.255752634    21.444937680    22.349717096     0.448065678    -0.178662651     0.131593333
   47    17.680216664    22.014671420    29.914481826     0.415568429    -0.209989529     0.182228644
   48    20.885131770    23.671521287    20.835583917     0.409289046    -0.227910644     0.174754729
   49    14.124598208    25.523679894    21.925478745    -0.433389369     0.167086696    -0.185082931
   50    17.279358232    29.597766230    27.046532656     0.404468904    -0.217621836     0.197599703
   51    20.556328336    26.031378608    20.974917541     0.420530028    -0.196182721     0.186190320
   52    20.263780905    29.793760366    21.676096170     0.404318114    -0.212911139     0.202967263
   53    19.533007569    24.473921985    29.599108976     0.409004023    -0.224224861     0.180108082
   54    15.692119801    22.580631273    29.910526715     0.405524672    -0.243072926     0.162681569
   55    14.138342947    30.248940500    22.811933249     0.405823170    -0.221636883     0.190222624
   56    17.249484480    24.241562151    29.775985962     0.416046469    -0.211864875     0.178937449
   57    16.139150998    26.167729855    27.405754618     0.418527659    -0.207439267     0.178335495
   58    15.012111344    20.455861671    27.196084289     0.406962652    -0.225762927     0.182790866
   59    16.663841385    21.934891445    27.911198001     0.413351134    -0.218597635     0.177076011
   60    19.769147304    26.614206605    29.156819250     0.409731650    -0.218987068     0.184836790
   61    19.934024608    21.987702939    30.060229077     0.424694261    -0.205107699     0.166028963
   62    19.765793803    27.503613401    22.494391144     0.422518308    -0.198041976     0.179604163
   63    13.028373107    28.037244918    29.688227102     0.401882239    -0.227056767     0.192187124
   64    14.368332591    29.358937072    20.755045941     0.408401422    -0.212350765     0.195231738
   65    15.495278301    24.085560988    23.601998512     0.443184067    -0.135909914     0.187393645
   66    11.893587876    26.967308439    28.195354460     0.398414816    -0.231810643     0.193725218
   67    18.724571343    22.996212498    28.307150564     0.415234089    -0.221324050     0.169104454
   68    11.887612149    22.526698608    25.406518496     0.470978208    -0.152690964     0.069749534
   21    22.781474550    26.740008666    24.473021241    -0.414238587     0.204456513    -0.191321528
   22    30.113780220    22.123631120    26.512947961     0.458227929    -0.166635494     0.110723878
   23    29.997853802    29.650956832    27.377787592     0.410148962    -0.219343685     0.183483451
   24    24.944644376    24.538670480    28.205899013     0.418906456    -0.203165888     0.182321154
   25    26.223303186    20.782520762    21.490915084     0.403411276    -0.224146950     0.192399290
   26    22.782529143    21.364898645    28.028060291     0.108923273     0.399680318    -0.279984578
   27    21.447152320    23.365157123    23.316263717     0.419075768    -0.215044243     0.167724399
   28    28.440313038    25.803970869    21.585542581     0.424728822    -0.199317502     0.172852426
   29    29.152942859    28.456783772    25.665057407     0.402472478    -0.226092947     0.192088218
   30    27.922909589    29.370445152    22.362102681     0.415215033    -0.217884334     0.173559480
   31    26.435278650    30.334195845    29.376493896     0.408636615    -0.228771584     0.175156156
   32    28.562153539    20.985183082    28.605422399     0.406877774    -0.228456868     0.179604945
   33    21.625376870    28.359509669    26.007639784     0.410339168    -0.224977704     0.176087479
   34    31.222680841    23.344275630    28.725872258     0.483330927     0.111986214    -0.062050810
   35    28.594970053    27.945919896    20.902084758     0.417411819    -0.213831352     0.173330685
   36    28.108738421    22.932679772    26.236155465     0.450099615    -0.174908296     0.129682014
   37    28.614297783    25.545559656    28.172866724     0.411663305    -0.215639604     0.184480037
   38    26.699345972    26.462766427    24.872005470     0.428396125    -0.197892459     0.165273515
   39    28.885852673    26.158107141    24.297531461     0.435616624    -0.185608034     0.160585847
   40    23.652263105    29.176862888    26.844496362     0.408988446    -0.224011988     0.180408093
   41    27.151635148    22.368767453    24.285473475     0.449181841    -0.174401018     0.133491417
   42    21.435745428    28.810354919    23.734507525     0.420099378    -0.199114337     0.184038020
   43    24.973556155    27.395045413    25.878898536     0.425352614    -0.200728845     0.169655782
   44    29.913951363    24.394386801    25.162237369     0.437240966    -0.186233800     0.155361864
   45    25.253382173    29.911094251    25.338062621     0.414478747    -0.211055497     0.183474644
   46    28.345408584    21.589597892    22.637803966     0.447075544    -0.181203049     0.131487310
   47    27.769872614    22.159331631    30.202568695     0.414823674    -0.211547604     0.182123393
   48    30.974787720    23.816181498    21.123670787     0.408519258    -0.229586121     0.174362350
   49    24.214254157    25.668340106    22.213565615    -0.423410859     0.170716734    -0.203909395
   50    27.369014182    29.742426441    27.334619526     0.403852021    -0.219062922     0.197268805
   51    30.645984285    26.176038820    21.263004411     0.419981614    -0.197627010     0.185900535
   52    30.353436855    29.938420578    21.964183039     0.403847466    -0.213865288     0.202901116
   53    29.622663519    24.618582197    29.887195846     0.408203314    -0.225786925     0.179973107
   54    25.781775751    22.725291485    30.198613584     0.404638911    -0.244697595     0.162451343
   55    24.227998897    30.393600712    23.100020118     0.405572633    -0.222027399     0.190301534
   56    27.339140430    24.386222363    30.064072831     0.415299082    -0.213422311     0.178822789
   57    26.228806948    26.312390067    27.693841487     0.417936614    -0.208719637     0.178227662
   58    25.101767294    20.600521882    27.484171159     0.406241556    -0.227499693     0.182240742
   59    26.753497335    22.079551656    28.199284871     0.412614154    -0.220283361     0.176705407
   60    29.858803254    26.758866816    29.444906120     0.409013764    -0.220363548     0.184790822
   61    30.023680558    22.132363150    30.348315946     0.423942136    -0.206767292     0.165892593
   62    29.855449753    27.648273612    22.782478014     0.422037457    -0.199444794     0.179181915
   63    23.118029057    28.181905130    29.976313972     0.401923021    -0.227213200     0.191916770
   64    24.457988541    29.503597284    21.043132811     0.408208674    -0.212555924     0.195411508
   65    25.584934251    24.230221200    23.890085382     0.368764981    -0.282881965     0.184364267
   66    21.983243826    27.111968650    28.483441329     0.398582427    -0.231738090     0.193467067
   67    28.814227293    23.140872709    28.595237433     0.414407587    -0.222973980     0.168964363
   68    21.977268099    22.671358819    25.694605366     0.472453465    -0.145507633     0.074934988
   21    32.871130500    26.884668877    24.761108111    -0.413848744     0.205796789    -0.190727289
   22    40.203436170    22.268291332    26.801034831     0.458089610    -0.169135192     0.107457881
   23    40.087509752    29.795617044    27.665874462     0.410010525    -0.218577916     0.184702637
   24    35.034300325    24.683330692    28.493985883     0.418577194    -0.203749388     0.182426204
   25    36.312959135    20.927180974    21.779001954     0.403196548    -0.224858036     0.192019289
   26    32.872185093    21.509558857    28.316147161     0.107697517     0.395441007    -0.286404704
   27    31.536808270    23.509817334    23.604350586     0.418614567    -0.216306523     0.167252300
   28    38.529968987    25.948631081    21.873629450     0.424683624    -0.199395693     0.172873298
   29    39.242598809    28.601443984    25.953144276     0.402284122    -0.225482944     0.193196603
   30    38.012565538    29.515105364    22.650189551     0.415068671    -0.217982133     0.173786617
   31    36.524934600    30.478856056    29.664580766     0.408358157    -0.228371339     0.176323984
   32    38.651809489    21.129843293    28.893509268     0.406532850    -0.229163621     0.179485590
   33    31.715032820    28.504169881    26.295726653     0.409877013    -0.226003610     0.175849943
   34    41.312336791    23.488935842    29.013959128     0.483244825     0.106224426    -0.072047282
   35    38.684626003    28.090580107    21.190171627     0.417350981    -0.213969849     0.173306266
   36    38.198394371    23.077339983    26.524242335     0.450133666    -0.176324094     0.127630314
   37    38.703953732    25.690219868    28.460953594     0.411253241    -0.216070395     0.184890120
   38    36.789001922    26.607426639    25.160092340     0.428257685    -0.198243224     0.165211924
   39    38.975508623    26.302767353    24.585618331     0.435583301    -0.185805996     0.160447249
   40    33.741919055    29.321523100    27.132583231     0.408661259    -0.224534806     0.180499574
   41    37.241291098    22.513427664    24.573560344     0.449255265    -0.175582623     0.131683142
   42    31.525401378    28.955015130    24.022594394     0.419637329    -0.200522622     0.183562498
   43    35.063212105    27.539705624    26.166985405     0.425155168    -0.201137836     0.169666302
   44    40.003607313    24.539047013    25.450324239     0.437274674    -0.186383109     0.155087705
   45    35.343038123    30.055754463    25.626149490     0.414197708    -0.211321965     0.183802301
   46    38.435064533    21.734258104    22.925890835     0.447122312    -0.182208023     0.129930269
   47    37.859528564    22.303991843    30.490655565     0.414476468    -0.212294435     0.182044858
   48    41.064443670    23.960841710    21.411757656     0.408479738    -0.229648685     0.174372547
   49    34.303910107    25.813000317    22.501652484    -0.423115747     0.175070419    -0.200806904
   50    37.458670131    29.887086653    27.622706395     0.403603577    -0.218654923     0.198227589
   51    40.735640235    26.320699032    21.551091281     0.419943053    -0.197727240     0.185881065
   52    40.443092805    30.083080789    22.252269909     0.403739871    -0.214080657     0.202888119
   53    39.712319469    24.763242409    30.175282715     0.407716925    -0.226124334     0.180650753
   54    35.871431700    22.869951697    30.486700454     0.404311361    -0.245339383     0.162298832
   55    34.317654846    30.538260924    23.388106988     0.405299556    -0.222413574     0.190432328
   56    37.428796380    24.530882575    30.352159701     0.414938339    -0.214044224     0.178916865
   57    36.318462898    26.457050279    27.981928357     0.417603090    -0.209263174     0.178372035
   58    35.191423243    20.745182094    27.772258028     0.405838746    -0.228175188     0.182293706
   59    36.843153284    22.224211868    28.487371740     0.412246416    -0.221041725     0.176616670
   60    39.948459204    26.903527028    29.732992989     0.408576025    -0.220640593     0.185427508
   61    40.113336508    22.277023362    30.636402816     0.423660955    -0.207536376     0.165650378
   62    39.945105703    27.792933824    23.070564883     0.421980771    -0.199462409     0.179295778
   63    33.207685007    28.326565342    30.264400841     0.401192863    -0.228200344     0.192272957
   64    34.547644491    29.648257496    21.331219680     0.407928547    -0.213036015     0.195473674
   65    35.674590200    24.374881411    24.178172251     0.375699400    -0.278468481     0.176932942
   66    32.072899776    27.256628862    28.771528199     0.397865309    -0.232840359     0.193619635
   67    38.903883243    23.285532921    28.883324303     0.414028320    -0.223505976     0.169191102
   68    32.066924049    22.816019031    25.982692236     0.471707208    -0.147625217     0.075492421
   21     2.737238121    36.475781763    23.927472926    -0.413712378     0.205633334    -0.191198850
   22    10.069543792    31.859404218    25.967399646     0.459523301    -0.167030968     0.104589632
   23     9.953617373    39.386729930    26.832239277     0.410279106    -0.218499317     0.184198544
   24     4.900407947    34.274443578    27.660350697     0.419275741    -0.202524958     0.182185329
   25     6.179066757    30.518293860    20.945366768     0.404106934    -0.223828034     0.191307597
   26     2.738292714    31.100671743    27.482511976     0.098170856     0.398586112    -0.285467327
   27     1.402915891    33.100930220    22.770715401     0.418455437    -0.215585259     0.168576520
   28     8.396076609    35.539743967    21.039994265     0.424872258    -0.199306120     0.172512710
   29     9.108706430    38.192556870    25.119509091     0.402509477    -0.225335699     0.192898791
   30     7.878673160    39.106218250    21.816554366     0.415016135    -0.218128870     0.173727958
   31     6.391042222    40.069968942    28.830945581     0.408779976    -0.228174517     0.175599888
   32     8.517917110    30.720956179    28.059874083     0.407812969    -0.227400533     0.178822762
   33     1.581140442    38.095282767    25.462091468     0.409829585    -0.225762339     0.176269900
   34    11.178444413    33.080048728    28.180323943     0.481063459     0.109664860    -0.080941752
   35     8.550733625    37.681692994    20.356536442     0.417448138    -0.213926446     0.173125757
   36     8.064501993    32.668452869    25.690607150     0.451256133    -0.174674944     0.125922857
   37     8.570061354    35.281332754    27.627318408     0.412136159    -0.214683381     0.184539515
   38     6.655109544    36.198539525    24.326457155     0.428470654    -0.197836171     0.165147656
   39     8.841616244    35.893880239    23.751983145     0.435688272    -0.185675106     0.160313707
   40     3.608026677    38.912635986    26.298948046     0.408790192    -0.224244193     0.180568881
   41     7.107398720    32.104540550    23.739925159     0.450301695    -0.173962260     0.130251738
   42     1.391508999    38.546128016    23.188959209     0.419482555    -0.200306217     0.184151583
   43     4.929319727    37.130818510    25.333350220     0.425358322    -0.200755780     0.169609595
   44     9.869714935    34.130159899    24.616689054     0.437393342    -0.186249994     0.154912893
   45     5.209145745    39.646867349    24.792514305     0.414364659    -0.211150607     0.183622847
   46     8.301172155    31.325370990    22.092255650     0.448107545    -0.180672863     0.128673792
   47     7.725636185    31.895104729    29.657020380     0.415582052    -0.210609393     0.181480692
   48    10.930551291    33.551954596    20.578122471     0.408946967    -0.229452455     0.173533713
   49     4.170017729    35.404113203    21.668017299    -0.420923133     0.181083053    -0.200081594
   50     7.324777753    39.478199539    26.789071210     0.404041204    -0.218456601     0.197553584
   51    10.601747857    35.911811918    20.717456095     0.420069992    -0.197684933     0.185639081
   52    10.309200427    39.674193675    21.418634724     0.403557223    -0.214335617     0.202982291
   53     9.578427090    34.354355295    29.341647530     0.408734879    -0.224490967     0.180387373
   54     5.737539322    32.461064583    29.653065269     0.405364337    -0.243727642     0.162100559
   55     4.183762468    40.129373810    22.554471803     0.405233776    -0.222503659     0.190467081
   56     7.294904001    34.121995461    29.518524516     0.415951425    -0.212402865     0.178520126
   57     6.184570520    36.048163165    27.148293172     0.418239441    -0.208148167     0.178185607
   58     5.057530865    30.336294980    26.938622843     0.407029285    -0.226661573     0.181526011
   59     6.709260906    31.815324754    27.653736555     0.413408052    -0.219396236     0.175951910
   60     9.814566825    36.494639914    28.899357804     0.409506176    -0.219385788     0.184863648
   61     9.979444129    31.868136248    29.802767630     0.424763451    -0.205754812     0.165048381
   62     9.811213325    37.384046710    22.236929698     0.422091336    -0.199426032     0.179075857
   63     3.073792628    37.917678228    29.430765656     0.401454904    -0.227797076     0.192204195
   64     4.413752112    39.239370382    20.497584495     0.407802634    -0.213189341     0.195569211
   65     5.540697822    33.965994297    23.344537066     0.373326712    -0.272564970     0.190618738
   66     1.939007398    36.847741748    27.937893014     0.397959262    -0.232550850     0.193774426
   67     8.769990864    32.876645807    28.049689118     0.415129161    -0.221854014     0.168667057
   68     1.933031670    32.407131917    25.149057050     0.472026044    -0.148754396     0.071158579
   21    12.826894071    36.620441975    24.215559795    -0.413917311     0.205990052    -0.190369529
   22    20.159199741    32.004064430    26.255486515     0.459261286    -0.164890908     0.109041550
   23    20.043273323    39.531390141    27.120326146     0.410331560    -0.218828026     0.183690789
   24    14.990063897    34.419103789    27.948437567     0.419730532    -0.202083859     0.181627075
   25    16.268722707    30.662954072    21.233453638     0.404255322    -0.223207189     0.191719028
   26    12.827948664    31.245331955    27.770598845     0.088237958     0.383061644    -0.308994886
   27    11.492571841    33.245590432    23.058802271     0.418123092    -0.215928697     0.168961173
   28    18.485732559    35.684404179    21.328081135     0.425075247    -0.198829033     0.172563177
   29    19.198362380    38.337217082    25.407595961     0.402581064    -0.225690835     0.192333393
   30    17.968329110    39.250878462    22.104641235     0.415418786    -0.217732687     0.173261968
   31    16.480698171    40.214629154    29.119032450     0.408945898    -0.228160728     0.175231090
   32    18.607573060    30.865616391    28.347960953     0.408130904    -0.226764310     0.178905318
   33    11.670796392    38.239942979    25.750178338     0.410123773    -0.225762718     0.175583843
   34    21.268100363    33.224708940    28.468410812     0.482586756     0.112807364    -0.066215723
   35    18.640389574    37.826353205    20.644623312     0.417696094    -0.213536236     0.173009389
   36    18.154157943    32.813113081    25.978694019     0.451047701    -0.173316101     0.128520427
   37    18.659717304    35.425992966    27.915405278     0.412404986    -0.214729399     0.183884238
   38    16.744765494    36.343199737    24.614544024     0.428821078    -0.197363522     0.164803288
   39    18.931272194    36.038540450    24.040070015     0.436004380    -0.185045251     0.160182508
   40    13.697682626    39.057296198    26.587034916     0.409079751    -0.224238922     0.179918491
   41    17.197054670    32.249200762    24.028012029     0.450109697    -0.172881018     0.132338257
   42    11.481164949    38.690788228    23.477046079     0.419707058    -0.200393832     0.183543721
   43    15.018975677    37.275478722    25.621437090     0.425732898    -0.200324897     0.169178707
   44    19.959370885    34.274820111    24.904775923     0.437716801    -0.185457273     0.154950321
   45    15.298801694    39.791527561    25.080601175     0.414627719    -0.211061294     0.183131058
   46    18.390828105    31.470031201    22.380342520     0.447985520    -0.179740541     0.130392914
   47    17.815292135    32.039764941    29.945107249     0.415964309    -0.210185232     0.181096278
   48    21.020207241    33.696614808    20.866209341     0.409139988    -0.228663581     0.174119031
   49    14.259673679    35.548773415    21.956104168    -0.418278396     0.198147521    -0.189157985
   50    17.414433703    39.622859751    27.077158080     0.404152656    -0.218550791     0.197221152
   51    20.691403807    36.056472129    21.005542965     0.420290665    -0.197249017     0.185603292
   52    20.398856377    39.818853887    21.706721593     0.404079241    -0.213821653     0.202485228
   53    19.668083040    34.499015506    29.629734400     0.409066599    -0.224668613     0.179411628
   54    15.827195272    32.605724794    29.941152138     0.406191014    -0.242657221     0.161636424
   55    14.273418418    40.274034022    22.842558672     0.405571086    -0.222425503     0.189839379
   56    17.384559951    34.266655672    29.806611385     0.416439572    -0.211926447     0.177947362
   57    16.274226469    36.192823376    27.436380041     0.418665913    -0.207778298     0.177614842
   58    15.147186815    30.480955192    27.226709713     0.407556449    -0.225318572     0.182014512
   59    16.798916856    31.959984966    27.941823425     0.413835466    -0.218361057     0.176234661
   60    19.904222775    36.639300126    29.187444674     0.409649434    -0.219638745     0.184244846
   61    20.069100079    32.012796460    30.090854500     0.424986683    -0.205526571     0.164757846
   62    19.900869274    37.528706922    22.525016568     0.422317035    -0.199076854     0.178932189
   63    13.163448578    38.062338439    29.718852526     0.401900879    -0.227508188     0.191613434
   64    14.503408062    39.384030593    20.785671365     0.408142251    -0.213156794     0.194895058
   65    15.630353772    34.110654509    23.632623936     0.377908467    -0.271657989     0.182721448
   66    12.028663347    36.992401960    28.225979883     0.398480886    -0.232074932     0.193272372
   67    18.859646814    33.021306019    28.337775987     0.415396492    -0.221676742     0.168241423
   68    12.022687620    32.551792129    25.437143920     0.472789558    -0.148571456     0.066306537
   21    22.916550021    36.765102187    24.503646665    -0.413680757     0.206575214    -0.190249605
   22    30.248855691    32.148724641    26.543573385     0.458383331    -0.170813534     0.103476852
   23    30.132929273    39.676050353    27.408413016     0.409701864    -0.219565186     0.184215937
   24    25.079719847    34.563764001    28.236524437     0.418983316    -0.203431685     0.181847547
   25    26.358378657    30.807614283    21.521540508     0.403948801    -0.223781493     0.191695618
   26    22.917604614    31.389992166    28.058685715     0.110998324     0.391188581    -0.290948219
   27    21.582227791    33.390250644    23.346889140     0.418885046    -0.215647166     0.167426455
   28    28.575388509    35.829064391    21.616168004     0.424748125    -0.199512782     0.172579488
   29    29.288018330    38.481877293    25.695682830     0.401921788    -0.226483857     0.192779509
   30    28.057985060    39.395538673    22.392728105     0.415014237    -0.218426166     0.173358568
   31    26.570354121    40.359289366    29.407119320     0.408263728    -0.229071200     0.175633464
   32    28.697229010    31.010276603    28.636047822     0.407441685    -0.228348836     0.178460310
   33    21.760452341    38.384603190    26.038265207     0.409935884    -0.226109942     0.175575809
   34    31.357756312    33.369369151    28.756497682     0.482536900     0.099189516    -0.085554545
   35    28.730045524    37.971013417    20.932710181     0.417316953    -0.214186192     0.173120870
   36    28.243813893    32.957773293    26.266780889     0.450494984    -0.177099177     0.125260334
   37    28.749373254    35.570653177    28.203492148     0.411676804    -0.215731811     0.184342060
   38    26.834421443    36.487859948    24.902630894     0.428263560    -0.198540698     0.164839056
   39    29.020928144    36.183200662    24.328156885     0.435545786    -0.186120095     0.160184827
   40    23.787338576    39.201956410    26.875121785     0.408614864    -0.224886740     0.180166165
   41    27.286710619    32.393860974    24.316098898     0.449625529    -0.176015901     0.129827909
   42    21.570820899    38.835448440    23.765132948     0.419780361    -0.200421405     0.183345873
   43    25.108631626    37.420138934    25.909523959     0.425172025    -0.201457557     0.169244207
   44    30.049026835    34.419480322    25.192862793     0.437239838    -0.186697201     0.154807879
   45    25.388457644    39.936187772    25.368688044     0.414150717    -0.211822821     0.183331057
   46    28.480484055    31.614691413    22.668429389     0.447480758    -0.182412767     0.128399976
   47    27.904948085    32.184425152    30.233194119     0.415357029    -0.211496733     0.180963174
   48    31.109863191    33.841275019    21.154296210     0.408768126    -0.229338689     0.174104522
   49    24.349329628    35.693433627    22.244191038    -0.416609215     0.199152664    -0.191768033
   50    27.504089653    39.767519962    27.365244949     0.403406023    -0.219550315     0.197639167
   51    30.781059756    36.201132341    21.293629834     0.419906070    -0.197950377     0.185727059
   52    30.488512326    39.963514099    21.994808463     0.403620053    -0.214561789     0.202618092
   53    29.757738990    34.643675718    29.917821269     0.408276948    -0.225406940     0.180282126
   54    25.916851222    32.750385006    30.229239008     0.405229120    -0.244513810     0.161252464
   55    24.363074368    40.418694233    23.130645542     0.405245619    -0.222936648     0.189934829
   56    27.474215901    34.411315884    30.094698255     0.415697078    -0.213269930     0.178078288
   57    26.363882419    36.337483588    27.724466911     0.417938848    -0.209040925     0.177845469
   58    25.236842765    30.625615403    27.514796582     0.406855759    -0.227028053     0.181457031
   59    26.888572806    32.104645177    28.229910294     0.413173839    -0.220089411     0.175636073
   60    29.993878725    36.783960337    29.475531543     0.408918271    -0.220480081     0.184863142
   61    30.158756029    32.157456671    30.378941370     0.424490749    -0.206894418     0.164323777
   62    29.990525224    37.673367133    22.813103437     0.421880645    -0.199861460     0.179086901
   63    23.253104528    38.206998651    30.006939395     0.401630188    -0.227988644     0.191609942
   64    24.593064012    39.528690805    21.073758234     0.407900063    -0.213542809     0.194979504
   65    25.720009722    34.255314721    23.920710805     0.378348599    -0.264179210     0.192514110
   66    22.118319297    37.137062171    28.514066753     0.398322500    -0.232516407     0.193068139
   67    28.949302764    33.165966230    28.625862857     0.414653216    -0.222882781     0.168481384
   68    22.112343570    32.696452340    25.725230790     0.472617084    -0.145836316     0.073245210
   21    33.006205971    36.909762398    24.791733534    -0.413092061     0.206730967    -0.191356360
   22    40.338511641    32.293384853    26.831660255     0.458627895    -0.167428368     0.107834111
   23    40.222585223    39.820710565    27.696499886     0.409794181    -0.218653215     0.185093222
   24    35.169375796    34.708424213    28.524611306     0.418777299    -0.203244101     0.182530572
   25    36.448034606    30.952274495    21.809627377     0.403734547    -0.223962148     0.191935853
   26    33.007260564    31.534652378    28.346772585     0.108247454     0.371203461    -0.317002333
   27    31.671883741    33.534910855    23.634976010     0.418617823    -0.214599137     0.169429420
   28    38.665044458    35.973724602    21.904254874     0.424653134    -0.199146421     0.173235155
   29    39.377674280    38.626537505    25.983769700     0.402037448    -0.225485393     0.193706552
   30    38.147641010    39.540198885    22.680814974     0.414969551    -0.217900808     0.174124982
   31    36.660010071    40.503949577    29.695206190     0.408030827    -0.228874810     0.176428926
   32    38.786884960    31.154936814    28.924134692     0.407217386    -0.227941039     0.179490622
   33    31.850108291    38.529263402    26.326352077     0.409479088    -0.226448726     0.176204003
   34    41.447412262    33.514029363    29.044584552     0.482469375     0.111168407    -0.069748743
   35    38.819701474    38.115673629    21.220797051     0.417302706    -0.213777135     0.173659978
   36    38.333469842    33.102433504    26.554867758     0.450470906    -0.175123495     0.128092641
   37    38.839029203    35.715313389    28.491579017     0.411521481    -0.215601108     0.184841102
   38    36.924077393    36.632520160    25.190717763     0.428183877    -0.198195470     0.165460336
   39    39.110584094    36.327860874    24.616243754     0.435509930    -0.185683290     0.160788112
   40    33.876994526    39.346616621    27.163208655     0.408298323    -0.224887899     0.180880935
   41    37.376366569    32.538521185    24.604185768     0.449540405    -0.174421078     0.132252454
   42    31.660476849    38.980108651    24.053219818     0.419280119    -0.201026149     0.183827824
   43    35.198287576    37.564799145    26.197610829     0.425033369    -0.201188726     0.169910952
   44    40.138682784    34.564140534    25.480949662     0.437236265    -0.186150220     0.155475221
   45    35.478113594    40.080847984    25.656774914     0.413883509    -0.211757220     0.184009024
   46    38.570140004    31.759351625    22.956516259     0.447444835    -0.181091590     0.130380044
   47    37.994604035    32.329085364    30.521280988     0.414961463    -0.211387986     0.181994790
   48    41.199519141    33.985935231    21.442383080     0.408709310    -0.229148854     0.174492127
   49    34.438985578    35.838093838    22.532277908    -0.412552253     0.195349178    -0.204057191
   50    37.593745603    39.912180174    27.653331819     0.403190070    -0.219266840     0.198393094
   51    40.870715706    36.345792553    21.581716704     0.419871670    -0.197513899     0.186268731
   52    40.578168276    40.108174310    22.282895332     0.403619119    -0.214018151     0.203194090
   53    39.847394940    34.788335930    30.205908139     0.408094642    -0.225573206     0.180486818
   54    36.006507172    32.895045218    30.517325877     0.404927602    -0.244257363     0.162394514
   55    34.452730317    40.563354445    23.418732412     0.405015921    -0.222864952     0.190508049
   56    37.563871851    34.555976096    30.382785124     0.415382208    -0.213176801     0.178922532
   57    36.453538369    36.482143800    28.012553781     0.417760618    -0.208854319     0.178482324
   58    35.326498714    30.770275615    27.802883452     0.406584612    -0.226432327     0.182804144
   59    36.978228755    32.249305389    28.517997164     0.412901131    -0.219593715     0.176893348
   60    40.083534675    36.928620549    29.763618413     0.408824225    -0.220304744     0.185279716
   61    40.248411979    32.302116883    30.667028239     0.424046577    -0.206693238     0.165717851
   62    40.080181174    37.818027345    23.101190307     0.421872459    -0.199314978     0.179714128
   63    33.342760478    38.351658863    30.295026265     0.400972438    -0.228555764     0.192310601
   64    34.682719962    39.673351017    21.361845104     0.407675105    -0.213500974     0.195495123
   65    35.809665671    34.399974932    24.208797675     0.367671621    -0.259818957     0.217512503
   66    32.207975247    37.281722383    28.802153622     0.397659829    -0.233160631     0.193656346
   67    39.038958714    33.310626442    28.913949727     0.414491747    -0.222714907     0.169099561
   68    32.201999520    32.841112552    26.013317659     0.471323680    -0.153960289     0.064422189
   21     2.618882879     6.432636937    33.847582017    -0.413272132     0.205654759    -0.192125649
   22     9.951188550     1.816259391    35.887508737     0.458838736    -0.166611454     0.108201837
   23     9.835262131     9.343585103    36.752348368     0.410045527    -0.218215958     0.185052592
   24     4.782052705     4.231298751    37.580459788     0.419236552    -0.202337838     0.182483184
   25     6.060711515     0.475149034    30.865475860     0.404109556    -0.223501082     0.191683940
   26     2.619937472     1.057526916    37.402621067     0.104433085     0.378211088    -0.309919511
   27     1.284560649     3.057785394    32.690824492     0.417635276    -0.215668592     0.170492917
   28     8.277721367     5.496599141    30.960103356     0.424876377    -0.198543665     0.173379577
   29     8.990351188     8.149412043    35.039618182     0.402244530    -0.225059252     0.193772214
   30     7.760317918     9.063073424    31.736663457     0.415062475    -0.217563172     0.174325581
   31     6.272686979    10.026824116    38.751054672     0.408407382    -0.228377504     0.176201947
   32     8.399561868     0.677811353    37.979983174     0.407628823    -0.227411068     0.179228760
   33     1.462785200     8.052137940    35.382200559     0.409383992    -0.225873163     0.177161118
   34    11.060089171     3.036903901    38.100433034     0.482343088     0.111994261    -0.069299577
   35     8.432378382     7.638548167    30.276645533     0.417539196    -0.213271419     0.173713332
   36     7.946146751     2.625308043    35.610716241     0.450683014    -0.174449111     0.128266632
   37     8.451706112     5.238187928    37.547427500     0.411960390    -0.214884295     0.184698069
   38     6.536754302     6.155394698    34.246566246     0.428428791    -0.197326383     0.165864613
   39     8.723261002     5.850735412    33.672092237     0.435752204    -0.184868465     0.161070380
   40     3.489671434     8.869491160    36.219057137     0.408413756    -0.224254973     0.181405377
   41     6.989043478     2.061395724    33.660034250     0.449756997    -0.173874826     0.132235353
   42     1.273153757     8.502983190    33.109068300     0.418966764    -0.200456939     0.185159028
   43     4.810964485     7.087673684    35.253459311     0.425283478    -0.200325220     0.170304932
   44     9.751359693     4.087015073    34.536798145     0.437467558    -0.185315163     0.155821776
   45     5.090790502     9.603722522    34.712623396     0.414017957    -0.211106192     0.184454078
   46     8.182816913     1.282226163    32.012364741     0.447667371    -0.180586616     0.130316535
   47     7.607280943     1.851959902    39.577129471     0.415427143    -0.210819273     0.181591638
   48    10.812196049     3.508809770    30.498231562     0.409084359    -0.228281409     0.174750066
   49     4.051662487     5.360968377    31.588126390    -0.421180933     0.186123715    -0.194845027
   50     7.206422511     9.435054713    36.709180301     0.403580467    -0.218730064     0.198191741
   51    10.483392615     5.868667091    30.637565186     0.420133477    -0.196876613     0.186353054
   52    10.190845185     9.631048849    31.338743815     0.403843680    -0.213532590     0.203258738
   53     9.460071848     4.311210468    39.261756621     0.408547637    -0.224957048     0.180230837
   54     5.619184080     2.417919756    39.573174360     0.405304127    -0.243782037     0.162169303
   55     4.065407226    10.086228983    32.474580894     0.404994480    -0.222298177     0.191214518
   56     7.176548759     4.078850634    39.438633607     0.415862365    -0.212509176     0.178601074
   57     6.066215277     6.005018338    37.068402263     0.418182603    -0.207973221     0.178522967
   58     4.939175623     0.293150153    36.858731934     0.406883549    -0.226090082     0.182562462
   59     6.590905664     1.772179927    37.573845646     0.413272788    -0.219055686     0.176692415
   60     9.696211583     6.451495087    38.819466895     0.409267609    -0.219574901     0.185167187
   61     9.861088887     1.824991422    39.722876722     0.424491182    -0.206163268     0.165239050
   62     9.692858082     7.340901883    32.157038789     0.422090015    -0.198665482     0.179922332
   63     2.955437386     7.874533401    39.350874747     0.400815320    -0.228257066     0.192991687
   64     4.295396870     9.196225555    30.417693586     0.407578500    -0.212981489     0.196261693
   65     5.422342580     3.922849471    33.264646157     0.365505940    -0.283248559     0.190199005
   66     1.820652155     6.804596922    37.858002105     0.397338637    -0.232930680     0.194590096
   67     8.651635622     2.833500981    37.969798209     0.414924834    -0.222135794     0.168798906
   68     1.814676428     2.363987091    35.069166142     0.471234336    -0.152825178     0.067695385
   21    12.708538829     6.577297148    34.135668886    -0.413940273     0.205139282    -0.191236309
   22    20.040844499     1.960919603    36.175595606     0.458955053    -0.168036381     0.105470534
   23    19.924918081     9.488245315    37.040435238     0.410353242    -0.218022038     0.184598505
   24    14.871708655     4.375958963    37.868546658     0.419212989    -0.202718491     0.182114478
   25    16.150367465     0.619809245    31.153562729     0.404330457    -0.223594007     0.191108872
   26    12.709593422     1.202187128    37.690707937     0.103490281     0.396135971    -0.286994868
   27    11.374216599     3.202445605    32.978911362     0.418863737    -0.214533702     0.168903702
   28    18.367377317     5.641259352    31.248190226     0.425036570    -0.198645354     0.172869712
   29    19.080007138     8.294072255    35.327705052     0.402688492    -0.224833173     0.193111426
   30    17.849973868     9.207733635    32.024750326     0.415368430    -0.217251598     0.173985087
   31    16.362342929    10.171484328    39.039141541     0.408810154    -0.227940576     0.175833306
   32    18.489217818     0.822471564    38.268070044     0.407636040    -0.227994560     0.178469436
   33    11.552441149     8.196798152    35.670287429     0.410035735    -0.225298673     0.176383685
   34    21.149745120     3.181564113    38.388519904     0.482427794     0.107570716    -0.075445113
   35    18.522034332     7.783208379    30.564732403     0.417665548    -0.213325724     0.173342509
   36    18.035802701     2.769968254    35.898803110     0.450904237    -0.175336353     0.126263742
   37    18.541362062     5.382848139    37.835514369     0.411887625    -0.215098521     0.184610972
   38    16.626410251     6.300054910    34.534653115     0.428556020    -0.197603809     0.165204336
   39    18.812916952     5.995395624    33.960179106     0.435822444    -0.185267494     0.160420550
   40    13.579327384     9.014151371    36.507144007     0.408918004    -0.223828634     0.180794936
   41    17.078699427     2.206055935    33.948121120     0.449993292    -0.174630664     0.130423035
   42    11.362809707     8.647643401    33.397155170     0.419693495    -0.199763665     0.184260275
   43    14.900620434     7.232333895    35.541546181     0.425456234    -0.200502307     0.169663837
   44    19.841015643     4.231675284    34.824885014     0.437520147    -0.185874804     0.155005414
   45    15.180446452     9.748382734    35.000710266     0.414465588    -0.210783261     0.183817010
   46    18.272472863     1.426886375    32.300451611     0.447876379    -0.181238195     0.128683590
   47    17.696936893     1.996620114    39.865216340     0.415475455    -0.211130395     0.181119029
   48    20.901851999     3.653469981    30.786318432     0.409188159    -0.228593171     0.174098284
   49    14.141318436     5.505628588    31.876213260    -0.420154612     0.183715906    -0.199295179
   50    17.296078461     9.579714924    36.997267171     0.404003205    -0.218267961     0.197839600
   51    20.573048564     6.013327303    30.925652056     0.420221983    -0.197115260     0.185900670
   52    20.280501134     9.775709060    31.626830684     0.404006056    -0.213485618     0.202985215
   53    19.549727798     4.455870680    39.549843491     0.408486390    -0.225049905     0.180253735
   54    15.708840030     2.562579968    39.861261229     0.405185693    -0.244348611     0.161611602
   55    14.155063176    10.230889195    32.762667764     0.405463090    -0.221914790     0.190665961
   56    17.266204709     4.223510846    39.726720476     0.415812511    -0.212936907     0.178207264
   57    16.155871227     6.149678550    37.356489133     0.418183873    -0.208287571     0.178153127
   58    15.028831573     0.437810365    37.146818804     0.407089781    -0.226836930     0.181170962
   59    16.680561614     1.916840139    37.861932516     0.413351142    -0.219779857     0.175606514
   60    19.785867533     6.596155299    39.107553765     0.409114164    -0.219765776     0.185279801
   61    19.950744837     1.969651633    40.010963591     0.424565028    -0.206400279     0.164752730
   62    19.782514032     7.485562095    32.445125659     0.422199509    -0.198917848     0.179385798
   63    13.045093336     8.019193613    39.638961617     0.401506249    -0.227341905     0.192635381
   64    14.385052820     9.340885767    30.705780456     0.408072136    -0.212531807     0.195722668
   65    15.511998530     4.067509683    33.552733027     0.374455730    -0.270182650     0.191792183
   66    11.910308105     6.949257133    38.146088974     0.398150291    -0.232055193     0.193976115
   67    18.741291572     2.978161192    38.257885079     0.414896614    -0.222484855     0.168408101
   68    11.904332378     2.508647302    35.357253011     0.472202906    -0.147939853     0.071681345
   21    22.798194779     6.721957360    34.423755756    -0.413892107     0.205156194    -0.191322397
   22    30.130500449     2.105579815    36.463682476     0.458461998    -0.168747467     0.106474829
   23    30.014574031     9.632905526    37.328522107     0.409221674    -0.219495466     0.185362784
   24    24.961364604     4.520619174    38.156633528     0.418541295    -0.203733720     0.182526042
   25    26.240023414     0.764469457    31.441649599     0.403616101    -0.224518316     0.191534772
   26    22.799249372     1.346847340    37.978794806     0.099579993     0.388496142    -0.298587629
   27    21.463872549     3.347105817    33.266998231     0.418769406    -0.214946322     0.168612761
   28    28.457033266     5.785919564    31.536277096     0.424179830    -0.200022857     0.173384913
   29    29.169663088     8.438732467    35.615791922     0.401354081    -0.226527021     0.193908254
   30    27.939629818     9.352393847    32.312837196     0.414428536    -0.218724673     0.174380348
   31    26.451998879    10.316144539    39.327228411     0.407739341    -0.229348109     0.176488170
   32    28.578873768     0.967131776    38.556156913     0.407086222    -0.228550718     0.179012227
   33    21.642097099     8.341458364    35.958374298     0.409687485    -0.225871167     0.176460706
   34    31.239401070     3.326224325    38.676606773     0.482774780     0.106650308    -0.074526662
   35    28.611690282     7.927868590    30.852819272     0.416771715    -0.214599408     0.173920763
   36    28.125458650     2.914628466    36.186889980     0.450338690    -0.176163900     0.127127277
   37    28.631018011     5.527508351    38.123601239     0.411275896    -0.215952561     0.184977374
   38    26.716066201     6.444715122    34.822739985     0.427834991    -0.198728362     0.165723439
   39    28.902572902     6.140055835    34.248265976     0.435063696    -0.186503754     0.161046359
   40    23.668983334     9.158811583    36.795230876     0.408243167    -0.224798917     0.181115885
   41    27.168355377     2.350716147    34.236207989     0.449447899    -0.175394785     0.131275493
   42    21.452465657     8.792303613    33.685242040     0.419694446    -0.199999734     0.184001845
   43    24.990276384     7.376994107    35.829633050     0.424779415    -0.201552943     0.170114255
   44    29.930671592     4.376335496    35.112971884     0.436744696    -0.187132195     0.155677910
   45    25.270102402     9.893042946    35.288797136     0.413736211    -0.211872988     0.184206906
   46    28.362128812     1.571546586    32.588538481     0.447290835    -0.182083330     0.129524400
   47    27.786592843     2.141280326    40.153303210     0.414944362    -0.211829381     0.181519942
   48    30.991507949     3.798130193    31.074405302     0.408261387    -0.229906469     0.174544135
   49    24.230974386     5.650288800    32.164300129    -0.421403003     0.164257085    -0.213164535
   50    27.385734411     9.724375136    37.285354040     0.402853589    -0.219779427     0.198509418
   51    30.662704514     6.157987514    31.213738926     0.419340556    -0.198391322     0.186532520
   52    30.370157084     9.920369272    31.914917554     0.403045631    -0.214859401     0.203444480
   53    29.639383748     4.600530891    39.837930360     0.407874887    -0.225852612     0.180634089
   54    25.798495980     2.707240179    40.149348099     0.404656772    -0.244916680     0.162076269
   55    24.244719125    10.375549407    33.050754633     0.404808135    -0.223016534     0.190772114
   56    27.355860659     4.368171057    40.014807346     0.415259161    -0.213676637     0.178611657
   57    26.245527177     6.294338761    37.644576002     0.417487573    -0.209325225     0.178569528
   58    25.118487522     0.582470577    37.434905673     0.406654189    -0.227166756     0.181735069
   59    26.770217563     2.061500351    38.150019386     0.412872748    -0.220253996     0.176137079
   60    29.875523483     6.740815511    39.395640635     0.408525616    -0.220604179     0.185581835
   61    30.040400787     2.114311845    40.299050461     0.424070942    -0.207126327     0.165113661
   62    29.872169982     7.630222307    32.733212529     0.421332406    -0.200219593     0.179975326
   63    23.134749286     8.163853824    39.927048486     0.401008184    -0.228127934     0.192743567
   64    24.474708770     9.485545978    30.993867325     0.407502424    -0.213589639     0.195758118
   65    25.601654479     4.212169894    33.840819896     0.378466585    -0.270890480     0.182705751
   66    21.999964055     7.093917345    38.434175844     0.397773765    -0.232572704     0.194128744
   67    28.830947522     3.122821404    38.545971948     0.414355569    -0.223122480     0.168895888
   68    21.993988328     2.653307514    35.645339881     0.472104195    -0.149954851     0.068052711
   21    32.887850729     6.866617572    34.711842625    -0.412869722     0.206594596    -0.191982463
   22    40.220156399     2.250240026    36.751769346     0.458012352    -0.170233064     0.106044282
   23    40.104229981     9.777565738    37.616608977     0.409271642    -0.218819951     0.186049865
   24    35.051020554     4.665279386    38.444720397     0.418114788    -0.203600718     0.183648500
   25    36.329679364     0.909129668    31.729736468     0.403283165    -0.224414373     0.192356122
   26    32.888905321     1.491507551    38.266881676     0.113772403     0.383716980    -0.299695045
   27    31.553528499     3.491766029    33.555085101     0.417670820    -0.216478347     0.169375946
   28    38.546689216     5.930579776    31.824363965     0.424130974    -0.199503538     0.174101277
   29    39.259319038     8.583392678    35.903878791     0.401432859    -0.225624944     0.194794878
   30    38.029285767     9.497054058    32.600924065     0.414384801    -0.218264328     0.175059761
   31    36.541654829    10.460804751    39.615315281     0.407624768    -0.229031464     0.177162742
   32    38.668529717     1.111791988    38.844243783     0.406627912    -0.228582674     0.180010284
   33    31.731753049     8.486118575    36.246461168     0.409067593    -0.226549744     0.177028014
   34    41.329057020     3.470884536    38.964693643     0.482861897     0.102371016    -0.079778216
   35    38.701346232     8.072528802    31.140906142     0.416762201    -0.214087567     0.174573142
   36    38.215114600     3.059288678    36.474976850     0.449936704    -0.177017056     0.127365317
   37    38.720673961     5.672168562    38.411688108     0.410911753    -0.215919789     0.185822970
   38    36.805722151     6.589375333    35.110826855     0.427532890    -0.198618264     0.166632569
   39    38.992228851     6.284716047    34.536352845     0.434895646    -0.186218221     0.161828772
   40    33.758639284     9.303471795    37.083317746     0.407857307    -0.224999119     0.181735560
   41    37.258011327     2.495376359    34.524294859     0.449052363    -0.176109240     0.131671983
   42    31.542121607     8.936963825    33.973328909     0.418818554    -0.201206470     0.184680738
   43    35.079932334     7.521654319    36.117719920     0.424420242    -0.201525544     0.171040677
   44    40.020327542     4.520995708    35.401058754     0.436569310    -0.186898656     0.156448490
   45    35.359758352    10.037703157    35.576884005     0.413390799    -0.211949331     0.184893290
   46    38.451784762     1.716206798    32.876625350     0.446926275    -0.182585407     0.130074879
   47    37.876248792     2.285940537    40.441390080     0.414502911    -0.211746056     0.182622409
   48    41.081163898     3.942790405    31.362492171     0.408097056    -0.229693153     0.175208014
   49    34.320630336     5.794949012    32.452386999    -0.419384411     0.183442114    -0.201160898
   50    37.475390360     9.869035348    37.573440910     0.402764195    -0.219350189     0.199164500
   51    40.752360464     6.302647726    31.501825795     0.419300876    -0.197900974     0.187141604
   52    40.459813034    10.065029484    32.203004424     0.402850009    -0.214462191     0.204249453
   53    39.729039697     4.745191103    40.126017230     0.407426667    -0.225789210     0.181721611
   54    35.888151929     2.851900391    40.437434969     0.404161037    -0.244984421     0.163206891
   55    34.334375075    10.520209618    33.338841503     0.404468906    -0.223074423     0.191422845
   56    37.445516608     4.512831269    40.302894216     0.414795784    -0.213598048     0.179778564
   57    36.335183127     6.438998973    37.932662872     0.417100533    -0.209208915     0.179607281
   58    35.208143472     0.727130788    37.722992543     0.406006315    -0.227373598     0.182921073
   59    36.859873513     2.206160562    38.438106255     0.412314438    -0.220413036     0.177242482
   60    39.965179432     6.885475722    39.683727504     0.408233341    -0.220589219     0.186241605
   61    40.130056736     2.258972057    40.587137330     0.423670390    -0.207097144     0.166175130
   62    39.961825932     7.774882518    33.021299398     0.421301784    -0.199686026     0.180638584
   63    33.224405235     8.308514036    40.215135356     0.400640114    -0.228454307     0.193122055
   64    34.564364719     9.630206190    31.281954195     0.407083922    -0.213771763     0.196428903
   65    35.691310429     4.356830106    34.128906766     0.375743607    -0.266890299     0.193871890
   66    32.089620005     7.238577557    38.722262713     0.397303843    -0.233100163     0.194458145
   67    38.920603471     3.267481616    38.834058818     0.413890165    -0.223118384     0.170038577
   68    32.083644278     2.797967725    35.933426750     0.471766023    -0.150546169     0.069084520
   21     2.753958350    16.457730458    33.878207440    -0.413054819     0.206120927    -0.192093414
   22    10.086264021    11.841352912    35.918134160     0.458215958    -0.167391447     0.109627732
   23     9.970337602    19.368678624    36.782973792     0.410411049    -0.218433444     0.183982611
   24     4.917128176    14.256392272    37.611085212     0.419092505    -0.202718422     0.182391650
   25     6.195786986    10.500242555    30.896101283     0.403543576    -0.223965250     0.192333431
   26     2.755012943    11.082620437    37.433246491     0.109900618     0.387872338    -0.295764947
   27     1.419636120    13.082878915    32.721449916     0.417832726    -0.216038627     0.169537975
   28     8.412796838    15.521692662    30.990728780     0.424760392    -0.198921107     0.173231067
   29     9.125426659    18.174505564    35.070243606     0.402660426    -0.225389813     0.192520163
   30     7.895393389    19.088166945    31.767288880     0.415097461    -0.217901241     0.173819293
   31     6.407762451    20.051917637    38.781680095     0.408725569    -0.228191665     0.175704221
   32     8.534637339    10.702904874    38.010608598     0.407369783    -0.227701190     0.179449236
   33     1.597860671    18.077231461    35.412825983     0.409427236    -0.226109674     0.176759027
   34    11.195164642    13.061997422    38.131058457     0.483513604     0.109215759    -0.065471462
   35     8.567453853    17.663641688    30.307270957     0.417407060    -0.213636064     0.173582771
   36     8.081222222    12.650401564    35.641341664     0.450218719    -0.175056091     0.129067694
   37     8.586781583    15.263281449    37.578052923     0.411966565    -0.214988514     0.184562965
   38     6.671829773    16.180488219    34.277191669     0.428424987    -0.197622985     0.165520954
   39     8.858336473    15.875828933    33.702717660     0.435729418    -0.185153554     0.160804339
   40     3.624746905    18.894584681    36.249682561     0.408545316    -0.224413834     0.180912011
   41     7.124118949    12.086489245    33.690659674     0.449309949    -0.174471268     0.132967463
   42     1.408229228    18.528076711    33.139693724     0.418990333    -0.200692984     0.184849743
   43     4.946039956    17.112767205    35.284084735     0.425266775    -0.200648926     0.169965227
   44     9.886435164    14.112108594    34.567423568     0.437451453    -0.185570594     0.155562787
   45     5.225865974    19.628816043    34.743248820     0.414159275    -0.211285657     0.183930602
   46     8.317892384    11.307319684    32.042990165     0.447233397    -0.181200312     0.130953179
   47     7.742356414    11.877053423    39.607754894     0.415290122    -0.210983276     0.181714534
   48    10.947271520    13.533903291    30.528856986     0.408704858    -0.228710792     0.175076305
   49     4.186737958    15.386061898    31.618751814    -0.417019200     0.186534809    -0.203223405
   50     7.341497982    19.460148234    36.739805725     0.403900960    -0.218605904     0.197675171
   51    10.618468086    15.893760612    30.668190610     0.420009673    -0.197316389     0.186166908
   52    10.325920656    19.656142370    31.369369238     0.403832174    -0.213919659     0.202874234
   53     9.595147319    14.336303989    39.292382045     0.408571951    -0.224981274     0.180145461
   54     5.754259551    12.443013277    39.603799783     0.405185478    -0.243985003     0.162160558
   55     4.200482697    20.111322504    32.505206318     0.405015844    -0.222732956     0.190662519
   56     7.311624230    14.103944155    39.469259030     0.415709579    -0.212753791     0.178665527
   57     6.201290749    16.030111859    37.099027686     0.418081176    -0.208308043     0.178370092
   58     5.074251094    10.318243674    36.889357358     0.406511249    -0.226726996     0.182601954
   59     6.725981135    11.797273448    37.604471070     0.412954940    -0.219579429     0.176785439
   60     9.831287054    16.476588608    38.850092319     0.409334328    -0.219607017     0.184981530
   61     9.996164358    11.850084943    39.753502145     0.424407596    -0.206243069     0.165354133
   62     9.827933554    17.365995404    32.187664213     0.422116049    -0.199036313     0.179450794
   63     3.090512857    17.899626922    39.381500171     0.401170755    -0.228035304     0.192514741
   64     4.430472341    19.221319076    30.448319010     0.407561658    -0.213443139     0.195794589
   65     5.557418051    13.947942992    33.295271581     0.367303762    -0.279552467     0.192193561
   66     1.955727626    16.829690443    37.888627528     0.397638042    -0.232798767     0.194135833
   67     8.786711093    12.858594502    38.000423632     0.414794728    -0.222314201     0.168883774
   68     1.949751899    12.389080612    35.099791565     0.471413472    -0.149408622     0.073799744
   21    12.843614300    16.602390669    34.166294310    -0.413976124     0.205372726    -0.190907862
   22    20.175919970    11.986013124    36.206221030     0.459176435    -0.165856149     0.107929327
   23    20.059993552    19.513338836    37.071060661     0.410220229    -0.217711065     0.185259968
   24    15.006784126    14.401052484    37.899172082     0.419353928    -0.202233522     0.182329060
   25    16.285442936    10.644902766    31.184188153     0.403978917    -0.223212619     0.192294464
   26    12.844668893    11.227280649    37.721333360     0.110178551     0.393901440    -0.287580150
   27    11.509292070    13.227539126    33.009536785     0.419198955    -0.214605579     0.167978217
   28    18.502452788    15.666352873    31.278815650     0.424927575    -0.198105461     0.173754950
   29    19.215082609    18.319165776    35.358330476     0.402401393    -0.224645240     0.193926882
   30    17.985049339    19.232827156    32.055375750     0.415301787    -0.216873740     0.174614451
   31    16.497418400    20.196577849    39.069766965     0.408721114    -0.228017151     0.175940985
   32    18.624293289    10.847565085    38.298695467     0.407653972    -0.227393307     0.179194093
   33    11.687516620    18.221891673    35.700912852     0.410093630    -0.225414253     0.176101189
   34    21.284820591    13.206657634    38.419145327     0.482064328     0.112218941    -0.070858256
   35    18.657109803    17.808301900    30.595357826     0.417581712    -0.212782246     0.174210303
   36    18.170878172    12.795061775    35.929428534     0.450884150    -0.173905474     0.128297969
   37    18.676437533    15.407941660    37.866139793     0.412008507    -0.214788253     0.184702453
   38    16.761485722    16.325148431    34.565278539     0.428564086    -0.197185348     0.165682716
   39    18.947992423    16.020489145    33.990804530     0.435752928    -0.184705404     0.161255387
   40    13.714402855    19.039244892    36.537769430     0.408894722    -0.223934608     0.180716345
   41    17.213774899    12.231149456    33.978746543     0.449884696    -0.173402967     0.132420434
   42    11.497885178    18.672736922    33.427780593     0.419774050    -0.200054491     0.183760571
   43    15.035695905    17.257427416    35.572171604     0.425453565    -0.200199393     0.170027842
   44    19.976091114    14.256768805    34.855510438     0.437455973    -0.185182042     0.156012444
   45    15.315521923    19.773476255    35.031335690     0.414381015    -0.210822879     0.183962191
   46    18.407548334    11.451979896    32.331077034     0.447767515    -0.180157503     0.130566178
   47    17.832012364    12.021713635    39.895841764     0.415480220    -0.210488298     0.181853961
   48    21.036927470    13.678563502    30.816943855     0.408941727    -0.228117057     0.175297668
   49    14.276393908    15.530722109    31.906838683    -0.421264197     0.180588721    -0.199810385
   50    17.431153932    19.604808445    37.027892594     0.403887755    -0.218457280     0.197866365
   51    20.708124035    16.038420824    30.956277480     0.420063814    -0.196619198     0.186781378
   52    20.415576605    19.800802581    31.657456108     0.403905350    -0.213147070     0.203540647
   53    19.684803269    14.480964201    39.580468914     0.408603882    -0.224782702     0.180320837
   54    15.843915501    12.587673489    39.891886653     0.405380205    -0.243664797     0.162155344
   55    14.290138647    20.255982716    32.793293187     0.405405515    -0.221895029     0.190811333
   56    17.401280180    14.248604367    39.757345900     0.415914770    -0.212361334     0.178654884
   57    16.290946698    16.174772071    37.387114556     0.418312790    -0.207852288     0.178358729
   58    15.163907044    10.462903886    37.177444227     0.406972500    -0.226443217     0.181925407
   59    16.815637085    11.941933660    37.892557939     0.413353481    -0.219193689     0.176332148
   60    19.920943004    16.621248820    39.138179189     0.409309105    -0.219564320     0.185087995
   61    20.085820308    11.994745154    40.041589015     0.424638001    -0.205594274     0.165570416
   62    19.917589503    17.510655616    32.475751082     0.422082828    -0.198490202     0.180132523
   63    13.180168807    18.044287134    39.669587040     0.401725405    -0.227446925     0.192053625
   64    14.520128291    19.365979288    30.736405879     0.407988990    -0.212548177     0.195878168
   65    15.647074001    14.092603204    33.583358450     0.357097818    -0.278412115     0.212056225
   66    12.045383576    16.974350654    38.176714398     0.398337460    -0.232077907     0.193564235
   67    18.876367043    13.003254713    38.288510502     0.414947848    -0.221961426     0.168971620
   68    12.039407849    12.533740823    35.387878435     0.471529303    -0.149043461     0.073798122
   21    22.933270250    16.747050881    34.454381179    -0.413310606     0.205806724    -0.191880002
   22    30.265575920    12.130673336    36.494307900     0.458023770    -0.168356766     0.108950563
   23    30.149649502    19.657999047    37.359147531     0.409608381    -0.218797749     0.185333536
   24    25.096440076    14.545712695    38.187258951     0.418096609    -0.203898797     0.183358954
   25    26.375098886    10.789562978    31.472275022     0.403109732    -0.224605547     0.192496474
   26    22.934324843    11.371940861    38.009420230     0.105974287     0.390702998    -0.293463145
   27    21.598948020    13.372199338    33.297623655     0.418536851    -0.214611975     0.169613102
   28    28.592108738    15.811013085    31.566902519     0.423944618    -0.199866911     0.174138389
   29    29.304738559    18.463825988    35.646417345     0.401752433    -0.225662471     0.194091297
   30    28.074705289    19.377487368    32.343462619     0.414413275    -0.218463207     0.174743999
   31    26.587074350    20.341238060    39.357853835     0.408137808    -0.228929245     0.176110563
   32    28.713949239    10.992225297    38.586782337     0.406533267    -0.228856019     0.179876694
   33    21.777172570    18.366551885    35.988999722     0.409683833    -0.225533068     0.176901080
   34    31.374476541    13.351317846    38.707232197     0.483499534     0.106836519    -0.069384143
   35    28.746765753    17.952962111    30.883444696     0.416596179    -0.214449089     0.174525677
   36    28.260534121    12.939721987    36.217515403     0.449830972    -0.176082991     0.129022778
   37    28.766093482    15.552601872    38.154226662     0.410989426    -0.216158995     0.185372546
   38    26.851141672    16.469808643    34.853365409     0.427616056    -0.198711912     0.166307199
   39    29.037648373    16.165149356    34.278891399     0.434862773    -0.186357354     0.161756934
   40    23.804058805    19.183905104    36.825856300     0.408343674    -0.224380274     0.181408205
   41    27.303430848    12.375809668    34.266833413     0.448885811    -0.175438046     0.133127835
   42    21.587541128    18.817397134    33.715867463     0.419513502    -0.199778630     0.184653516
   43    25.125351855    17.402087628    35.860258474     0.424566556    -0.201523284     0.170679834
   44    30.065747063    14.401429017    35.143597308     0.436547323    -0.186930645     0.156471623
   45    25.405177873    19.918136467    35.319422559     0.413811925    -0.211559858     0.184396629
   46    28.497204284    11.596640107    32.619163904     0.446761699    -0.182119080     0.131288328
   47    27.921668314    12.166373847    40.183928634     0.414402542    -0.212132196     0.182401932
   48    31.126583420    13.823223714    31.105030725     0.407889089    -0.229815236     0.175531901
   49    24.366049857    15.675382321    32.194925553    -0.418081823     0.185920291    -0.201596714
   50    27.520809882    19.749468657    37.315979464     0.403189045    -0.219351565     0.198301500
   51    30.797779985    16.183081035    31.244364349     0.419179976    -0.198162129     0.187136095
   52    30.505232555    19.945462793    31.945542978     0.402902183    -0.214772407     0.203820127
   53    29.774459219    14.625624412    39.868555784     0.407554970    -0.226168080     0.180961173
   54    25.933571451    12.732333700    40.179973523     0.404047316    -0.245135733     0.163261260
   55    24.379794596    20.400642928    33.081380057     0.404888859    -0.222577927     0.191112736
   56    27.490936130    14.393264578    40.045432770     0.414743198    -0.213933486     0.179500816
   57    26.380602648    16.319432282    37.675201426     0.417112412    -0.209451646     0.179296524
   58    25.253562993    10.607564098    37.465531097     0.406013077    -0.227622539     0.182596169
   59    26.905293034    12.086593872    38.180644809     0.412289825    -0.220605741     0.177059898
   60    30.010598954    16.765909032    39.426266058     0.408388564    -0.220759532     0.185698708
   61    30.175476258    12.139405366    40.329675884     0.423562753    -0.207486122     0.165964163
   62    30.007245453    17.655315828    32.763837952     0.421245928    -0.199937644     0.180490461
   63    23.269824757    18.188947345    39.957673910     0.401339419    -0.227694359     0.192566740
   64    24.609784241    19.510639499    31.024492749     0.407544153    -0.213133043     0.196168472
   65    25.736729950    14.237263415    33.871445320     0.372936949    -0.266058503     0.200326996
   66    22.135039526    17.119010866    38.464801267     0.398010095    -0.232258493     0.194020504
   67    28.966022993    13.147914925    38.576597372     0.413883917    -0.223435863     0.169636430
   68    22.129063799    12.678401035    35.675965304     0.472587677    -0.147004967     0.071066360
   21    33.022926200    16.891711093    34.742468049    -0.412816788     0.206623361    -0.192065318
   22    40.355231870    12.275333547    36.782394769     0.457971472    -0.167789834     0.110039551
   23    40.239305452    19.802659259    37.647234400     0.409447089    -0.219243393     0.185163216
   24    35.186096025    14.690372907    38.475345821     0.418285997    -0.203442870     0.183433431
   25    36.464754835    10.934223190    31.760361892     0.402936651    -0.224473398     0.193012304
   26    33.023980792    11.516601072    38.297507099     0.121301680     0.382588894    -0.298180550
   27    31.688603970    13.516859550    33.585710525     0.417708369    -0.216306745     0.169502539
   28    38.681764687    15.955673297    31.854989389     0.424060459    -0.199671529     0.174080462
   29    39.394394509    18.608486199    35.934504215     0.401578387    -0.226080614     0.193964830
   30    38.164361238    19.522147580    32.631549489     0.414365520    -0.218644760     0.174630138
   31    36.676730300    20.485898272    39.645940704     0.407821689    -0.229449716     0.176165542
   32    38.803605188    11.136885509    38.874869207     0.406539413    -0.228389661     0.180454615
   33    31.866828520    18.511212096    36.277086591     0.409102764    -0.226499020     0.177011646
   34    41.464132491    13.495978057    38.995319066     0.483528185     0.108200839    -0.067030388
   35    38.836421703    18.097622323    31.171531566     0.416718159    -0.214328032     0.174383115
   36    38.350190071    13.084382199    36.505602273     0.449815617    -0.175563267     0.129782317
   37    38.855749432    15.697262083    38.442313532     0.411169505    -0.215783087     0.185411159
   38    36.940797622    16.614468854    35.141452278     0.427673535    -0.198523662     0.166384202
   39    39.127304322    16.309809568    34.566978269     0.434978432    -0.186054352     0.161794752
   40    33.893714755    19.328565316    37.113943170     0.407949484    -0.225062864     0.181449512
   41    37.393086798    12.520469880    34.554920282     0.448902975    -0.174882465     0.133799263
   42    31.677197078    18.962057346    34.003954333     0.418843143    -0.200915911     0.184941121
   43    35.215007805    17.546747840    36.148345344     0.424558185    -0.201493074     0.170736314
   44    40.155403013    14.546089229    35.431684177     0.436652924    -0.186539214     0.156644010
   45    35.494833823    20.062796678    35.607509429     0.413531303    -0.212077910     0.184431076
   46    38.586860233    11.741300319    32.907250774     0.446801772    -0.181582796     0.131893383
   47    38.011324263    12.311034058    40.472015503     0.414478797    -0.211631688     0.182809615
   48    41.216239369    13.967883926    31.393117595     0.407919952    -0.229602426     0.175738551
   49    34.455705807    15.820042533    32.483012422    -0.418439858     0.188306516    -0.198617073
   50    37.610465831    19.894128869    37.604066334     0.403058613    -0.219740085     0.198136442
   51    40.887435935    16.327741247    31.532451219     0.419275567    -0.198041876     0.187049229
   52    40.594888505    20.090123005    32.233629847     0.403058577    -0.214599654     0.203692836
   53    39.864115169    14.770284624    40.156642654     0.407725465    -0.225763882     0.181081790
   54    36.023227400    12.876993912    40.468060392     0.404098199    -0.245079345     0.163219975
   55    34.469450546    20.545303139    33.369466926     0.404503865    -0.223309371     0.191074719
   56    37.580592079    14.537924790    40.333519639     0.414849149    -0.213521438     0.179746430
   57    36.470258598    16.464092494    37.963288295     0.417289441    -0.209073220     0.179326270
   58    35.343218943    10.752224309    37.753617967     0.405704279    -0.227482777     0.183454692
   59    36.994948984    12.231254083    38.468731679     0.412137411    -0.220355260     0.177725390
   60    40.100254903    16.910569243    39.714352928     0.408554255    -0.220449862     0.185702123
   61    40.265132207    12.284065578    40.617762754     0.423670926    -0.206887420     0.166434799
   62    40.096901403    17.799976039    33.051924822     0.421310770    -0.199791694     0.180500733
   63    33.359480706    18.333607557    40.245760779     0.400600643    -0.228766593     0.192834049
   64    34.699440191    19.655299711    31.312579619     0.407097815    -0.213991899     0.196160232
   65    35.826385900    14.381923627    34.159532189     0.370391405    -0.276993718     0.189959699
   66    32.224695476    17.263671078    38.752888137     0.397220999    -0.233363079     0.194311994
   67    39.055678942    13.292575137    38.864684241     0.414021149    -0.222935506     0.169959549
   68    32.218719749    12.823061247    35.964052174     0.471444739    -0.150021328     0.072342650
   21     2.889033821    26.482823979    33.908832864    -0.413674245     0.205286137    -0.191653909
   22    10.221339492    21.866446433    35.948759584     0.458819252    -0.168275288     0.105680280
   23    10.105413073    29.393772145    36.813599215     0.410338902    -0.218018626     0.184634406
   24     5.052203647    24.281485793    37.641710636     0.419368741    -0.202403634     0.182106091
   25     6.330862457    20.525336076    30.926726707     0.403542609    -0.224284695     0.191962856
   26     2.890088414    21.107713958    37.463871914     0.099496930     0.388294413    -0.298877583
   27     1.554711591    23.107972436    32.752075339     0.417929672    -0.216089718     0.169233636
   28     8.547872309    25.546786183    31.021354203     0.425012653    -0.198542895     0.173046131
   29     9.260502130    28.199599085    35.100869030     0.402486307    -0.224935684     0.193413316
   30     8.030468860    29.113260466    31.797914304     0.415411063    -0.217282265     0.173844950
   31     6.542837922    30.077011158    38.812305519     0.408690025    -0.227956070     0.176092288
   32     8.669712810    20.727998395    38.041234021     0.407689335    -0.227594185     0.178858304
   33     1.732936142    28.102324982    35.443451406     0.409744459    -0.225590109     0.176687808
   34    11.330240113    23.087090943    38.161683881     0.482529121     0.106587215    -0.076189323
   35     8.702529324    27.688735209    30.337896380     0.417666020    -0.213140175     0.173569471
   36     8.216297693    22.675495085    35.671967088     0.450776211    -0.175425552     0.126596538
   37     8.721857054    25.288374970    37.608678347     0.412186378    -0.214785231     0.184308694
   38     6.806905244    26.205581740    34.307817093     0.428647330    -0.197217931     0.165428396
   39     8.993411944    25.900922454    33.733343084     0.435927540    -0.184772409     0.160705746
   40     3.759822376    28.919678202    36.280307984     0.408772256    -0.223952319     0.180971273
   41     7.259194420    22.111582766    33.721285097     0.449808815    -0.174810077     0.130818449
   42     1.543304699    28.553170232    33.170319147     0.419304088    -0.200381133     0.184476241
   43     5.081115427    27.137860726    35.314710158     0.425512676    -0.200189088     0.169891999
   44    10.021510635    24.137202115    34.598048992     0.437608484    -0.185349571     0.155384527
   45     5.360941445    29.653909564    34.773874244     0.414403219    -0.210763923     0.183979730
   46     8.452967855    21.332413205    32.073615588     0.447639349    -0.181485528     0.129158879
   47     7.877431885    21.902146944    39.638380318     0.415704361    -0.210469564     0.181362750
   48    11.082346991    23.558996812    30.559482409     0.408950365    -0.228714706     0.174496941
   49     4.321813429    25.411155419    31.649377237    -0.419018536     0.185250068    -0.200264522
   50     7.476573453    29.485241755    36.770431148     0.403892348    -0.218267334     0.198066509
   51    10.753543557    25.918854133    30.698816034     0.420268670    -0.196772103     0.186158492
   52    10.460996127    29.681235891    31.399994662     0.404038358    -0.213407559     0.203003004
   53     9.730222790    24.361397510    39.323007468     0.408810976    -0.224642336     0.180026128
   54     5.889335022    22.468106798    39.634425207     0.405656311    -0.243535809     0.161657869
   55     4.335558168    30.136416025    32.535831741     0.405400676    -0.222079313     0.190607110
   56     7.446699701    24.129037676    39.499884454     0.416074537    -0.212337446     0.178310934
   57     6.336366220    26.055205380    37.129653110     0.418338702    -0.207992482     0.178134383
   58     5.209326565    20.343337195    36.919982781     0.406831563    -0.226576468     0.182074665
   59     6.861056606    21.822366969    37.635096493     0.413264914    -0.219452729     0.176217510
   60     9.966362525    26.501682129    38.880717742     0.409505085    -0.219537206     0.184686223
   61    10.131239829    21.875178464    39.784127569     0.424888071    -0.205627307     0.164886440
   62     9.963009025    27.391088925    32.218289636     0.422353407    -0.198540512     0.179441536
   63     3.225588328    27.924720443    39.412125594     0.401190209    -0.227812941     0.192737335
   64     4.565547812    29.246412597    30.478944433     0.407950597    -0.212818975     0.195663982
   65     5.692493522    23.973036513    33.325897004     0.371851601    -0.277328443     0.186588641
   66     2.090803098    26.854783964    37.919252952     0.397728678    -0.232541008     0.194259049
   67     8.921786564    22.883688023    38.031049056     0.415121631    -0.221977818     0.168522639
   68     2.084827370    22.414174133    35.130416989     0.471392512    -0.150952078     0.070728847
   21    12.978689771    26.627484190    34.196919733    -0.414177648     0.204923623    -0.190953358
   22    20.310995441    22.011106645    36.236846454     0.459128776    -0.164089583     0.110794295
   23    20.195069023    29.538432357    37.101686085     0.410710673    -0.218056828     0.183760612
   24    15.141859597    24.426146005    37.929797505     0.419490540    -0.202341027     0.181895012
   25    16.420518407    20.669996287    31.214813576     0.404022547    -0.223038231     0.192405117
   26    12.979744364    21.252374170    37.751958784     0.110937399     0.384927298    -0.299205396
   27    11.644367541    23.252632647    33.040162209     0.418854403    -0.214026648     0.169568815
   28    18.637528259    25.691446394    31.309441073     0.425491437    -0.197858599     0.172652864
   29    19.350158080    28.344259297    35.388955899     0.402979963    -0.224822971     0.192514366
   30    18.120124810    29.257920677    32.086001173     0.415876650    -0.216750343     0.173395215
   31    16.632493871    30.221671370    39.100392389     0.409134023    -0.227894764     0.175138024
   32    18.759368760    20.872658606    38.329320891     0.407590284    -0.227451898     0.179264593
   33    11.822592091    28.246985194    35.731538276     0.410342204    -0.225057285     0.175978675
   34    21.419896063    23.231751155    38.449770751     0.482574120     0.116227005    -0.060112413
   35    18.792185274    27.833395421    30.625983250     0.418195987    -0.212555711     0.173009209
   36    18.305953643    22.820155296    35.960053957     0.450946235    -0.172727170     0.129664249
   37    18.811513004    25.433035181    37.896765216     0.412188159    -0.215110951     0.183924442
   38    16.896561194    26.350241952    34.595903963     0.428930664    -0.196913139     0.165056659
   39    19.083067894    26.045582666    34.021429953     0.436296007    -0.184232973     0.160324689
   40    13.849478326    29.064338413    36.568394854     0.409279507    -0.223592851     0.180267917
   41    17.348850370    22.256242977    34.009371967     0.450021123    -0.172275208     0.133425042
   42    11.632960649    28.697830443    33.458406017     0.419924867    -0.199575307     0.183936953
   43    15.170771376    27.282520937    35.602797028     0.425811691    -0.199920690     0.169458318
   44    20.111166585    24.281862326    34.886135862     0.438022011    -0.184583390     0.155131203
   45    15.450597394    29.798569776    35.061961113     0.414854903    -0.210400876     0.183376338
   46    18.542623805    21.477073417    32.361702458     0.447905051    -0.179194461     0.131416934
   47    17.967087835    22.046807156    39.926467187     0.415540002    -0.210753520     0.181409647
   48    21.172002941    23.703657023    30.847569279     0.409483377    -0.228062977     0.174099518
   49    14.411469379    25.555815631    31.937464107    -0.421833186     0.182064039    -0.197254781
   50    17.566229403    29.629901966    37.058518018     0.404337080    -0.218219984     0.197209443
   51    20.843199506    26.063514345    30.986902903     0.420734791    -0.196315085     0.185587238
   52    20.550652076    29.825896102    31.688081532     0.404611137    -0.212940627     0.202351469
   53    19.819878740    24.506057722    39.611094338     0.408763874    -0.225294276     0.179316993
   54    15.978990972    22.612767010    39.922512077     0.405392675    -0.243819619     0.161891238
   55    14.425214118    30.281076237    32.823918611     0.405972294    -0.221417720     0.190159643
   56    17.536355651    24.273697888    39.787971324     0.415967324    -0.212627624     0.178215261
   57    16.426022169    26.199865592    37.417739980     0.418491382    -0.207918361     0.177862078
   58    15.298982515    20.487997407    37.208069651     0.406873921    -0.226294720     0.182330228
   59    16.950712556    21.967027181    37.923183363     0.413295660    -0.219130337     0.176546290
   60    20.056018475    26.646342341    39.168804612     0.409439978    -0.219934567     0.184357507
   61    20.220895779    22.019838675    40.072214438     0.424609127    -0.205972290     0.165174165
   62    20.052664974    27.535749137    32.506376506     0.422714203    -0.198132823     0.179042138
   63    13.315244278    28.069380655    39.700212464     0.401823361    -0.227506622     0.191777797
   64    14.655203762    29.391072809    30.767031303     0.408548090    -0.212041635     0.195260859
   65    15.782149472    24.117696725    33.613983874     0.380049470    -0.269908323     0.180864306
   66    12.180459047    26.999444175    38.207339821     0.398458247    -0.232075433     0.193318440
   67    19.011442514    23.028348234    38.319135926     0.415056718    -0.222231165     0.168348536
   68    12.174483320    22.558834344    35.418503858     0.471983602    -0.150349901     0.068017550
   21    23.068345721    26.772144402    34.485006603    -0.414472786     0.205029297    -0.190198047
   22    30.400651391    22.155766857    36.524933323     0.458592683    -0.166400596     0.109560909
   23    30.284724973    29.683092568    37.389772954     0.410291826    -0.218309794     0.184394824
   24    25.231515547    24.570806216    38.217884375     0.419053369    -0.202866244     0.182317198
   25    26.510174357    20.814656499    31.502900446     0.403252592    -0.224392822     0.192445339
   26    23.069400314    21.397034382    38.040045653     0.107735540     0.399767570    -0.280319360
   27    21.734023491    23.397292859    33.328249078     0.419623533    -0.214732933     0.166750887
   28    28.727184209    25.836106606    31.597527943     0.424821467    -0.199386274     0.172545167
   29    29.439814030    28.488919509    35.677042769     0.402568369    -0.225254117     0.192871177
   30    28.209780760    29.402580889    32.374088043     0.415245085    -0.218021601     0.173315034
   31    26.722149821    30.366331581    39.388479258     0.408820280    -0.228003281     0.175728434
   32    28.849024710    21.017318818    38.617407761     0.406992326    -0.228288372     0.179559645
   33    21.912248041    28.391645406    36.019625145     0.410448518    -0.225227552     0.175512291
   34    31.509552012    23.376411367    38.737857620     0.482987846     0.112163432    -0.064359189
   35    28.881841224    27.978055632    30.914070120     0.417468584    -0.213954424     0.173041861
   36    28.395609592    22.964815508    36.248140827     0.450439946    -0.174605238     0.128906421
   37    28.901168954    25.577695393    38.184852086     0.411786408    -0.215241989     0.184669544
   38    26.986217143    26.494902164    34.883990832     0.428577342    -0.197686294     0.165050269
   39    29.172723844    26.190242877    34.309516823     0.435758550    -0.185503166     0.160321745
   40    23.939134276    29.208998625    36.856481724     0.409185859    -0.223932874     0.180058326
   41    27.438506319    22.400903189    34.297458836     0.449500485    -0.174079121     0.132837397
   42    21.722616599    28.842490655    33.746492887     0.420252449    -0.199448587     0.183325230
   43    25.260427326    27.427181149    35.890883898     0.425548224    -0.200519426     0.169412716
   44    30.200822534    24.426522538    35.174222731     0.437426361    -0.186050130     0.155059755
   45    25.540253344    29.943229988    35.350047983     0.414694556    -0.210771615     0.183313260
   46    28.632279755    21.621733629    32.649789328     0.447335993    -0.180969758     0.130921564
   47    28.056743785    22.191467368    40.214554057     0.414971875    -0.211378739     0.181981791
   48    31.261658891    23.848317235    31.135656149     0.408647282    -0.229694481     0.173919075
   49    24.501125328    25.700475842    32.225550976    -0.421789138     0.183679056    -0.195846694
   50    27.655885353    29.774562178    37.346604888     0.404054780    -0.218308637     0.197689336
   51    30.932855456    26.208174556    31.274989773     0.420045725    -0.197678117     0.185701241
   52    30.640308026    29.970556314    31.976168401     0.403859935    -0.214380650     0.202331634
   53    29.909534690    24.650717933    39.899181208     0.408317244    -0.225378223     0.180226760
   54    26.068646922    22.757427221    40.210598946     0.404726270    -0.244617233     0.162354721
   55    24.514870068    30.425736449    33.112005480     0.405791078    -0.221979239     0.189891596
   56    27.626011601    24.418358099    40.076058193     0.415427795    -0.213206669     0.178781049
   57    26.515678119    26.344525803    37.705826849     0.418078362    -0.208418431     0.178247696
   58    25.388638464    20.632657619    37.496156521     0.406322307    -0.227380176     0.182209874
   59    27.040368505    22.111687393    38.211270233     0.412709887    -0.220154717     0.176642151
   60    30.145674425    26.791002553    39.456891482     0.409092767    -0.219893320     0.185175689
   61    30.310551729    22.164498887    40.360301308     0.424080409    -0.206591273     0.165758416
   62    30.142320924    27.680409349    32.794463376     0.422110448    -0.199346166     0.179119726
   63    23.404900228    28.214040866    39.988299333     0.401655886    -0.227802421     0.191777491
   64    24.744859712    29.535733020    31.055118173     0.408413498    -0.212573217     0.194964207
   65    25.871805421    24.262356936    33.902070743     0.372144497    -0.275041041     0.189369742
   66    22.270114997    27.144104387    38.495426691     0.398355182    -0.232435537     0.193098085
   67    29.101098464    23.173008446    38.607222795     0.414561425    -0.222678718     0.168976368
   68    22.264139270    22.703494556    35.706590728     0.472571614    -0.144627186     0.075888381
   21    33.158001671    26.916804614    34.773093473    -0.413815130     0.205767670    -0.190831613
   22    40.490307341    22.300427068    36.813020193     0.458057110    -0.169013328     0.107787658
   23    40.374380923    29.827752780    37.677859824     0.409802720    -0.218532917     0.185216347
   24    35.321171496    24.715466428    38.505971244     0.418410685    -0.203623170     0.182948362
   25    36.599830306    20.959316711    31.790987315     0.402958829    -0.224970741     0.192385935
   26    33.159056263    21.541694593    38.328132523     0.109114312     0.397411314    -0.283122438
   27    31.823679441    23.541953071    33.616335948     0.418761974    -0.216161191     0.167071089
   28    38.816840158    25.980766818    31.885614812     0.424342621    -0.199660289     0.173404466
   29    39.529469980    28.633579720    35.965129638     0.401978722    -0.225532684     0.193773361
   30    38.299436709    29.547241101    32.662174913     0.414723870    -0.218307235     0.174201214
   31    36.811805771    30.510991793    39.676566128     0.408236903    -0.228344958     0.176638644
   32    38.938680660    21.161979030    38.905494630     0.406728039    -0.228712018     0.179619362
   33    32.001903991    28.536305617    36.307712015     0.409822547    -0.225767917     0.176279118
   34    41.599207962    23.521071578    39.025944490     0.483180054     0.106296430    -0.072374748
   35    38.971497174    28.122715844    31.202156989     0.417010714    -0.214212285     0.173825089
   36    38.485265542    23.109475720    36.536227697     0.449945091    -0.176461770     0.128104095
   37    38.990824903    25.722355604    38.472938955     0.411280917    -0.215704008     0.185256007
   38    37.075873093    26.639562375    35.172077702     0.427883778    -0.198474991     0.165901027
   39    39.262379794    26.334903089    34.597603692     0.435134744    -0.186221853     0.161180569
   40    34.028790226    29.353658837    37.144568593     0.408483049    -0.224443383     0.181015929
   41    37.528162269    22.545563401    34.585545706     0.449043398    -0.175715069     0.132227991
   42    31.812272549    28.987150867    34.034579756     0.419651163    -0.200317703     0.183754508
   43    35.350083276    27.571841361    36.178970767     0.424820391    -0.201308361     0.170301437
   44    40.290478484    24.571182750    35.462309601     0.436764275    -0.186906577     0.155893874
   45    35.629909294    30.087890199    35.638134852     0.413951607    -0.211445727     0.184213928
   46    38.721935704    21.766393840    32.937876197     0.446899814    -0.182375514     0.130459679
   47    38.146399734    22.336127579    40.502640927     0.414639363    -0.211914854     0.182116154
   48    41.351314841    23.992977447    31.423743018     0.408150575    -0.229954009     0.174740554
   49    34.590781278    25.845136054    32.513637846    -0.422213202     0.182457708    -0.196074468
   50    37.745541302    29.919222390    37.634691757     0.403386261    -0.218712905     0.198605612
   51    41.022511406    26.352834768    31.563076642     0.419584091    -0.197940261     0.186464054
   52    40.729963976    30.115216526    32.264255271     0.403369556    -0.214312417     0.203379422
   53    39.999190640    24.795378145    40.187268077     0.407796955    -0.225747442     0.180941251
   54    36.158302871    22.902087433    40.498685816     0.404466769    -0.245010534     0.162408347
   55    34.604526017    30.570396660    33.400092350     0.405018124    -0.222665543     0.190736402
   56    37.715667550    24.563018311    40.364145063     0.414993154    -0.213755833     0.179134379
   57    36.605334069    26.489186015    37.993913719     0.417425093    -0.209157503     0.178911795
   58    35.478294414    20.777317830    37.784243390     0.405983415    -0.227949747     0.182253614
   59    37.130024455    22.256347604    38.499357102     0.412381093    -0.220727804     0.176694852
   60    40.235330374    26.935662764    39.744978351     0.408662272    -0.220235344     0.185718984
   61    40.400207679    22.309159099    40.648388178     0.423834613    -0.207179463     0.165652923
   62    40.231976874    27.825069560    33.082550245     0.421630362    -0.199626860     0.179935973
   63    33.494556177    28.358701078    40.276386203     0.401251397    -0.227749574     0.192684842
   64    34.834515662    29.680393232    31.343205042     0.407663405    -0.213332418     0.195703416
   65    35.961461371    24.407017148    34.190157613     0.375098800    -0.273023309     0.186438093
   66    32.359770947    27.288764599    38.783513561     0.397957312    -0.232337115     0.194034644
   67    39.190754413    23.317668658    38.895309665     0.414111492    -0.223167132     0.169434659
   68    32.353795220    22.848154768    35.994677597     0.472025803    -0.147424270     0.073876424
   21     3.024109292    36.507917500    33.939458287    -0.413464534     0.205933579    -0.191411703
   22    10.356414963    31.891539954    35.979385008     0.458906581    -0.166897143     0.107471361
   23    10.240488544    39.418865666    36.844224639     0.410389375    -0.218014456     0.184527119
   24     5.187279118    34.306579314    37.672336059     0.419196472    -0.202491902     0.182404350
   25     6.465937928    30.550429597    30.957352130     0.404082292    -0.223492333     0.191751607
   26     3.025163885    31.132807479    37.494497338     0.099732839     0.387149855    -0.300280454
   27     1.689787062    33.133065957    32.782700763     0.418539776    -0.215063750     0.169032657
   28     8.682947780    35.571879704    31.051979627     0.425216450    -0.198229141     0.172905112
   29     9.395577601    38.224692606    35.131494453     0.402678312    -0.224855161     0.193107052
   30     8.165544331    39.138353987    31.828539727     0.415527990    -0.217147489     0.173733868
   31     6.677913393    40.102104679    38.842930943     0.408723225    -0.227907584     0.176077990
   32     8.804788281    30.753091916    38.071859445     0.407579643    -0.227421932     0.179326795
   33     1.868011613    38.127418504    35.474076830     0.409702374    -0.225903752     0.176384409
   34    11.465315584    33.112184464    38.192309305     0.482494327     0.109685329    -0.071891258
   35     8.837604795    37.713828730    30.368521804     0.417866646    -0.212951969     0.173317412
   36     8.351373164    32.700588606    35.702592511     0.450809935    -0.174520697     0.127722076
   37     8.856932525    35.313468491    37.639303770     0.411958729    -0.214911708     0.184669875
   38     6.941980715    36.230675261    34.338442517     0.428589814    -0.197348288     0.165421959
   39     9.128487415    35.926015975    33.763968507     0.435913479    -0.184864263     0.160638236
   40     3.894897847    38.944771723    36.310933408     0.408760642    -0.224179737     0.180715753
   41     7.394269891    32.136676287    33.751910521     0.449915962    -0.173840730     0.131738482
   42     1.678380170    38.578263753    33.200944571     0.419278506    -0.200620266     0.184274369
   43     5.216190898    37.162954247    35.345335582     0.425439863    -0.200364497     0.169867570
   44    10.156586106    34.162295636    34.628674415     0.437599537    -0.185390037     0.155361448
   45     5.496016916    39.679003085    34.804499667     0.414389251    -0.210925557     0.183825891
   46     8.588043326    31.357506726    32.104241012     0.447812852    -0.180515961     0.129913961
   47     8.012507356    31.927240465    39.669005741     0.415371519    -0.210801734     0.181739181
   48    11.217422462    33.584090333    30.590107833     0.409146204    -0.228218345     0.174687637
   49     4.456888900    35.436248940    31.680002661    -0.420746919     0.183016793    -0.198687906
   50     7.611648924    39.510335276    36.801056572     0.403888661    -0.218329543     0.198005454
   51    10.888619028    35.943947654    30.729441457     0.420412726    -0.196691078     0.185918692
   52    10.596071598    39.706329412    31.430620086     0.404291828    -0.213148739     0.202770147
   53     9.865298261    34.386491031    39.353632892     0.408556167    -0.224819465     0.180383110
   54     6.024410493    32.493200319    39.665050631     0.405284658    -0.243737148     0.162285393
   55     4.470633639    40.161509546    32.566457165     0.405539977    -0.222067539     0.190324289
   56     7.581775172    34.154131197    39.530509877     0.415784866    -0.212545102     0.178738705
   57     6.471441691    36.080298901    37.160278534     0.418180528    -0.208093713     0.178387366
   58     5.344402036    30.368430716    36.950608205     0.406893808    -0.226194852     0.182409752
   59     6.996132077    31.847460490    37.665721917     0.413251536    -0.219151456     0.176623349
   60    10.101437996    36.526775650    38.911343166     0.409281451    -0.219636333     0.185063705
   61    10.266315300    31.900271985    39.814752992     0.424474440    -0.206106878     0.165352364
   62    10.098084496    37.416182446    32.248915060     0.422402866    -0.198536944     0.179329029
   63     3.360663799    37.949813964    39.442751018     0.401353990    -0.227642451     0.192597739
   64     4.700623283    39.271506118    30.509569857     0.408122032    -0.212750006     0.195381273
   65     5.827568993    33.998130034    33.356522428     0.376072764    -0.273225452     0.184166036
   66     2.225878569    36.879877485    37.949878375     0.397887134    -0.232319690     0.194199357
   67     9.056862035    32.908781544    38.061674480     0.414912164    -0.222069169     0.168917672
   68     2.219902841    32.439267654    35.161042412     0.471675577    -0.150212411     0.070415778
   21    13.113765242    36.652577711    34.227545157    -0.414324507     0.204903542    -0.190656082
   22    20.446070912    32.036200166    36.267471877     0.458788844    -0.168325142     0.105732888
   23    20.330144494    39.563525878    37.132311508     0.410368883    -0.218742064     0.183709795
   24    15.276935068    34.451239526    37.960422929     0.419796735    -0.202141802     0.181409462
   25    16.555593878    30.695089808    31.245439000     0.404557743    -0.222846249     0.191500867
   26    13.114819835    31.277467691    37.782584207     0.098475427     0.389780035    -0.297277840
   27    11.779443012    33.277726168    33.070787632     0.418840437    -0.214759357     0.168674559
   28    18.772603730    35.716539915    31.340066497     0.425420157    -0.198509311     0.172080631
   29    19.485233551    38.369352818    35.419581323     0.402618334    -0.225655405     0.192296947
   30    18.255200281    39.283014198    32.116626597     0.415699645    -0.217422889     0.172977143
   31    16.767569342    40.246764891    39.131017812     0.408852906    -0.228439158     0.175085272
   32    18.894444231    30.897752128    38.359946314     0.408018874    -0.227314982     0.178461474
   33    11.957667562    38.272078715    35.762163699     0.410279674    -0.225284255     0.175833995
   34    21.554971534    33.256844676    38.480396174     0.482931875     0.103610882    -0.077727662
   35    18.927260745    37.858488942    30.656608674     0.418004873    -0.213239906     0.172628702
   36    18.441029114    32.845248818    35.990679381     0.450880712    -0.175216760     0.126513518
   37    18.946588475    35.458128702    37.927390640     0.412487337    -0.214490708     0.183978077
   38    17.031636665    36.375335473    34.626529386     0.429022422    -0.197210210     0.164462441
   39    19.218143365    36.070676187    34.052055377     0.436201331    -0.184925788     0.159783767
   40    13.984553797    39.089431934    36.599020277     0.409139298    -0.223970314     0.180117553
   41    17.483925841    32.281336498    34.039997390     0.450007835    -0.174289139     0.130829066
   42    11.768036120    38.722923965    33.489031441     0.420006877    -0.199616331     0.183705045
   43    15.305846847    37.307614458    35.633422452     0.425919733    -0.200156094     0.168908021
   44    20.246242056    34.306955847    34.916761285     0.437876619    -0.185482079     0.154468330
   45    15.585672865    39.823663297    35.092586537     0.414742445    -0.210904526     0.183051866
   46    18.677699276    31.502166938    32.392327882     0.447953200    -0.180723591     0.129139127
   47    18.102163306    32.071900677    39.957092611     0.415845923    -0.210598313     0.180888140
   48    21.307078412    33.728750544    30.878194703     0.409598595    -0.228405570     0.173377873
   49    14.546544850    35.580909152    31.968089530    -0.425602748     0.171163382    -0.198910527
   50    17.701304874    39.654995487    37.089143442     0.404056273    -0.218851964     0.197084616
   51    20.978274977    36.088607866    31.017528327     0.420592620    -0.196964091     0.185221476
   52    20.685727547    39.850989623    31.718706955     0.404391586    -0.213552329     0.202145610
   53    19.954954211    34.531151243    39.641719762     0.409077521    -0.224323690     0.179817863
   54    16.114066443    32.637860531    39.953137500     0.405943402    -0.243212582     0.161423649
   55    14.560289589    40.306169758    32.854544034     0.405908113    -0.222006564     0.189609309
   56    17.671431122    34.298791409    39.818596747     0.416374473    -0.212130674     0.177856333
   57    16.561097640    36.224959113    37.448365403     0.418780984    -0.207715040     0.177417444
   58    15.434057986    30.513090928    37.238695074     0.407370352    -0.226078082     0.181488560
   59    17.085788027    31.992120702    37.953808787     0.413724832    -0.219017817     0.175678568
   60    20.191093946    36.671435862    39.199430036     0.409737576    -0.219299355     0.184453006
   61    20.355971250    32.044932196    40.102839862     0.424950521    -0.205887785     0.164399741
   62    20.187740445    37.560842658    32.537001930     0.422549306    -0.198867848     0.178615966
   63    13.450319749    38.094474176    39.730837887     0.401682710    -0.227607024     0.191953231
   64    14.790279233    39.416166330    30.797656726     0.408517955    -0.212646344     0.194665386
   65    15.917224943    34.142790246    33.644609297     0.372432253    -0.275261081     0.188482239
   66    12.315534518    37.024537696    38.237965245     0.398297912    -0.232193094     0.193507469
   67    19.146517985    33.053441755    38.349761349     0.415357174    -0.221771835     0.168213171
   68    12.309558791    32.583927865    35.449129282     0.472179920    -0.148526412     0.070611813
   21    23.203421192    36.797237923    34.515632027    -0.413935180     0.205622075    -0.190728155
   22    30.535726862    32.180860378    36.555558747     0.458790177    -0.167164175     0.107553298
   23    30.419800444    39.708186089    37.420398378     0.409757028    -0.219342607     0.184358343
   24    25.366591018    34.595899737    38.248509798     0.419316144    -0.202825244     0.181757784
   25    26.645249828    30.839750020    31.533525869     0.404037570    -0.224031131     0.191216355
   26    23.204475785    31.422127903    38.070671077     0.111616602     0.376909549    -0.308999880
   27    21.869098962    33.422386380    33.358874502     0.419370860    -0.214338004     0.167890744
   28    28.862259680    35.861200127    31.628153366     0.424719571    -0.199349554     0.172838195
   29    29.574889501    38.514013030    35.707668192     0.401891441    -0.226415983     0.192922452
   30    28.344856231    39.427674410    32.404713467     0.414971887    -0.218410065     0.173480190
   31    26.857225292    40.391425102    39.419104682     0.408366365    -0.228953572     0.175548210
   32    28.984100181    31.042412339    38.648033184     0.407667812    -0.227536456     0.178980770
   33    22.047323512    38.416738927    36.050250569     0.410116721    -0.225796690     0.175556630
   34    31.644627483    33.401504888    38.768483044     0.482948604     0.108349750    -0.070858858
   35    29.016916695    38.003149153    30.944695543     0.417310404    -0.214145397     0.173187111
   36    28.530685063    32.989909029    36.278766251     0.450703785    -0.174958380     0.127497699
   37    29.036244425    35.602788914    38.215477509     0.412020160    -0.215216809     0.184176852
   38    27.121292614    36.519995685    34.914616256     0.428543026    -0.197994068     0.164770216
   39    29.307799315    36.215336398    34.340142246     0.435729005    -0.185690325     0.160185321
   40    24.074209747    39.234092146    36.887107147     0.408796066    -0.224601825     0.180110512
   41    27.573581790    32.425996710    34.328084260     0.449791459    -0.174402905     0.131420205
   42    21.857692070    38.867584176    33.777118310     0.419955109    -0.200177032     0.183212614
   43    25.395502797    37.452274670    35.921509321     0.425452355    -0.200919193     0.169179701
   44    30.335898005    34.451616059    35.204848155     0.437473716    -0.186136161     0.154822728
   45    25.675328815    39.968323509    35.380673406     0.414341764    -0.211546162     0.183218786
   46    28.767355226    31.646827150    32.680414751     0.447648530    -0.181226638     0.129490151
   47    28.191819256    32.216560889    40.245179481     0.415474204    -0.210827856     0.181473968
   48    31.396734362    33.873410756    31.166281572     0.408841948    -0.228977290     0.174406600
   49    24.636200799    35.725569363    32.256176400    -0.421917376     0.172959399    -0.205111614
   50    27.790960824    39.799655699    37.377230311     0.403518249    -0.219393708     0.197583966
   51    31.067930927    36.233268077    31.305615196     0.419925107    -0.197869046     0.185770678
   52    30.775383497    39.995649835    32.006793825     0.403546428    -0.214700740     0.202617554
   53    30.044610161    34.675811454    39.929806631     0.408630543    -0.225100001     0.179864028
   54    26.203722393    32.782520742    40.241224370     0.405482915    -0.243781591     0.161722419
   55    24.649945539    40.450829970    33.142630904     0.405394636    -0.222743228     0.189843735
   56    27.761087072    34.443451620    40.106683617     0.415953051    -0.212603030     0.178277903
   57    26.650753590    36.369619324    37.736452273     0.418263902    -0.208506494     0.177708611
   58    25.523713935    30.657751140    37.526781944     0.407066208    -0.226126305     0.182109848
   59    27.175443976    32.136780914    38.241895656     0.413375780    -0.219203536     0.176267622
   60    30.280749896    36.816096074    39.487516905     0.409228289    -0.220016389     0.184729520
   61    30.445627200    32.189592408    40.390926731     0.424561450    -0.206081789     0.165160139
   62    30.277396395    37.705502870    32.825088799     0.421928778    -0.199709614     0.179142893
   63    23.539975699    38.239134387    40.018924757     0.401739779    -0.227722840     0.191696265
   64    24.879935183    39.560826541    31.085743596     0.408054481    -0.213347171     0.194870533
   65    26.006880893    34.287450457    33.932696167     0.373822447    -0.277075295     0.182991964
   66    22.405190468    37.169197908    38.526052115     0.398449045    -0.232219914     0.193163843
   67    29.236173935    33.198101967    38.637848219     0.414982486    -0.222247529     0.168509857
   68    22.399214741    32.728588077    35.737216151     0.471825763    -0.150813329     0.068086629
   21    33.293077142    36.941898135    34.803718896    -0.413342771     0.206421149    -0.191149321
   22    40.625382812    32.325520589    36.843645616     0.458324654    -0.168339287     0.107705133
   23    40.509456394    39.852846301    37.708485247     0.409413008    -0.219483866     0.184953565
   24    35.456246967    34.740559949    38.536596668     0.418741675    -0.202831736     0.183070196
   25    36.734905777    30.984410232    31.821612739     0.403525245    -0.224095928     0.192219643
   26    33.294131734    31.566788114    38.358757946     0.112077272     0.382565562    -0.301798403
   27    31.958754912    33.567046592    33.646961372     0.418813116    -0.215646280     0.167607446
   28    38.951915629    36.005860339    31.916240236     0.424579969    -0.199296022     0.173242446
   29    39.664545451    38.658673241    35.995755062     0.401513266    -0.226531133     0.193573612
   30    38.434512180    39.572334622    32.692800336     0.414745893    -0.218287768     0.174173174
   31    36.946881242    40.536085314    39.707191551     0.407821638    -0.229025769     0.176716464
   32    39.073756131    31.187072551    38.936120054     0.407121719    -0.227757092     0.179940581
   33    32.136979462    38.561399138    36.338337439     0.409519319    -0.226318631     0.176277635
   34    41.734283433    33.546165099    39.056569913     0.482684514     0.107315769    -0.074155146
   35    39.106572645    38.147809365    31.232782413     0.417171838    -0.214012406     0.173684621
   36    38.620341013    33.134569241    36.566853120     0.450218626    -0.175749257     0.128122549
   37    39.125900374    35.747449126    38.503564379     0.411525492    -0.215118861     0.185393219
   38    37.210948564    36.664655896    35.202703125     0.428057869    -0.198110852     0.165887163
   39    39.397455265    36.359996610    34.628229116     0.435415309    -0.185670817     0.161058550
   40    34.163865697    39.378752358    37.175194017     0.408217087    -0.224888537     0.181063402
   41    37.663237740    32.570656922    34.616171130     0.449273225    -0.175117464     0.132240098
   42    31.947348020    39.012244388    34.065205180     0.419350938    -0.200892455     0.183812438
   43    35.485158747    37.596934882    36.209596191     0.424906080    -0.201115748     0.170315234
   44    40.425553955    34.596276271    35.492935024     0.437137211    -0.186140645     0.155764949
   45    35.764984765    40.112983720    35.668760276     0.413729340    -0.211826589     0.184275688
   46    38.857011175    31.791487361    32.968501621     0.447171453    -0.181730281     0.130429278
   47    38.281475205    32.361221100    40.533266350     0.414999851    -0.210821501     0.182563463
   48    41.486390312    34.018070968    31.454368442     0.408520253    -0.229371898     0.174641733
   49    34.725856749    35.870229575    32.544263269    -0.419006479     0.190441735    -0.195359966
   50    37.880616773    39.944315911    37.665317181     0.402972762    -0.219353096     0.198738956
   51    41.157586877    36.377928289    31.593702066     0.419752035    -0.197730923     0.186308108
   52    40.865039447    40.140310047    32.294880694     0.403373348    -0.214351410     0.203330803
   53    40.134266111    34.820471666    40.217893501     0.408101350    -0.224931314     0.181271047
   54    36.293378342    32.927180954    40.529311239     0.404853975    -0.243837473     0.163207062
   55    34.739601488    40.595490181    33.430717773     0.404800530    -0.223037390     0.190763869
   56    37.850743021    34.588111832    40.394770486     0.415385326    -0.212657785     0.179531884
   57    36.740409540    36.514279536    38.024539142     0.417711192    -0.208516374     0.178992407
   58    35.613369885    30.802411351    37.814868814     0.406375400    -0.226730721     0.182899464
   59    37.265099926    32.281441125    38.529982526     0.412746468    -0.219658762     0.177173309
   60    40.370405845    36.960756285    39.775603775     0.408888174    -0.219759228     0.185785744
   61    40.535283150    32.334252620    40.679013601     0.424171017    -0.206035406     0.166217808
   62    40.367052345    37.850163081    33.113175669     0.421718568    -0.199563411     0.179799595
   63    33.629631649    38.383794599    40.307011627     0.401197103    -0.228070439     0.192418189
   64    34.969591133    39.705486753    31.373830466     0.407432715    -0.213727860     0.195752355
   65    36.096536842    34.432110669    34.220783037     0.374412994    -0.269302756     0.193108610
   66    32.494846418    37.313858120    38.814138984     0.397919379    -0.232688229     0.193691395
   67    39.325829884    33.342762179    38.925935088     0.414442464    -0.222303996     0.169759763
   68    32.488870691    32.873248289    36.025303021     0.472052398    -0.148758523     0.070974891
