CRYSTAL
PRIMVEC
    40.358642790     0.578641119     1.152348021
     0.540302138    40.100392953     0.122501752
     1.147485224     0.128543006    40.047960291
PRIMCOORD
 3072    1
   21     1.758269367     6.336229727     3.811625931     0.412093934    -0.204672665     0.195672404
   22     9.090575037     1.719852182     5.851552651    -0.457586099     0.168508269    -0.110543771
   23     8.974648619     9.247177894     6.716392283    -0.408514680     0.217830620    -0.188853322
   24     3.921439192     4.134891542     7.544503703    -0.417408983     0.202000164    -0.186991109
   25     5.200098002     0.378741824     0.829519774    -0.402131919     0.222992726    -0.196377605
   26     1.759323959     0.961119707     7.366664982    -0.104127138    -0.382557973     0.304642310
   27     0.423947137     2.961378184     2.654868407    -0.417043174     0.213872504    -0.174165276
   28     7.417107854     5.400191931     0.924147271    -0.423246841     0.198185637    -0.177720469
   29     8.129737675     8.053004834     5.003662097    -0.400670361     0.224667063    -0.197453723
   30     6.899704405     8.966666214     1.700707371    -0.413574713     0.217076894    -0.178419671
   31     5.412073467     9.930416906     8.715098586    -0.406998546     0.227575157    -0.180448695
   32     7.538948355     0.581404143     7.944027089    -0.405808136     0.227119088    -0.183675465
   33     0.602171687     7.955730731     5.346244474    -0.408269951     0.225027226    -0.180771665
   34    10.199475658     2.940496692     8.064476948    -0.483327762    -0.104534594     0.073937764
   35     7.571764870     7.542140958     0.240689448    -0.415911658     0.212818620    -0.178117175
   36     7.085533238     2.528900833     5.574760155    -0.449346326     0.175487198    -0.131499514
   37     7.591092599     5.141780718     7.511471414    -0.410109851     0.214463722    -0.189249100
   38     5.676140789     6.058987489     4.210610160    -0.426822510     0.197193462    -0.170109623
   39     7.862647489     5.754328203     3.636136151    -0.434180015     0.184732966    -0.165412955
   40     2.629057922     8.773083950     6.183101052    -0.407129368     0.223466284    -0.185225533
   41     6.128429965     1.964988514     3.624078165    -0.448425129     0.174580328    -0.135781489
   42     0.412540245     8.406575980     3.073112215    -0.417989620     0.199355119    -0.188526428
   43     3.950350972     6.991266474     5.217503226    -0.423696272     0.200081656    -0.174495846
   44     8.890746180     3.990607863     4.500842059    -0.435899192     0.185322970    -0.160147718
   45     4.230176990     9.507315313     4.676667311    -0.412609236     0.210416561    -0.188357345
   46     7.322203400     1.185818954     1.976408656    -0.446329436     0.181101436    -0.134135397
   47     6.746667430     1.755552693     9.541173385    -0.413669396     0.210370925    -0.186069087
   48     9.951582536     3.412402560     0.462275477    -0.407209512     0.228146020    -0.179247893
   49     3.191048974     5.264561167     1.552170305     0.417741990    -0.182664275     0.205244713
   50     6.345808998     9.338647503     6.673224216    -0.401997130     0.217804000    -0.202385090
   51     9.622779102     5.772259882     0.601609101    -0.418369019     0.196500971    -0.190669169
   52     9.330231672     9.534641639     1.302787729    -0.401961470     0.213079746    -0.207422271
   53     8.599458335     4.214803259     9.225800536    -0.406708738     0.224361584    -0.185067235
   54     4.758570567     2.321512547     9.537218274    -0.403578873     0.243584076    -0.166706003
   55     3.204793713     9.989821774     2.438624809    -0.403624654     0.221525548    -0.194970690
   56     6.315935246     3.982443425     9.402677521    -0.414049706     0.212116844    -0.183219228
   57     5.205601765     5.908611129     7.032446177    -0.416387318     0.207689945    -0.182993137
   58     4.078562110     0.196742944     6.822775849    -0.405084011     0.225871004    -0.186786598
   59     5.730292151     1.675772718     7.537889561    -0.411457720     0.218966515    -0.180986769
   60     8.835598070     6.355087878     8.783510810    -0.407435963     0.219127698    -0.189681280
   61     9.000475374     1.728584212     9.686920636    -0.422889922     0.205916296    -0.169595380
   62     8.832244570     7.244494674     2.121082704    -0.420449804     0.198332051    -0.184082480
   63     2.094823873     7.778126192     9.314918662    -0.399634017     0.227061148    -0.196814349
   64     3.434783357     9.099818346     0.381737501    -0.406194589     0.212144165    -0.200002023
   65     4.561729067     3.826442261     3.228690072    -0.376112891     0.267719576    -0.192003441
   66     0.960038643     6.708189712     7.822046019    -0.396227377     0.231700276    -0.198289807
   67     7.791022109     2.737093771     7.933842124    -0.413215613     0.221715753    -0.173479054
   68     0.954062916     2.267579881     5.033210056    -0.471057056     0.151043855    -0.072739288
   21    11.847925316     6.480889939     4.099712801     0.412087670    -0.204682182     0.195675642
   22    19.180230987     1.864512394     6.139639521    -0.457586073     0.168497477    -0.110560328
   23    19.064304568     9.391838105     7.004479152    -0.408510252     0.217834247    -0.188858718
   24    14.011095142     4.279551753     7.832590573    -0.417405696     0.202005757    -0.186992403
   25    15.289753952     0.523402036     1.117606644    -0.402129361     0.222997033    -0.196377953
   26    11.848979909     1.105779919     7.654751851    -0.104229753    -0.382398210     0.304807756
   27    10.513603086     3.106038396     2.942955276    -0.417037827     0.213865625    -0.174186525
   28    17.506763804     5.544852143     1.212234141    -0.423247726     0.198189929    -0.177713574
   29    18.219393625     8.197665046     5.291748967    -0.400667757     0.224669052    -0.197456743
   30    16.989360355     9.111326426     1.988794241    -0.413577193     0.217076053    -0.178414944
   31    15.501729417    10.075077118     9.003185456    -0.406992826     0.227580774    -0.180454512
   32    17.628604305     0.726064355     8.232113958    -0.405803102     0.227122821    -0.183681972
   33    10.691827637     8.100390943     5.634331343    -0.408270098     0.225027397    -0.180771118
   34    20.289131608     3.085156904     8.352563818    -0.483322751    -0.104616478     0.073854663
   35    17.661420819     7.686801169     0.528776317    -0.415912555     0.212821850    -0.178111220
   36    17.175189188     2.673561045     5.862847025    -0.449345840     0.175482952    -0.131506841
   37    17.680748549     5.286440930     7.799558284    -0.410103398     0.214474895    -0.189250424
   38    15.765796739     6.203647701     4.498697030    -0.426821440     0.197197926    -0.170107133
   39    17.952303439     5.898988414     3.924223021    -0.434181163     0.184735738    -0.165406845
   40    12.718713871     8.917744162     6.471187921    -0.407127701     0.223468648    -0.185226344
   41    16.218085915     2.109648726     3.912165034    -0.448424966     0.174577016    -0.135786288
   42    10.502196194     8.551236192     3.361199084    -0.417991802     0.199354260    -0.188522497
   43    14.040006922     7.135926686     5.505590095    -0.423694892     0.200085601    -0.174494672
   44    18.980402130     4.135268075     4.788928929    -0.435900927     0.185325303    -0.160140295
   45    14.319832940     9.651975525     4.964754181    -0.412608607     0.210417195    -0.188358015
   46    17.411859350     1.330479165     2.264495525    -0.446329189     0.181099532    -0.134138787
   47    16.836323380     1.900212905     9.829260255    -0.413663779     0.210375303    -0.186076624
   48    20.041238486     3.557062772     0.750362347    -0.407209756     0.228155664    -0.179235062
   49    13.280704924     5.409221379     1.840257174     0.417576160    -0.182824257     0.205439629
   50    16.435464948     9.483307715     6.961311085    -0.401990735     0.217808468    -0.202392985
   51    19.712435052     5.916920093     0.889695971    -0.418370037     0.196503617    -0.190664208
   52    19.419887622     9.679301851     1.590874599    -0.401963622     0.213081364    -0.207416440
   53    18.689114285     4.359463470     9.513887405    -0.406702542     0.224373112    -0.185066878
   54    14.848226517     2.466172758     9.825305144    -0.403572486     0.243590241    -0.166712456
   55    13.294449663    10.134481985     2.726711678    -0.403627906     0.221522542    -0.194967375
   56    16.405591196     4.127103636     9.690764391    -0.414044115     0.212123918    -0.183223671
   57    15.295257715     6.053271340     7.320533047    -0.416383614     0.207696878    -0.182993696
   58    14.168218060     0.341403156     7.110862718    -0.405079596     0.225871590    -0.186795464
   59    15.819948101     1.820432930     7.825976431    -0.411452993     0.218969426    -0.180993991
   60    18.925254020     6.499748089     9.071597680    -0.407428277     0.219141062    -0.189682350
   61    19.090131324     1.873244424     9.975007506    -0.422883863     0.205921130    -0.169604620
   62    18.921900520     7.389154886     2.409169573    -0.420450314     0.198334284    -0.184078909
   63    12.184479823     7.922786403     9.603005531    -0.399639148     0.227052787    -0.196813574
   64    13.524439307     9.244478557     0.669824370    -0.406198669     0.212140864    -0.199997237
   65    14.651385017     3.971102473     3.516776941    -0.376137562     0.267550032    -0.192191351
   66    11.049694593     6.852849924     8.110132889    -0.396234290     0.231688063    -0.198290264
   67    17.880678059     2.881753983     8.221928993    -0.413210531     0.221723385    -0.173481404
   68    11.043718865     2.412240093     5.321296926    -0.471064294     0.151059744    -0.072659372
   21    21.937581266     6.625550151     4.387799670     0.412083402    -0.204681988     0.195684831
   22    29.269886936     2.009172605     6.427726391    -0.457597709     0.168452170    -0.110581207
   23    29.153960518     9.536498317     7.292566022    -0.408509692     0.217846833    -0.188845411
   24    24.100751092     4.424211965     8.120677442    -0.417401232     0.202018389    -0.186988723
   25    25.379409902     0.668062247     1.405693513    -0.402126561     0.223002400    -0.196377593
   26    21.938635859     1.250440130     7.942838721    -0.104116758    -0.382609081     0.304581667
   27    20.603259036     3.250698608     3.231042146    -0.417042702     0.213873972    -0.174164603
   28    27.596419754     5.689512354     1.500321010    -0.423247406     0.198189966    -0.177714295
   29    28.309049575     8.342325257     5.579835836    -0.400669484     0.224677812    -0.197443272
   30    27.079016305     9.255986637     2.276881110    -0.413579098     0.217078450    -0.178407612
   31    25.591385366    10.219737330     9.291272326    -0.406986564     0.227597426    -0.180447634
   32    27.718260255     0.870724567     8.520200828    -0.405801874     0.227128706    -0.183677407
   33    20.781483586     8.245051154     5.922418213    -0.408265913     0.225035650    -0.180770298
   34    30.378787558     3.229817115     8.640650688    -0.483316654    -0.104720614     0.073746897
   35    27.751076769     7.831461381     0.816863187    -0.415913553     0.212821760    -0.178108996
   36    27.264845138     2.818221257     6.150933894    -0.449352597     0.175458620    -0.131516222
   37    27.770404499     5.431101141     8.087645153    -0.410100165     0.214485371    -0.189245555
   38    25.855452689     6.348307912     4.786783900    -0.426817392     0.197207956    -0.170105661
   39    28.041959389     6.043648626     4.212309890    -0.434179541     0.184739176    -0.165407264
   40    22.808369821     9.062404373     6.759274791    -0.407122911     0.223480264    -0.185222858
   41    26.307741865     2.254308937     4.200251904    -0.448431059     0.174557886    -0.135790758
   42    20.591852144     8.695896404     3.649285954    -0.417989913     0.199358787    -0.188521899
   43    24.129662871     7.280586898     5.793676965    -0.423690179     0.200097315    -0.174492683
   44    29.070058080     4.279928286     5.077015799    -0.435899336     0.185327543    -0.160142032
   45    24.409488889     9.796635736     5.252841050    -0.412604544     0.210429564    -0.188353096
   46    27.501515300     1.475139377     2.552582395    -0.446333974     0.181085762    -0.134141457
   47    26.925979330     2.044873116    10.117347125    -0.413663562     0.210379753    -0.186072075
   48    30.130894436     3.701722983     1.038449216    -0.407208628     0.228152303    -0.179241904
   49    23.370360874     5.553881591     2.128344044     0.417593143    -0.182608599     0.205596853
   50    26.525120898     9.627967926     7.249397955    -0.401985026     0.217824393    -0.202387185
   51    29.802091001     6.061580305     1.177782840    -0.418369708     0.196504926    -0.190663581
   52    29.509543571     9.823962063     1.878961469    -0.401967062     0.213081658    -0.207409469
   53    28.778770235     4.504123682     9.801974275    -0.406699400     0.224385669    -0.185058558
   54    24.937882467     2.610832970    10.113392014    -0.403569443     0.243597476    -0.166709251
   55    23.384105613    10.279142197     3.014798548    -0.403626651     0.221530612    -0.194960803
   56    26.495247146     4.271763848     9.978851261    -0.414042567     0.212131244    -0.183218688
   57    25.384913664     6.197931552     7.608619917    -0.416378783     0.207709780    -0.182990045
   58    24.257874010     0.486063367     7.398949588    -0.405079443     0.225879399    -0.186786354
   59    25.909604051     1.965093141     8.114063300    -0.411452739     0.218974783    -0.180988088
   60    29.014909970     6.644408301     9.359684549    -0.407424769     0.219151608    -0.189677701
   61    29.179787274     2.017904635    10.263094375    -0.422883678     0.205922989    -0.169602822
   62    29.011556469     7.533815097     2.697256443    -0.420450077     0.198336683    -0.184076867
   63    22.274135773     8.067446615     9.891092401    -0.399629823     0.227071070    -0.196811418
   64    23.614095257     9.389138769     0.957911240    -0.406198210     0.212148031    -0.199990567
   65    24.741040967     4.115762685     3.804863811    -0.376227579     0.267732158    -0.191761050
   66    21.139350542     6.997510135     8.398219758    -0.396225211     0.231704884    -0.198288750
   67    27.970334009     3.026414194     8.510015863    -0.413209798     0.221730426    -0.173474151
   68    21.133374815     2.556900304     5.609383795    -0.471067143     0.151036717    -0.072688764
   21    32.027237216     6.770210362     4.675886540     0.412087403    -0.204681737     0.195676670
   22    39.359542886     2.153832817     6.715813260    -0.457576505     0.168499458    -0.110596904
   23    39.243616468     9.681158529     7.580652891    -0.408504743     0.217841844    -0.188861871
   24    34.190407042     4.568872177     8.408764312    -0.417398855     0.202019153    -0.186993203
   25    35.469065852     0.812722459     1.693780383    -0.402125958     0.222996811    -0.196385173
   26    32.028291809     1.395100342     8.230925590    -0.104332958    -0.382659294     0.304444574
   27    30.692914986     3.395358819     3.519129016    -0.417033266     0.213895124    -0.174161221
   28    37.686075704     5.834172566     1.788407880    -0.423245935     0.198180068    -0.177728835
   29    38.398705525     8.486985469     5.867922706    -0.400661903     0.224675663    -0.197461100
   30    37.168672255     9.400646849     2.564967980    -0.413573990     0.217071665    -0.178427707
   31    35.681041316    10.364397541     9.579359195    -0.406984850     0.227589356    -0.180461676
   32    37.807916205     1.015384778     8.808287698    -0.405796177     0.227136796    -0.183679991
   33    30.871139536     8.389711366     6.210505082    -0.408265772     0.225036450    -0.180769621
   34    40.468443507     3.374477327     8.928737557    -0.483343943    -0.104568884     0.073783342
   35    37.840732719     7.976121592     1.104950057    -0.415910106     0.212813865    -0.178126480
   36    37.354501087     2.962881468     6.439020764    -0.449337958     0.175485083    -0.131530928
   37    37.860060449     5.575761353     8.375732023    -0.410099118     0.214483508    -0.189249935
   38    35.945108638     6.492968124     5.074870769    -0.426815284     0.197205441    -0.170113865
   39    38.131615339     6.188308837     4.500396760    -0.434176540     0.184736253    -0.165418407
   40    32.898025771     9.207064585     7.047361661    -0.407121847     0.223477283    -0.185228793
   41    36.397397814     2.398969149     4.488338774    -0.448418358     0.174577659    -0.135807279
   42    30.681508094     8.840556615     3.937372824    -0.417990702     0.199361350    -0.188517439
   43    34.219318821     7.425247109     6.081763835    -0.423688219     0.200094576    -0.174500584
   44    39.159714029     4.424588498     5.365102668    -0.435896400     0.185325775    -0.160152071
   45    34.499144839     9.941295948     5.540927920    -0.412602599     0.210424068    -0.188363498
   46    37.591171250     1.619799589     2.840669265    -0.446323890     0.181099202    -0.134156866
   47    37.015635280     2.189533328    10.405433994    -0.413657488     0.210388908    -0.186075226
   48    40.220550386     3.846383195     1.326536086    -0.407207587     0.228141136    -0.179258482
   49    33.460016823     5.698541802     2.416430913     0.417600581    -0.182729930     0.205473909
   50    36.614776848     9.772628138     7.537484825    -0.401983765     0.217815723    -0.202399020
   51    39.891746951     6.206240517     1.465869710    -0.418366739     0.196497861    -0.190677378
   52    39.599199521     9.968622274     2.167048338    -0.401956864     0.213080860    -0.207430053
   53    38.868426185     4.648783894    10.090061145    -0.406697681     0.224384020    -0.185064333
   54    35.027538417     2.755493182    10.401478883    -0.403561370     0.243608424    -0.166712797
   55    33.473761563    10.423802409     3.302885417    -0.403624258     0.221523146    -0.194974240
   56    36.584903096     4.416424060    10.266938130    -0.414037067     0.212138438    -0.183222788
   57    35.474569614     6.342591764     7.896706786    -0.416377060     0.207708612    -0.182995292
   58    34.347529959     0.630723579     7.687036458    -0.405071722     0.225891576    -0.186788371
   59    35.999260000     2.109753353     8.402150170    -0.411445480     0.218985866    -0.180991180
   60    39.104565920     6.789068513     9.647771419    -0.407425056     0.219146520    -0.189682964
   61    39.269443224     2.162564847    10.551181245    -0.422877670     0.205934873    -0.169603374
   62    39.101212419     7.678475309     2.985343313    -0.420447369     0.198332147    -0.184087939
   63    32.363791723     8.212106827    10.179179270    -0.399626762     0.227075784    -0.196812192
   64    33.703751207     9.533798980     1.245998110    -0.406195963     0.212140189    -0.200003451
   65    34.830696916     4.260422896     4.092950681    -0.376161912     0.267634970    -0.192025360
   66    31.229006492     7.142170347     8.686306628    -0.396222604     0.231710438    -0.198287470
   67    38.059989959     3.171074406     8.798102732    -0.413205229     0.221733236    -0.173481442
   68    31.223030765     2.701560516     5.897470665    -0.471082369     0.150970339    -0.072727974
   21     1.893344838    16.361323248     3.842251355     0.412090893    -0.204671721     0.195679797
   22     9.225650508    11.744945703     5.882178075    -0.457589371     0.168474515    -0.110581668
   23     9.109724090    19.272271415     6.747017706    -0.408516600     0.217832990    -0.188846435
   24     4.056514663    14.159985063     7.575129127    -0.417414259     0.201990607    -0.186989656
   25     5.335173473    10.403835345     0.860145198    -0.402131038     0.222991846    -0.196380408
   26     1.894399430    10.986213228     7.397290405    -0.104038919    -0.382606128     0.304611973
   27     0.559022608    12.986471705     2.685493830    -0.417044450     0.213864510    -0.174172035
   28     7.552183325    15.425285452     0.954772694    -0.423253065     0.198175683    -0.177716746
   29     8.264813147    18.078098355     5.034287521    -0.400674886     0.224665290    -0.197446558
   30     7.034779876    18.991759735     1.731332795    -0.413582425     0.217066366    -0.178414604
   31     5.547148938    19.955510427     8.745724010    -0.406993618     0.227587501    -0.180444241
   32     7.674023826    10.606497664     7.974652512    -0.405814351     0.227105002    -0.183679152
   33     0.737247158    17.980824252     5.376869897    -0.408268690     0.225027483    -0.180774193
   34    10.334551129    12.965590213     8.095102372    -0.483322220    -0.104645922     0.073816414
   35     7.706840341    17.567234479     0.271314871    -0.415917702     0.212809911    -0.178113466
   36     7.220608709    12.553994354     5.605385579    -0.449348529     0.175465170    -0.131521382
   37     7.726168070    15.166874239     7.542096838    -0.410114681     0.214456888    -0.189246379
   38     5.811216260    16.084081010     4.241235584    -0.426826143     0.197186350    -0.170108751
   39     7.997722960    15.779421724     3.666761575    -0.434185547     0.184722592    -0.165410021
   40     2.764133393    18.798177471     6.213726475    -0.407127210     0.223468774    -0.185227272
   41     6.263505436    11.990082035     3.654703588    -0.448426860     0.174562063    -0.135799253
   42     0.547615716    18.431669501     3.103737638    -0.417989254     0.199355890    -0.188526424
   43     4.085426443    17.016359995     5.248128649    -0.423698693     0.200076738    -0.174495606
   44     9.025821651    14.015701384     4.531467483    -0.435905808     0.185310253    -0.160144426
   45     4.365252461    19.532408834     4.707292735    -0.412608829     0.210418084    -0.188356534
   46     7.457278871    11.210912475     2.007034079    -0.446331131     0.181086032    -0.134150551
   47     6.881742901    11.780646214     9.571798809    -0.413677049     0.210352131    -0.186073319
   48    10.086658007    13.437496081     0.492900900    -0.407214425     0.228138941    -0.179245741
   49     3.326124445    15.289654688     1.582795728     0.417750010    -0.182663882     0.205228740
   50     6.480884469    19.363741024     6.703849639    -0.401991404     0.217815847    -0.202383715
   51     9.757854573    15.797353403     0.632234525    -0.418374440     0.196492772    -0.190665724
   52     9.465307143    19.559735160     1.333413153    -0.401968732     0.213073466    -0.207414649
   53     8.734533807    14.239896780     9.256425959    -0.406716073     0.224352973    -0.185061556
   54     4.893646038    12.346606068     9.567843698    -0.403584927     0.243568960    -0.166713433
   55     3.339869184    20.014915295     2.469250232    -0.403628317     0.221521176    -0.194968075
   56     6.451010717    14.007536946     9.433302945    -0.414056394     0.212102554    -0.183220657
   57     5.340677236    15.933704650     7.063071601    -0.416391759     0.207682416    -0.182991577
   58     4.213637581    10.221836465     6.853401272    -0.405090017     0.225857497    -0.186789907
   59     5.865367622    11.700866239     7.568514984    -0.411462987     0.218952789    -0.180991399
   60     8.970673541    16.380181399     8.814136233    -0.407439998     0.219123031    -0.189678005
   61     9.135550845    11.753677733     9.717546060    -0.422897452     0.205896004    -0.169601240
   62     8.967320041    17.269588195     2.151708127    -0.420455425     0.198324290    -0.184078004
   63     2.229899344    17.803219713     9.345544085    -0.399634466     0.227057694    -0.196817420
   64     3.569858828    19.124911867     0.412362924    -0.406199359     0.212138653    -0.199998182
   65     4.696804538    13.851535782     3.259315495    -0.376134424     0.267681548    -0.192014282
   66     1.095114114    16.733283233     7.852671443    -0.396227397     0.231694454    -0.198296571
   67     7.926097580    12.762187292     7.964467547    -0.413222800     0.221702634    -0.173478700
   68     1.089138387    12.292673402     5.063835480    -0.471061471     0.151039293    -0.072720167
   21    11.983000787    16.505983460     4.130338224     0.412092834    -0.204675826     0.195671415
   22    19.315306458    11.889605915     6.170264945    -0.457583821     0.168477512    -0.110600067
   23    19.199380039    19.416931626     7.035104576    -0.408506853     0.217846028    -0.188852480
   24    14.146170613    14.304645274     7.863215996    -0.417408378     0.202004724    -0.186987533
   25    15.424829423    10.548495557     1.148232067    -0.402136736     0.222985853    -0.196375545
   26    11.984055380    11.130873440     7.685377275    -0.104088984    -0.382551702     0.304663222
   27    10.648678557    13.131131917     2.973580700    -0.417050327     0.213859645    -0.174163937
   28    17.641839275    15.569945664     1.242859564    -0.423250355     0.198189775    -0.177707485
   29    18.354469096    18.222758567     5.322374390    -0.400662958     0.224681852    -0.197451918
   30    17.124435826    19.136419947     2.019419664    -0.413577763     0.217079467    -0.178409470
   31    15.636804888    20.100170639     9.033810880    -0.406989871     0.227588179    -0.180451839
   32    17.763679776    10.751157876     8.262739382    -0.405808468     0.227111080    -0.183684633
   33    10.826903108    18.125484464     5.664956767    -0.408272896     0.225027915    -0.180764156
   34    20.424207079    13.110250425     8.383189242    -0.483346977    -0.104597024     0.073723552
   35    17.796496290    17.711894690     0.559401741    -0.415915203     0.212822103    -0.178104735
   36    17.310264659    12.698654566     5.893472448    -0.449344927     0.175469096    -0.131528449
   37    17.815824020    15.311534451     7.830183707    -0.410106638     0.214471893    -0.189246804
   38    15.900872210    16.228741222     4.529322454    -0.426823668     0.197199238    -0.170100021
   39    18.087378910    15.924081935     3.954848444    -0.434183720     0.184735679    -0.165400199
   40    12.853789342    18.942837683     6.501813345    -0.407128819     0.223472379    -0.185219385
   41    16.353161386    12.134742247     3.942790458    -0.448424962     0.174563843    -0.135803232
   42    10.637271665    18.576329713     3.391824508    -0.417996274     0.199350111    -0.188516970
   43    14.175082393    17.161020207     5.536215519    -0.423696770     0.200087850    -0.174487534
   44    19.115477601    14.160361596     4.819554353    -0.435904027     0.185323199    -0.160134290
   45    14.454908411    19.677069046     4.995379604    -0.412608790     0.210420987    -0.188353377
   46    17.546934821    11.355572686     2.295120949    -0.446330405     0.181086809    -0.134151919
   47    16.971398851    11.925306426     9.859885678    -0.413668713     0.210362335    -0.186080315
   48    20.176313957    13.582156293     0.780987770    -0.407215566     0.228150246    -0.179228759
   49    13.415780395    15.434314900     1.870882598     0.417566022    -0.182808963     0.205473843
   50    16.570540419    19.508401236     6.991936509    -0.401988471     0.217815773    -0.202389620
   51    19.847510523    15.942013614     0.920321394    -0.418372499     0.196504380    -0.190658020
   52    19.554963093    19.704395372     1.621500023    -0.401964078     0.213085856    -0.207410939
   53    18.824189756    14.384556991     9.544512829    -0.406707473     0.224367517    -0.185062824
   54    14.983301988    12.491266279     9.855930568    -0.403581346     0.243575395    -0.166712698
   55    13.429525134    20.159575507     2.757337102    -0.403626163     0.221526593    -0.194966380
   56    16.540666667    14.152197157     9.721389815    -0.414049587     0.212113432    -0.183223448
   57    15.430333186    16.078364861     7.351158471    -0.416386022     0.207696930    -0.182988159
   58    14.303293531    10.366496677     7.141488142    -0.405085518     0.225861079    -0.186795331
   59    15.955023572    11.845526451     7.856601854    -0.411458254     0.218958233    -0.180995572
   60    19.060329491    16.524841611     9.102223103    -0.407430417     0.219139655    -0.189679379
   61    19.225206795    11.898337945    10.005632929    -0.422887141     0.205909273    -0.169610842
   62    19.056975991    17.414248407     2.439794997    -0.420451533     0.198337129    -0.184073061
   63    12.319555294    17.947879924     9.633630955    -0.399640260     0.227053516    -0.196810477
   64    13.659514778    19.269572078     0.700449794    -0.406196712     0.212145216    -0.199996597
   65    14.786460488    13.996195994     3.547402365    -0.376123385     0.267620684    -0.192120715
   66    11.184770064    16.877943445     8.140758312    -0.396236942     0.231687426    -0.198285709
   67    18.015753530    12.906847504     8.252554417    -0.413215493     0.221714086    -0.173481471
   68    11.178794336    12.437333614     5.351922349    -0.471071598     0.151008445    -0.072718627
   21    22.072656737    16.650643672     4.418425094     0.412086345    -0.204691033     0.195669173
   22    29.404962407    12.034266126     6.458351814    -0.457593224     0.168497092    -0.110531313
   23    29.289035989    19.561591838     7.323191445    -0.408507053     0.217846595    -0.188851394
   24    24.235826563    14.449305486     8.151302866    -0.417401538     0.202017604    -0.186988887
   25    25.514485373    10.693155768     1.436318937    -0.402138500     0.222991592    -0.196365417
   26    22.073711330    11.275533651     7.973464144    -0.104277092    -0.382515517     0.304644329
   27    20.738334507    13.275792129     3.261667569    -0.417051773     0.213878056    -0.174137865
   28    27.731495225    15.714605876     1.530946434    -0.423249452     0.198183423    -0.177716720
   29    28.444125046    18.367418778     5.610461260    -0.400665789     0.224680566    -0.197447635
   30    27.214091776    19.281080158     2.307506534    -0.413577241     0.217075254    -0.178415805
   31    25.726460837    20.244830851     9.321897749    -0.406985906     0.227598646    -0.180447579
   32    27.853335726    10.895818088     8.550826252    -0.405802934     0.227126948    -0.183677240
   33    20.916559057    18.270144675     5.953043636    -0.408266890     0.225039783    -0.180762947
   34    30.513863029    13.254910636     8.671276111    -0.483313171    -0.104587102     0.073958887
   35    27.886152240    17.856554902     0.847488611    -0.415913759     0.212818007    -0.178113001
   36    27.399920609    12.843314778     6.181559318    -0.449351965     0.175482841    -0.131486059
   37    27.905479970    15.456194662     8.118270577    -0.410099302     0.214485847    -0.189246887
   38    25.990528160    16.373401433     4.817409323    -0.426817813     0.197208400    -0.170104090
   39    28.177034860    16.068742147     4.242935314    -0.434179567     0.184740995    -0.165405165
   40    22.943445292    19.087497894     6.789900215    -0.407122558     0.223483668    -0.185219526
   41    26.442817336    12.279402459     4.230877327    -0.448432386     0.174574994    -0.135764380
   42    20.726927615    18.720989925     3.679911378    -0.417990661     0.199364910    -0.188513765
   43    24.264738342    17.305680419     5.824302389    -0.423690545     0.200098243    -0.174490732
   44    29.205133551    14.305021807     5.107641222    -0.435899327     0.185331409    -0.160137583
   45    24.544564360    19.821729257     5.283466474    -0.412603665     0.210431731    -0.188352600
   46    27.636590771    11.500232898     2.583207819    -0.446336509     0.181096540    -0.134118471
   47    27.061054801    12.069966637    10.147972548    -0.413663217     0.210379685    -0.186072918
   48    30.265969907    13.726816504     1.069074640    -0.407213492     0.228138464    -0.179248467
   49    23.505436345    15.578975112     2.158969467     0.417578494    -0.182856143     0.205406506
   50    26.660196369    19.653061447     7.280023379    -0.401984355     0.217826838    -0.202385886
   51    29.937166472    16.086673826     1.208408264    -0.418370054     0.196502986    -0.190664823
   52    29.644619042    19.849055584     1.909586892    -0.401961043     0.213086258    -0.207416408
   53    28.913845706    14.529217203     9.832599699    -0.406698378     0.224382868    -0.185064199
   54    25.072957938    12.635926491    10.144017437    -0.403573403     0.243593996    -0.166704750
   55    23.519181084    20.304235718     3.045423971    -0.403624973     0.221528903    -0.194966218
   56    26.630322617    14.296857369    10.009476684    -0.414042437     0.212130599    -0.183219729
   57    25.519989135    16.223025073     7.639245340    -0.416379467     0.207708621    -0.182989804
   58    24.392949481    10.511156888     7.429575012    -0.405079307     0.225876855    -0.186789726
   59    26.044679522    11.990186662     8.144688724    -0.411452895     0.218974115    -0.180988540
   60    29.149985441    16.669501822     9.390309973    -0.407423172     0.219152876    -0.189679666
   61    29.314862745    12.042998156    10.293719799    -0.422883937     0.205925148    -0.169599556
   62    29.146631940    17.558908618     2.727881867    -0.420449320     0.198338571    -0.184076562
   63    22.409211244    18.092540136     9.921717824    -0.399630245     0.227071332    -0.196810258
   64    23.749170728    19.414232290     0.988536664    -0.406196958     0.212145067    -0.199996255
   65    24.876116438    14.140856206     3.835489234    -0.376160895     0.268034004    -0.191469981
   66    21.274426013    17.022603656     8.428845182    -0.396225962     0.231706293    -0.198285605
   67    28.105409480    13.051507715     8.540641286    -0.413209495     0.221728696    -0.173477083
   68    21.268450286    12.581993825     5.640009219    -0.471063679     0.151017060    -0.072752033
   21    32.162312687    16.795303883     4.706511964     0.412086045    -0.204687446     0.195673556
   22    39.494618357    12.178926338     6.746438684    -0.457580142     0.168497634    -0.110584633
   23    39.378691939    19.706252050     7.611278315    -0.408504597     0.217839874    -0.188864459
   24    34.325482513    14.593965698     8.439389735    -0.417400558     0.202005355    -0.187004307
   25    35.604141323    10.837815980     1.724405806    -0.402131954     0.222981126    -0.196390705
   26    32.163367280    11.420193863     8.261551014    -0.104121175    -0.382420901     0.304816396
   27    30.827990457    13.420452340     3.549754439    -0.417034326     0.213880340    -0.174176838
   28    37.821151175    15.859266087     1.819033303    -0.423246972     0.198186977    -0.177718662
   29    38.533780996    18.512078990     5.898548129    -0.400662212     0.224672230    -0.197464379
   30    37.303747726    19.425740370     2.595593404    -0.413575550     0.217076990    -0.178417613
   31    35.816116787    20.389491062     9.609984619    -0.406982873     0.227596197    -0.180457509
   32    37.942991676    11.040478299     8.838913121    -0.405800739     0.227119586    -0.183691193
   33    31.006215007    18.414804887     6.241130506    -0.408263900     0.225039580    -0.180769951
   34    40.603518978    13.399570848     8.959362981    -0.483331754    -0.104603372     0.073814295
   35    37.975808190    18.001215114     1.135575480    -0.415912208     0.212817976    -0.178116658
   36    37.489576558    12.987974989     6.469646188    -0.449341144     0.175481117    -0.131525337
   37    37.995135920    15.600854874     8.406357446    -0.410099674     0.214472559    -0.189261139
   38    36.080184109    16.518061645     5.105496193    -0.426816917     0.197200011    -0.170116062
   39    38.266690810    16.213402359     4.531022183    -0.434178613     0.184733611    -0.165415916
   40    33.033101242    19.232158106     7.077987084    -0.407120171     0.223481147    -0.185227814
   41    36.532473285    12.424062670     4.518964197    -0.448421769     0.174572027    -0.135803259
   42    30.816583565    18.865650136     3.967998247    -0.417988981     0.199363955    -0.188518501
   43    34.354394292    17.450340630     6.112389258    -0.423689393     0.200090537    -0.174502365
   44    39.294789500    14.449682019     5.395728092    -0.435898684     0.185321578    -0.160150710
   45    34.634220310    19.966389469     5.571553343    -0.412601422     0.210429708    -0.188359775
   46    37.726246721    11.644893110     2.871294688    -0.446326774     0.181092340    -0.134156532
   47    37.150710751    12.214626849    10.436059418    -0.413659653     0.210374975    -0.186086166
   48    40.355625857    13.871476716     1.357161509    -0.407211412     0.228150721    -0.179237593
   49    33.595092294    15.723635323     2.447056337     0.417737279    -0.182715726     0.205208502
   50    36.749852319    19.797721659     7.568110248    -0.401982179     0.217821617    -0.202395828
   51    40.026822422    16.231334038     1.496495133    -0.418368419     0.196501333    -0.190670114
   52    39.734274992    19.993715795     2.197673762    -0.401961322     0.213085420    -0.207416729
   53    39.003501656    14.673877415    10.120686568    -0.406698315     0.224371818    -0.185077735
   54    35.162613888    12.780586703    10.432104307    -0.403566529     0.243588026    -0.166730113
   55    33.608837034    20.448895930     3.333510841    -0.403622318     0.221533196    -0.194966837
   56    36.719978567    14.441517581    10.297563554    -0.414040107     0.212121646    -0.183235361
   57    35.609645085    16.367685285     7.927332210    -0.416378839     0.207696857    -0.183004586
   58    34.482605430    10.655817100     7.717661881    -0.405078449     0.225865882    -0.186804853
   59    36.134335471    12.134846874     8.432775593    -0.411450933     0.218964636    -0.181004469
   60    39.239641391    16.814162034     9.678396842    -0.407426145     0.219137266    -0.189691314
   61    39.404518695    12.187658368    10.581806669    -0.422879309     0.205922615    -0.169614171
   62    39.236287890    17.703568830     3.015968736    -0.420448237     0.198333107    -0.184084923
   63    32.498867194    18.237200348    10.209804694    -0.399625268     0.227076459    -0.196814447
   64    33.838826678    19.558892502     1.276623533    -0.406194561     0.212149909    -0.199995988
   65    34.965772388    14.285516417     4.123576104    -0.376333167     0.267629953    -0.191696520
   66    31.364081963    17.167263868     8.716932052    -0.396221342     0.231711844    -0.198288350
   67    38.195065430    13.196167927     8.828728156    -0.413207636     0.221720308    -0.173492231
   68    31.358106236    12.726654037     5.928096088    -0.471073039     0.151039117    -0.072645558
   21     2.028420309    26.386416769     3.872876778     0.412081832    -0.204689519     0.195680260
   22     9.360725979    21.770039224     5.912803499    -0.457600911     0.168460579    -0.110555144
   23     9.244799561    29.297364936     6.777643130    -0.408512549     0.217853114    -0.188831983
   24     4.191590134    24.185078584     7.605754550    -0.417410119     0.202008507    -0.186979559
   25     5.470248944    20.428928866     0.890770621    -0.402141157     0.222977932    -0.196375487
   26     2.029474901    21.011306749     7.427915829    -0.104484518    -0.382705268     0.304334789
   27     0.694098079    23.011565226     2.716119254    -0.417032556     0.213894609    -0.174163552
   28     7.687258796    25.450378973     0.985398118    -0.423256753     0.198183988    -0.177698700
   29     8.399888618    28.103191876     5.064912944    -0.400670770     0.224686682    -0.197430567
   30     7.169855347    29.016853256     1.761958218    -0.413584013     0.217077088    -0.178397875
   31     5.682224409    29.980603948     8.776349434    -0.406990003     0.227595613    -0.180442163
   32     7.809099297    20.631591185     8.005277936    -0.405810646     0.227115329    -0.183674567
   33     0.872322629    28.005917773     5.407495321    -0.408262971     0.225045077    -0.180765207
   34    10.469626600    22.990683734     8.125727796    -0.483313141    -0.104634928     0.073891407
   35     7.841915812    27.592328000     0.301940295    -0.415920639     0.212817687    -0.178097317
   36     7.355684180    22.579087875     5.636011002    -0.449358670     0.175454629    -0.131500795
   37     7.861243541    25.191967760     7.572722261    -0.410109872     0.214473392    -0.189238097
   38     5.946291731    26.109174531     4.271861008    -0.426825715     0.197200671    -0.170093222
   39     8.132798432    25.804515245     3.697386998    -0.434188025     0.184733374    -0.165391473
   40     2.899208864    28.823270992     6.244351899    -0.407124063     0.223484506    -0.185215208
   41     6.398580907    22.015175556     3.685329012    -0.448437745     0.174548917    -0.135780207
   42     0.682691187    28.456763022     3.134363062    -0.417982409     0.199373016    -0.188523490
   43     4.220501914    27.041453516     5.278754073    -0.423697227     0.200091842    -0.174481847
   44     9.160897122    24.040794905     4.562092906    -0.435909168     0.185319151    -0.160124980
   45     4.500327932    29.557502355     4.737918158    -0.412606341     0.210430685    -0.188347908
   46     7.592354342    21.236005996     2.037659503    -0.446341803     0.181072655    -0.134133102
   47     7.016818372    21.805739735     9.602424232    -0.413672562     0.210364990    -0.186068757
   48    10.221733479    23.462589602     0.523526324    -0.407222819     0.228138857    -0.179226777
   49     3.461199916    25.314748209     1.613421152     0.417626316    -0.182710937     0.205438491
   50     6.615959940    29.388834545     6.734475063    -0.401988565     0.217824988    -0.202379516
   51     9.892930044    25.822446924     0.662859948    -0.418377744     0.196501753    -0.190649217
   52     9.600382614    29.584828681     1.364038577    -0.401968915     0.213088246    -0.207399110
   53     8.869609278    24.264990301     9.287051383    -0.406709067     0.224370154    -0.185056123
   54     5.028721509    22.371699589     9.598469122    -0.403582781     0.243578764    -0.166704303
   55     3.474944655    30.040008816     2.499875656    -0.403626512     0.221531456    -0.194960131
   56     6.586086188    24.032630467     9.463928369    -0.414051519     0.212117879    -0.183213932
   57     5.475752707    25.958798171     7.093697025    -0.416388211     0.207699291    -0.182980496
   58     4.348713052    20.246929986     6.884026696    -0.405084597     0.225871899    -0.186784246
   59     6.000443093    21.725959760     7.599140408    -0.411460078     0.218963867    -0.180984610
   60     9.105749012    26.405274920     8.844761657    -0.407433965     0.219141337    -0.189669814
   61     9.270626317    21.778771254     9.748171483    -0.422892961     0.205908784    -0.169596923
   62     9.102395512    27.294681716     2.182333551    -0.420457226     0.198335865    -0.184061419
   63     2.364974815    27.828313234     9.376169509    -0.399630100     0.227074610    -0.196806769
   64     3.704934300    29.150005388     0.442988348    -0.406197440     0.212148688    -0.199991434
   65     4.831880009    23.876629303     3.289940919    -0.376291726     0.267551919    -0.191886704
   66     1.230189585    26.758376754     7.883296866    -0.396223853     0.231711172    -0.198284118
   67     8.061173051    22.787280813     7.995092971    -0.413218137     0.221715939    -0.173472803
   68     1.224213858    22.317766923     5.094460903    -0.471070424     0.150992875    -0.072758555
   21    12.118076258    26.531076981     4.160963648     0.412092829    -0.204687058     0.195659674
   22    19.450381929    21.914699436     6.200890368    -0.457584668     0.168495917    -0.110568521
   23    19.334455510    29.442025147     7.065729999    -0.408509407     0.217851139    -0.188841060
   24    14.281246084    24.329738795     7.893841420    -0.417403860     0.202011553    -0.186990242
   25    15.559904894    20.573589078     1.178857491    -0.402133507     0.222992863    -0.196374197
   26    12.119130851    21.155966961     7.716002698    -0.104151065    -0.382433177     0.304790782
   27    10.783754028    23.156225438     3.004206123    -0.417051206     0.213871787    -0.174146923
   28    17.776914746    25.595039185     1.273484988    -0.423245549     0.198190778    -0.177717812
   29    18.489544567    28.247852088     5.352999814    -0.400668053     0.224681939    -0.197441479
   30    17.259511297    29.161513468     2.050045088    -0.413574142     0.217084898    -0.178411255
   31    15.771880359    30.125264160     9.064436303    -0.406990132     0.227590573    -0.180448229
   32    17.898755247    20.776251397     8.293364805    -0.405804567     0.227119881    -0.183682371
   33    10.961978579    28.150577985     5.695582190    -0.408272734     0.225037119    -0.180753064
   34    20.559282550    23.135343946     8.413814665    -0.483334413    -0.104576684     0.073834698
   35    17.931571761    27.736988211     0.590027165    -0.415910648     0.212824743    -0.178112217
   36    17.445340130    22.723748087     5.924097872    -0.449344763     0.175482661    -0.131510912
   37    17.950899491    25.336627972     7.860809131    -0.410102946     0.214476346    -0.189249758
   38    16.035947681    26.253834743     4.559947877    -0.426820456     0.197204563    -0.170101906
   39    18.222454381    25.949175456     3.985473868    -0.434180000     0.184739649    -0.165405531
   40    12.988864813    28.967931204     6.532438768    -0.407127926     0.223480585    -0.185211447
   41    16.488236857    22.159835768     3.973415881    -0.448424458     0.174575481    -0.135789935
   42    10.772347136    28.601423234     3.422449932    -0.417996650     0.199363518    -0.188501958
   43    14.310157864    27.186113728     5.566840943    -0.423693475     0.200094189    -0.174488266
   44    19.250553072    24.185455117     4.850179776    -0.435900000     0.185328195    -0.160139472
   45    14.589983882    29.702162567     5.026005028    -0.412606944     0.210427959    -0.188349633
   46    17.682010292    21.380666207     2.325746373    -0.446329483     0.181097903    -0.134140009
   47    17.106474322    21.950399947     9.890511102    -0.413665856     0.210370991    -0.186076882
   48    20.311389428    23.607249814     0.811613194    -0.407209836     0.228149202    -0.179243105
   49    13.550855866    25.459408421     1.901508021     0.417664361    -0.182711976     0.205360209
   50    16.705615890    29.533494757     7.022561933    -0.401988434     0.217818973    -0.202386249
   51    19.982585994    25.967107135     0.950946818    -0.418367574     0.196507947    -0.190665152
   52    19.690038564    29.729488893     1.652125446    -0.401958740     0.213094906    -0.207411986
   53    18.959265227    24.409650512     9.575138253    -0.406702688     0.224372748    -0.185066997
   54    15.118377459    22.516359800     9.886555991    -0.403574240     0.243588348    -0.166710975
   55    13.564600605    30.184669028     2.787962525    -0.403624834     0.221532529    -0.194962386
   56    16.675742138    24.177290678     9.752015238    -0.414044921     0.212122334    -0.183223686
   57    15.565408657    26.103458382     7.381783894    -0.416381923     0.207702724    -0.182990907
   58    14.438369002    20.391590198     7.172113565    -0.405083490     0.225865631    -0.186794226
   59    16.090099043    21.870619972     7.887227278    -0.411455127     0.218965891    -0.180993417
   60    19.195404962    26.549935132     9.132848527    -0.407428635     0.219143153    -0.189679166
   61    19.360282266    21.923431466    10.036258353    -0.422885109     0.205917256    -0.169606216
   62    19.192051462    27.439341928     2.470420421    -0.420448373     0.198340465    -0.184076683
   63    12.454630765    27.972973445     9.664256378    -0.399636268     0.227067407    -0.196802555
   64    13.794590249    29.294665599     0.731075218    -0.406196306     0.212150440    -0.199991879
   65    14.921535959    24.021289515     3.578027788    -0.376076134     0.267418340    -0.192494606
   66    11.319845535    26.903036966     8.171383736    -0.396232239     0.231702539    -0.198277447
   67    18.150829001    22.931941025     8.283179840    -0.413210953     0.221722154    -0.173481972
   68    11.313869807    22.462427135     5.382547773    -0.471081552     0.150994745    -0.072682589
   21    22.207732208    26.675737193     4.449050518     0.412088148    -0.204689459     0.195667022
   22    29.540037878    22.059359647     6.488977238    -0.457593594     0.168462105    -0.110583102
   23    29.424111460    29.586685359     7.353816869    -0.408507997     0.217830326    -0.188868117
   24    24.370902034    24.474399007     8.181928289    -0.417403099     0.202016854    -0.186986211
   25    25.649560844    20.718249289     1.466944360    -0.402134669     0.222986189    -0.196379397
   26    22.208786801    21.300627172     8.004089568    -0.104206156    -0.382512737     0.304672091
   27    20.873409978    23.300885650     3.292292993    -0.417044142     0.213874656    -0.174160314
   28    27.866570696    25.739699397     1.561571857    -0.423247914     0.198183803    -0.177719957
   29    28.579200517    28.392512299     5.641086683    -0.400666205     0.224663628    -0.197466065
   30    27.349167247    29.306173679     2.338131958    -0.413575579     0.217072781    -0.178422668
   31    25.861536308    30.269924372     9.352523173    -0.406984893     0.227585426    -0.180466537
   32    27.988411197    20.920911609     8.581451675    -0.405801536     0.227129186    -0.183677560
   33    21.051634528    28.295238196     5.983669060    -0.408264489     0.225041806    -0.180765850
   34    30.648938500    23.280004157     8.701901535    -0.483317989    -0.104692545     0.073777997
   35    28.021227711    27.881648423     0.878114034    -0.415912508     0.212816512    -0.178117708
   36    27.534996080    22.868408299     6.212184742    -0.449349606     0.175463449    -0.131519998
   37    28.040555441    25.481288183     8.148896000    -0.410101009     0.214484168    -0.189245091
   38    26.125603631    26.398494954     4.848034747    -0.426818441     0.197205695    -0.170105652
   39    28.312110331    26.093835668     4.273560737    -0.434179963     0.184737394    -0.165408146
   40    23.078520763    29.112591416     6.820525638    -0.407120991     0.223482106    -0.185224855
   41    26.577892807    22.304495980     4.261502751    -0.448428611     0.174559396    -0.135796901
   42    20.862003086    28.746083446     3.710536801    -0.417988914     0.199367037    -0.188515390
   43    24.399813813    27.330773940     5.854927812    -0.423690803     0.200095608    -0.174493126
   44    29.340209022    24.330115329     5.138266646    -0.435900708     0.185325336    -0.160140853
   45    24.679639831    29.846822778     5.314091897    -0.412601228     0.210428055    -0.188362045
   46    27.771666242    21.525326419     2.613833242    -0.446333006     0.181083506    -0.134147722
   47    27.196130272    22.095060158    10.178597972    -0.413660775     0.210385004    -0.186072334
   48    30.401045378    23.751910026     1.099700063    -0.407214095     0.228143593    -0.179240568
   49    23.640511816    25.604068633     2.189594891     0.417771858    -0.182716622     0.205137297
   50    26.795271840    29.678154968     7.310648802    -0.401982159     0.217815382    -0.202402578
   51    30.072241943    26.111767347     1.239033687    -0.418368983     0.196500828    -0.190669396
   52    29.779694513    29.874149105     1.940212316    -0.401962185     0.213082039    -0.207418530
   53    29.048921177    24.554310724     9.863225122    -0.406699298     0.224384943    -0.185059661
   54    25.208033409    22.661020012    10.174642861    -0.403565642     0.243605152    -0.166707236
   55    23.654256555    30.329329239     3.076049395    -0.403620346     0.221530405    -0.194974090
   56    26.765398088    24.321950890    10.040102108    -0.414040693     0.212135633    -0.183217844
   57    25.655064606    26.248118594     7.669870764    -0.416380751     0.207707664    -0.182987968
   58    24.528024952    20.536250409     7.460200435    -0.405078936     0.225878210    -0.186788891
   59    26.179754993    22.015280183     8.175314147    -0.411452319     0.218975205    -0.180988533
   60    29.285060912    26.694595343     9.420935396    -0.407424996     0.219150610    -0.189678366
   61    29.449938216    22.068091677    10.324345223    -0.422880026     0.205930890    -0.169602335
   62    29.281707411    27.584002139     2.758507290    -0.420448783     0.198334373    -0.184082312
   63    22.544286715    28.117633657     9.952343248    -0.399628981     0.227069283    -0.196815189
   64    23.884246199    29.439325811     1.019162087    -0.406192111     0.212147817    -0.200003182
   65    25.011191909    24.165949727     3.866114658    -0.376142569     0.267658538    -0.192030400
   66    21.409501484    27.047697177     8.459470606    -0.396224462     0.231705182    -0.198289899
   67    28.240484951    23.076601236     8.571266710    -0.413208392     0.221731363    -0.173476303
   68    21.403525757    22.607087346     5.670634642    -0.471064144     0.151039380    -0.072702668
   21    32.297388158    26.820397404     4.737137387     0.412088271    -0.204681830     0.195674744
   22    39.629693828    22.204019859     6.777064107    -0.457587467     0.168465004    -0.110604036
   23    39.513767410    29.731345571     7.641903738    -0.408496375     0.217867462    -0.188850418
   24    34.460557984    24.619059219     8.470015159    -0.417399280     0.202017930    -0.186993574
   25    35.739216794    20.862909501     1.755031230    -0.402131722     0.222993769    -0.196376824
   26    32.298442751    21.445287384     8.292176437    -0.104133764    -0.382645538     0.304530050
   27    30.963065928    23.445545861     3.580379863    -0.417043130     0.213882906    -0.174152606
   28    37.956226646    25.884359608     1.849658727    -0.423239823     0.198193189    -0.177728759
   29    38.668856467    28.537172511     5.929173553    -0.400652012     0.224700092    -0.197453371
   30    37.438823197    29.450833891     2.626218827    -0.413566569     0.217089721    -0.178422940
   31    35.951192258    30.414584583     9.640610042    -0.406976078     0.227619936    -0.180442890
   32    38.078067147    21.065571820     8.869538545    -0.405799693     0.227123101    -0.183689156
   33    31.141290478    28.439898408     6.271755930    -0.408262875     0.225040138    -0.180771571
   34    40.738594449    23.424664369     8.989988404    -0.483335901    -0.104669540     0.073693244
   35    38.110883661    28.026308635     1.166200904    -0.415903916     0.212827577    -0.178124549
   36    37.624652029    23.013068510     6.500271611    -0.449345464     0.175465414    -0.131531526
   37    38.130211391    25.625948395     8.436982870    -0.410098817     0.214485086    -0.189248800
   38    36.215259580    26.543155166     5.136121616    -0.426813762     0.197211732    -0.170110391
   39    38.401766281    26.238495880     4.561647607    -0.434174012     0.184744688    -0.165415621
   40    33.168176713    29.257251627     7.108612508    -0.407116025     0.223489922    -0.185226341
   41    36.667548756    22.449156191     4.549589621    -0.448427001     0.174559269    -0.135802378
   42    30.951659036    28.890743657     3.998623671    -0.417988059     0.199361201    -0.188523458
   43    34.489469763    27.475434151     6.143014682    -0.423686734     0.200101465    -0.174496290
   44    39.429864971    24.474775540     5.426353515    -0.435894444     0.185332079    -0.160150099
   45    34.769295781    29.991482990     5.602178767    -0.412596909     0.210442628    -0.188355226
   46    37.861322192    21.669986631     2.901920112    -0.446331977     0.181083472    -0.134151191
   47    37.285786222    22.239720370    10.466684841    -0.413661711     0.210369978    -0.186087240
   48    40.490701328    23.896570237     1.387786933    -0.407204983     0.228142948    -0.179262090
   49    33.730167765    25.748728844     2.477681760     0.417690284    -0.182574360     0.205429865
   50    36.884927790    29.822815180     7.598735672    -0.401975220     0.217846450    -0.202382921
   51    40.161897893    26.256427559     1.527120557    -0.418361657     0.196510447    -0.190675557
   52    39.869350463    30.018809316     2.228299185    -0.401952887     0.213093409    -0.207424867
   53    39.138577127    24.698970936    10.151311992    -0.406698775     0.224382265    -0.185064058
   54    35.297689359    22.805680224    10.462729730    -0.403567733     0.243595810    -0.166715826
   55    33.743912505    30.473989451     3.364136264    -0.403616640     0.221541014    -0.194969707
   56    36.855054038    24.466611102    10.328188977    -0.414040659     0.212126863    -0.183228074
   57    35.744720556    26.392778806     7.957957633    -0.416377023     0.207709809    -0.182994017
   58    34.617680902    20.680910621     7.748287305    -0.405076673     0.225877392    -0.186794787
   59    36.269410942    22.159940395     8.463401017    -0.411449176     0.218973247    -0.180998046
   60    39.374716862    26.839255555     9.709022266    -0.407424321     0.219152387    -0.189677763
   61    39.539594166    22.212751889    10.612432092    -0.422882517     0.205911331    -0.169619871
   62    39.371363361    27.728662351     3.046594160    -0.420442173     0.198345799    -0.184085098
   63    32.633942665    28.262293869    10.240430118    -0.399625363     0.227082284    -0.196807535
   64    33.973902149    29.583986023     1.307248957    -0.406189132     0.212155948    -0.200000606
   65    35.100847859    24.310609938     4.154201528    -0.376541736     0.267538573    -0.191414297
   66    31.499157434    27.192357389     8.747557475    -0.396221474     0.231714525    -0.198284952
   67    38.330140901    23.221261448     8.859353579    -0.413208092     0.221725692    -0.173484265
   68    31.493181707    22.751747558     5.958721512    -0.471077699     0.150985955    -0.072725807
   21     2.163495780    36.411510290     3.903502202     0.412087909    -0.204679198     0.195678261
   22     9.495801450    31.795132745     5.943428922    -0.457588678     0.168529573    -0.110500608
   23     9.379875032    39.322458457     6.808268553    -0.408511571     0.217844155    -0.188844434
   24     4.326665605    34.210172105     7.636379974    -0.417407147     0.202011603    -0.186982848
   25     5.605324415    30.454022387     0.921396045    -0.402139713     0.222988479    -0.196366467
   26     2.164550372    31.036400270     7.458541252    -0.104230982    -0.382360813     0.304854245
   27     0.829173550    33.036658747     2.746744677    -0.417028242     0.213873493    -0.174199812
   28     7.822334267    35.475472494     1.016023542    -0.423251761     0.198188408    -0.177705662
   29     8.534964089    38.128285397     5.095538368    -0.400670526     0.224675403    -0.197443899
   30     7.304930818    39.041946777     1.792583642    -0.413577087     0.217081363    -0.178408730
   31     5.817299880    40.005697469     8.806974857    -0.406991360     0.227590832    -0.180445133
   32     7.944174769    30.656684706     8.035903359    -0.405807045     0.227126053    -0.183669263
   33     1.007398100    38.031011294     5.438120744    -0.408265111     0.225039876    -0.180766848
   34    10.604702071    33.015777255     8.156353219    -0.483318800    -0.104478879     0.074074974
   35     7.976991283    37.617421521     0.332565719    -0.415915508     0.212822613    -0.178103412
   36     7.490759651    32.604181396     5.666636426    -0.449350825     0.175499345    -0.131467927
   37     7.996319012    35.217061281     7.603347685    -0.410106496     0.214475300    -0.189243249
   38     6.081367202    36.134268052     4.302486431    -0.426821442     0.197205753    -0.170098052
   39     8.267873903    35.829608766     3.728012422    -0.434181824     0.184743328    -0.165396634
   40     3.034284335    38.848364513     6.274977322    -0.407124363     0.223479981    -0.185220008
   41     6.533656378    32.040269077     3.715954435    -0.448431354     0.174586866    -0.135752520
   42     0.817766658    38.481856543     3.164988486    -0.417985031     0.199368241    -0.188522725
   43     4.355577385    37.066547037     5.309379497    -0.423694490     0.200093877    -0.174486159
   44     9.295972593    34.065888426     4.592718330    -0.435901522     0.185334213    -0.160128364
   45     4.635403403    39.582595876     4.768543582    -0.412605802     0.210428364    -0.188351680
   46     7.727429813    31.261099517     2.068284927    -0.446335812     0.181104682    -0.134109796
   47     7.151893843    31.830833256     9.633049656    -0.413668831     0.210376599    -0.186063927
   48    10.356808950    33.487683123     0.554151748    -0.407218682     0.228147126    -0.179225651
   49     3.596275387    35.339841730     1.644046575     0.417616519    -0.182519376     0.205628597
   50     6.751035411    39.413928066     6.765100486    -0.401990500     0.217817046    -0.202384220
   51    10.028005515    35.847540445     0.693485372    -0.418372759     0.196506819    -0.190654935
   52     9.735458085    39.609922202     1.394664000    -0.401964927     0.213086470    -0.207408663
   53     9.004684749    34.290083822     9.317676806    -0.406705693     0.224369307    -0.185064567
   54     5.163796980    32.396793110     9.629094545    -0.403578707     0.243592073    -0.166694719
   55     3.610020126    40.065102337     2.530501079    -0.403623983     0.221531126    -0.194965743
   56     6.721161659    34.057723988     9.494553792    -0.414048299     0.212124832    -0.183213160
   57     5.610828178    35.983891692     7.124322448    -0.416384712     0.207702579    -0.182984726
   58     4.483788523    30.272023507     6.914652119    -0.405082544     0.225872635    -0.186787808
   59     6.135518564    31.751053281     7.629765832    -0.411456750     0.218971746    -0.180982643
   60     9.240824483    36.430368441     8.875387081    -0.407431641     0.219141818    -0.189674251
   61     9.405701788    31.803864775     9.778796907    -0.422890474     0.205921352    -0.169587864
   62     9.237470983    37.319775237     2.212958975    -0.420451947     0.198339962    -0.184069061
   63     2.500050287    37.853406755     9.406794932    -0.399630506     0.227074997    -0.196805500
   64     3.840009771    39.175098909     0.473613771    -0.406194712     0.212149158    -0.199996477
   65     4.966955480    33.901722824     3.320566342    -0.376252690     0.267563287    -0.191947391
   66     1.365265056    36.783470275     7.913922290    -0.396223748     0.231712356    -0.198282944
   67     8.196248522    32.812374334     8.025718394    -0.413214474     0.221722212    -0.173473512
   68     1.359289329    32.342860444     5.125086327    -0.471048840     0.151104602    -0.072666288
   21    12.253151729    36.556170502     4.191589072     0.412091044    -0.204681540     0.195669208
   22    19.585457400    31.939792957     6.231515792    -0.457584148     0.168543547    -0.110498058
   23    19.469530981    39.467118668     7.096355423    -0.408507285     0.217846131    -0.188851426
   24    14.416321555    34.354832316     7.924466843    -0.417403441     0.202013938    -0.186988600
   25    15.694980365    30.598682599     1.209482914    -0.402130039     0.222997641    -0.196375873
   26    12.254206322    31.181060482     7.746628122    -0.104185438    -0.382241179     0.305019796
   27    10.918829499    33.181318959     3.034831547    -0.417042801     0.213868303    -0.174171326
   28    17.911990217    35.620132706     1.304110411    -0.423244247     0.198191535    -0.177720068
   29    18.624620038    38.272945609     5.383625237    -0.400665377     0.224678276    -0.197451076
   30    17.394586768    39.186606989     2.080670512    -0.413572350     0.217084064    -0.178416423
   31    15.906955830    40.150357681     9.095061727    -0.406986386     0.227593367    -0.180453155
   32    18.033830718    30.801344918     8.323990229    -0.405805065     0.227123523    -0.183676766
   33    11.097054050    38.175671506     5.726207614    -0.408268048     0.225039154    -0.180761114
   34    20.694358021    33.160437467     8.444440089    -0.483330220    -0.104411619     0.074095291
   35    18.066647233    37.762081732     0.620652588    -0.415909024     0.212824988    -0.178115715
   36    17.580415601    32.748841608     5.954723296    -0.449347254     0.175507017    -0.131469892
   37    18.085974962    35.361721493     7.891434554    -0.410102596     0.214477968    -0.189248676
   38    16.171023152    36.278928264     4.590573301    -0.426818085     0.197207944    -0.170103936
   39    18.357529852    35.974268977     4.016099291    -0.434177521     0.184743460    -0.165407782
   40    13.123940284    38.993024725     6.563064192    -0.407124233     0.223481850    -0.185218038
   41    16.623312328    32.184929289     4.004041305    -0.448427591     0.174594459    -0.135755186
   42    10.907422607    38.626516755     3.453075355    -0.417992478     0.199363509    -0.188511219
   43    14.445233335    37.211207249     5.597466366    -0.423691766     0.200096057    -0.174490273
   44    19.385628543    34.210548638     4.880805200    -0.435896928     0.185333644    -0.160141527
   45    14.725059353    39.727256088     5.056630451    -0.412604720     0.210430337    -0.188351848
   46    17.817085763    31.405759728     2.356371796    -0.446331078     0.181113695    -0.134113378
   47    17.241549793    31.975493468     9.921136526    -0.413666185     0.210377262    -0.186069060
   48    20.446464899    33.632343335     0.842238617    -0.407208378     0.228149069    -0.179246587
   49    13.685931337    35.484501942     1.932133445     0.417671467    -0.182604004     0.205441775
   50    16.840691361    39.558588278     7.053187356    -0.401985111     0.217820864    -0.202390815
   51    20.117661465    35.992200656     0.981572241    -0.418366016     0.196508651    -0.190667844
   52    19.825114035    39.754582414     1.682750870    -0.401956454     0.213093972    -0.207417377
   53    19.094340698    34.434744033     9.605763676    -0.406702216     0.224369280    -0.185072239
   54    15.253452930    32.541453321     9.917181415    -0.403574735     0.243591821    -0.166704704
   55    13.699676076    40.209762549     2.818587949    -0.403622433     0.221536649    -0.194962676
   56    16.810817609    34.202384199     9.782640662    -0.414044972     0.212125108    -0.183220359
   57    15.700484128    36.128551903     7.412409318    -0.416381173     0.207705235    -0.182989764
   58    14.573444473    30.416683719     7.202738989    -0.405083484     0.225865873    -0.186793947
   59    16.225174514    31.895713493     7.917852701    -0.411455697     0.218968618    -0.180988822
   60    19.330480433    36.575028653     9.163473950    -0.407428088     0.219144160    -0.189679177
   61    19.495357737    31.948524987    10.066883776    -0.422886830     0.205925644    -0.169591740
   62    19.327126933    37.464435449     2.501045844    -0.420446326     0.198341950    -0.184079760
   63    12.589706236    37.998066966     9.694881802    -0.399632002     0.227068737    -0.196809684
   64    13.929665720    39.319759120     0.761700641    -0.406193960     0.212154703    -0.199992123
   65    15.056611430    34.046383036     3.608653212    -0.376287233     0.267544196    -0.191906282
   66    11.454921006    36.928130487     8.202009160    -0.396228014     0.231703711    -0.198284521
   67    18.285904472    32.957034546     8.313805264    -0.413210784     0.221723200    -0.173481038
   68    11.448945278    32.487520656     5.413173196    -0.471064540     0.151088937    -0.072597054
   21    22.342807679    36.700830714     4.479675941     0.412084914    -0.204690421     0.195672826
   22    29.675113349    32.084453168     6.519602661    -0.457602464     0.168402816    -0.110636689
   23    29.559186931    39.611778880     7.384442292    -0.408506789     0.217845731    -0.188852961
   24    24.505977505    34.499492528     8.212553713    -0.417399915     0.202015990    -0.186994254
   25    25.784636315    30.743342810     1.497569784    -0.402131378     0.222986713    -0.196385540
   26    22.343862272    31.325720693     8.034714991    -0.104420678    -0.382113808     0.305098935
   27    21.008485449    33.325979171     3.322918417    -0.417034485     0.213863218    -0.174197481
   28    28.001646167    35.764792918     1.592197281    -0.423244194     0.198193902    -0.177717554
   29    28.714275988    38.417605820     5.671712107    -0.400663086     0.224680343    -0.197453374
   30    27.484242718    39.331267200     2.368757381    -0.413571419     0.217085798    -0.178416473
   31    25.996611779    40.295017893     9.383148596    -0.406986311     0.227599495    -0.180445595
   32    28.123486668    30.946005130     8.612077099    -0.405801747     0.227116767    -0.183692451
   33    21.186710000    38.320331717     6.014294484    -0.408264278     0.225041874    -0.180766244
   34    30.784013971    33.305097678     8.732526958    -0.483319585    -0.104841251     0.073556039
   35    28.156303182    37.906741944     0.908739458    -0.415908196     0.212827775    -0.178114319
   36    27.670071551    32.893501820     6.242810165    -0.449353416     0.175429455    -0.131552323
   37    28.175630912    35.506381704     8.179521424    -0.410101073     0.214485520    -0.189243419
   38    26.260679102    36.423588475     4.878660170    -0.426815533     0.197212397    -0.170105177
   39    28.447185802    36.118929189     4.304186161    -0.434176965     0.184744814    -0.165407729
   40    23.213596234    39.137684937     6.851151062    -0.407120891     0.223484952    -0.185221642
   41    26.712968278    32.329589501     4.292128175    -0.448431826     0.174531324    -0.135822364
   42    20.997078557    38.771176967     3.741162225    -0.417987677     0.199366502    -0.188518700
   43    24.534889284    37.355867461     5.885553236    -0.423688324     0.200101814    -0.174492027
   44    29.475284493    34.355208850     5.168892069    -0.435898033     0.185330998    -0.160141580
   45    24.814715302    39.871916299     5.344717321    -0.412601111     0.210435595    -0.188353879
   46    27.906741713    31.550419940     2.644458666    -0.446336022     0.181061189    -0.134167810
   47    27.331205743    32.120153679    10.209223395    -0.413663199     0.210370108    -0.186083785
   48    30.536120849    33.777003547     1.130325487    -0.407209115     0.228150912    -0.179242568
   49    23.775587287    35.629162154     2.220220314     0.417592080    -0.182803312     0.205425909
   50    26.930347311    39.703248490     7.341274226    -0.401984708     0.217827579    -0.202384387
   51    30.207317415    36.136860868     1.269659111    -0.418365522     0.196510808    -0.190666705
   52    29.914769984    39.899242626     1.970837739    -0.401955305     0.213097445    -0.207416036
   53    29.183996648    34.579404245     9.893850546    -0.406702288     0.224385501    -0.185052414
   54    25.343108880    32.686113533    10.205268284    -0.403565142     0.243596353    -0.166721304
   55    23.789332026    40.354422760     3.106674818    -0.403618157     0.221541183    -0.194966376
   56    26.900473559    34.347044411    10.070727531    -0.414041299     0.212126665    -0.183226856
   57    25.790140077    36.273212115     7.700496187    -0.416377852     0.207709347    -0.182992654
   58    24.663100423    30.561343930     7.490825859    -0.405076264     0.225861405    -0.186815004
   59    26.314830464    32.040373704     8.205939571    -0.411450589     0.218961122    -0.181009503
   60    29.420136383    36.719688864     9.451560820    -0.407426424     0.219152557    -0.189673051
   61    29.585013687    32.093185198    10.354970646    -0.422883761     0.205911671    -0.169616356
   62    29.416782882    37.609095660     2.789132714    -0.420445102     0.198344266    -0.184080059
   63    22.679362186    38.142727178     9.982968672    -0.399631672     0.227072752    -0.196805722
   64    24.019321670    39.464419332     1.049787511    -0.406189263     0.212158936    -0.199997170
   65    25.146267380    34.191043248     3.896740082    -0.376201495     0.267541534    -0.192078012
   66    21.544576955    37.072790698     8.490096029    -0.396226187     0.231707009    -0.198284318
   67    28.375560422    33.101694757     8.601892133    -0.413211142     0.221724410    -0.173478639
   68    21.538601228    32.632180867     5.701260066    -0.471058200     0.151112637    -0.072588866
   21    32.432463629    36.845490925     4.767762811     0.412083267    -0.204687246     0.195679617
   22    39.764769299    32.229113380     6.807689531    -0.457570876     0.168543842    -0.110552551
   23    39.648842881    39.756439092     7.672529162    -0.408500822     0.217855464    -0.188854641
   24    34.595633455    34.644152740     8.500640582    -0.417393690     0.202031381    -0.186991521
   25    35.874292265    30.888003022     1.785656654    -0.402123755     0.223002541    -0.196383177
   26    32.433518222    31.470380905     8.322801861    -0.104378882    -0.382882051     0.304148622
   27    31.098141399    33.470639382     3.611005286    -0.417030325     0.213923868    -0.174132958
   28    38.091302117    35.909453129     1.880284150    -0.423240082     0.198195861    -0.177725163
   29    38.803931938    38.562266032     5.959798976    -0.400658059     0.224688694    -0.197454072
   30    37.573898668    39.475927412     2.656844251    -0.413568325     0.217086707    -0.178422539
   31    36.086267729    40.439678104     9.671235466    -0.406979073     0.227609992    -0.180448679
   32    38.213142618    31.090665341     8.900163968    -0.405792502     0.227145988    -0.183676742
   33    31.276365949    38.464991929     6.302381353    -0.408261501     0.225044459    -0.180769295
   34    40.873669920    33.449757890     9.020613828    -0.483340698    -0.104470910     0.073943209
   35    38.245959132    38.051402156     1.196826327    -0.415905052     0.212828877    -0.178120345
   36    37.759727501    33.038162031     6.530897035    -0.449332824     0.175515646    -0.131507686
   37    38.265286862    35.651041916     8.467608294    -0.410095205     0.214492427    -0.189248307
   38    36.350335051    36.568248687     5.166747040    -0.426809823     0.197219439    -0.170111339
   39    38.536841752    36.263589401     4.592273030    -0.434170530     0.184751126    -0.165417570
   40    33.303252184    39.282345148     7.139237931    -0.407115987     0.223489731    -0.185226655
   41    36.802624227    32.474249712     4.580215044    -0.448412407     0.174604465    -0.135792468
   42    31.086734507    38.915837178     4.029249094    -0.417984982     0.199369794    -0.188521193
   43    34.624545234    37.500527672     6.173640105    -0.423683098     0.200108241    -0.174497347
   44    39.564940442    34.499869061     5.456978939    -0.435888508     0.185341548    -0.160155296
   45    34.904371252    40.016576511     5.632804190    -0.412596365     0.210440752    -0.188358513
   46    37.996397663    31.695080152     2.932545535    -0.446317186     0.181123165    -0.134146816
   47    37.420861693    32.264813891    10.497310265    -0.413655911     0.210395594    -0.186071173
   48    40.625776799    33.921663758     1.418412356    -0.407200486     0.228154963    -0.179257014
   49    33.865243236    35.773822365     2.508307184     0.417706589    -0.182421336     0.205532629
   50    37.020003261    39.847908701     7.629361095    -0.401978687     0.217836181    -0.202387088
   51    40.296973364    36.281521080     1.557745980    -0.418362245     0.196512280    -0.190672378
   52    40.004425934    40.043902837     2.258924609    -0.401954271     0.213095931    -0.207419595
   53    39.273652598    34.724064457    10.181937415    -0.406693400     0.224388987    -0.185067719
   54    35.432764830    32.830773745    10.493355154    -0.403559177     0.243615739    -0.166707415
   55    33.878987976    40.499082972     3.394761688    -0.403615968     0.221540381    -0.194971818
   56    36.990129509    34.491704623    10.358814401    -0.414034358     0.212145683    -0.183220522
   57    35.879796027    36.417872327     7.988583057    -0.416371989     0.207720970    -0.182992801
   58    34.752756373    30.706004142     7.778912728    -0.405069407     0.225904248    -0.186778067
   59    36.404486414    32.185033916     8.494026440    -0.411442340     0.218997807    -0.180983870
   60    39.509792333    36.864349076     9.739647689    -0.407422480     0.219157140    -0.189676227
   61    39.674669637    32.237845410    10.643057516    -0.422877475     0.205941187    -0.169596193
   62    39.506438832    37.753755872     3.077219583    -0.420442138     0.198345603    -0.184085388
   63    32.769018136    38.287387390    10.271055541    -0.399626799     0.227082618    -0.196804233
   64    34.108977620    39.609079544     1.337874380    -0.406187533     0.212157816    -0.200001874
   65    35.235923330    34.335703459     4.184826951    -0.376189966     0.267325281    -0.192401412
   66    31.634232905    37.217450910     8.778182899    -0.396222621     0.231716454    -0.198280406
   67    38.465216372    33.246354969     8.889979003    -0.413200634     0.221741727    -0.173481534
   68    31.628257178    32.776841079     5.989346936    -0.471091916     0.150899768    -0.072812543
   21     2.045140537     6.368365464    13.823611293     0.412086926    -0.204691226     0.195667748
   22     9.377446208     1.751987918    15.863538013    -0.457591866     0.168503130    -0.110527732
   23     9.261519789     9.279313630    16.728377644    -0.408516054     0.217829013    -0.188852204
   24     4.208310363     4.167027278    17.556489065    -0.417402603     0.202011694    -0.186992893
   25     5.486969173     0.410877561    10.841505136    -0.402135376     0.222991922    -0.196371439
   26     2.046195130     0.993255443    17.378650343    -0.104244275    -0.382534319     0.304631952
   27     0.710818307     2.993513921    12.666853769    -0.417037479     0.213891372    -0.174155740
   28     7.703979025     5.432327668    10.936132633    -0.423253262     0.198174801    -0.177717260
   29     8.416608846     8.085140570    15.015647459    -0.400674604     0.224659689    -0.197453503
   30     7.186575576     8.998801951    11.712692733    -0.413583533     0.217064468    -0.178414345
   31     5.698944638     9.962552643    18.727083948    -0.406992971     0.227579858    -0.180455341
   32     7.825819526     0.613539880    17.956012451    -0.405802605     0.227125583    -0.183679654
   33     0.889042858     7.987866467    15.358229835    -0.408265496     0.225039134    -0.180766902
   34    10.486346829     2.972632428    18.076462310    -0.483311706    -0.104581237     0.073976752
   35     7.858636041     7.574276694    10.252674810    -0.415918430     0.212808503    -0.178113448
   36     7.372404409     2.561036570    15.586745517    -0.449351249     0.175484078    -0.131486856
   37     7.877963770     5.173916455    17.523456776    -0.410103570     0.214472426    -0.189252848
   38     5.963011960     6.091123225    14.222595522    -0.426820799     0.197200502    -0.170105755
   39     8.149518660     5.786463939    13.648121513    -0.434182702     0.184732281    -0.165406668
   40     2.915929093     8.805219687    16.195086414    -0.407125639     0.223474698    -0.185223577
   41     6.415301136     1.997124251    13.636063527    -0.448430437     0.174576881    -0.135768390
   42     0.699411415     8.438711717    13.085097577    -0.417985804     0.199370880    -0.188518221
   43     4.237222143     7.023402211    15.229488588    -0.423693900     0.200089347    -0.174492785
   44     9.177617351     4.022743600    14.512827421    -0.435902475     0.185322279    -0.160139579
   45     4.517048161     9.539451049    14.688652673    -0.412607354     0.210420614    -0.188356939
   46     7.609074571     1.217954690    11.988394018    -0.446334286     0.181098528    -0.134123183
   47     7.033538601     1.787688429    19.553158747    -0.413665771     0.210370460    -0.186077671
   48    10.238453707     3.444538297    10.474260839    -0.407215645     0.228137798    -0.179244425
   49     3.477920145     5.296696904    11.564155666     0.417733963    -0.182574011     0.205341342
   50     6.632680169     9.370783240    16.685209578    -0.401991697     0.217806770    -0.202392900
   51     9.909650273     5.804395618    10.613594463    -0.418374816     0.196491719    -0.190665985
   52     9.617102843     9.566777376    11.314773091    -0.401969701     0.213070899    -0.207415408
   53     8.886329506     4.246938995    19.237785898    -0.406702705     0.224367907    -0.185072829
   54     5.045441738     2.353648283    19.549203636    -0.403573127     0.243588592    -0.166713314
   55     3.491664884    10.021957510    12.450610170    -0.403628381     0.221520241    -0.194969006
   56     6.602806417     4.014579161    19.414662883    -0.414044460     0.212121585    -0.183225594
   57     5.492472936     5.940746865    17.044431539    -0.416381054     0.207701741    -0.182994002
   58     4.365433281     0.228878680    16.834761211    -0.405077429     0.225880642    -0.186789219
   59     6.017163322     1.707908454    17.549874923    -0.411451493     0.218975487    -0.180990069
   60     9.122469241     6.387223614    18.795496172    -0.407428435     0.219137627    -0.189685980
   61     9.287346545     1.760719949    19.698905998    -0.422888024     0.205912285    -0.169604983
   62     9.119115741     7.276630410    12.133068066    -0.420454247     0.198325951    -0.184078905
   63     2.381695044     7.810261928    19.326904024    -0.399627379     0.227070063    -0.196817541
   64     3.721654528     9.131954082    10.393722863    -0.406198924     0.212138602    -0.199999120
   65     4.848600238     3.858577998    13.240675434    -0.376280470     0.267561521    -0.191895389
   66     1.246909814     6.740325449    17.834031381    -0.396221463     0.231709023    -0.198291404
   67     8.077893280     2.769229508    17.945827485    -0.413211502     0.221719924    -0.173483514
   68     1.240934086     2.299715618    15.045195418    -0.471060050     0.151055549    -0.072695602
   21    12.134796487     6.513025675    14.111698163     0.412088555    -0.204676234     0.195679999
   22    19.467102157     1.896648130    16.151624883    -0.457580281     0.168509363    -0.110566185
   23    19.351175739     9.423973842    17.016464514    -0.408506179     0.217843307    -0.188857076
   24    14.297966313     4.311687490    17.844575934    -0.417399469     0.202017811    -0.186993282
   25    15.576625123     0.555537772    11.129592005    -0.402131151     0.222992902    -0.196378979
   26    12.135851080     1.137915655    17.666737213    -0.104233585    -0.382414626     0.304785849
   27    10.800474257     3.138174132    12.954940638    -0.417041618     0.213864637    -0.174178660
   28    17.793634975     5.576987879    11.224219502    -0.423246712     0.198187735    -0.177718435
   29    18.506264796     8.229800782    15.303734328    -0.400664232     0.224676723    -0.197455169
   30    17.276231526     9.143462162    12.000779603    -0.413576354     0.217074445    -0.178418847
   31    15.788600587    10.107212855    19.015170818    -0.406988890     0.227587618    -0.180454758
   32    17.915475476     0.758200091    18.244099320    -0.405795774     0.227132962    -0.183685620
   33    10.978698808     8.132526679    15.646316705    -0.408270509     0.225027898    -0.180769568
   34    20.576002779     3.117292640    18.364549180    -0.483331285    -0.104597263     0.073826021
   35    17.948291990     7.718936906    10.540761679    -0.415911166     0.212820750    -0.178115779
   36    17.462060359     2.705696781    15.874832387    -0.449341264     0.175492826    -0.131509302
   37    17.967619720     5.318576666    17.811543646    -0.410098105     0.214486313    -0.189248951
   38    16.052667910     6.235783437    14.510682392    -0.426818701     0.197204773    -0.170106066
   39    18.239174610     5.931124151    13.936208382    -0.434178585     0.184740240    -0.165408587
   40    13.005585042     8.949879898    16.483173283    -0.407126765     0.223473049    -0.185223092
   41    16.504957086     2.141784462    13.924150396    -0.448421114     0.174585981    -0.135787479
   42    10.789067365     8.583371928    13.373184446    -0.417994379     0.199350618    -0.188520637
   43    14.326878093     7.168062422    15.517575457    -0.423692143     0.200092832    -0.174493056
   44    19.267273301     4.167403811    14.800914291    -0.435898427     0.185329695    -0.160142016
   45    14.606704110     9.684111261    14.976739542    -0.412607424     0.210420833    -0.188356541
   46    17.698730521     1.362614902    12.276480887    -0.446326038     0.181106393    -0.134140011
   47    17.123194551     1.932348641    19.841245617    -0.413658602     0.210381813    -0.186080773
   48    20.328109657     3.589198508    10.762347708    -0.407209736     0.228149022    -0.179243562
   49    13.567576095     5.441357116    11.852242536     0.417539357    -0.182788063     0.205546611
   50    16.722336119     9.515443451    16.973296447    -0.401987926     0.217815540    -0.202390952
   51    19.999306223     5.949055830    10.901681332    -0.418367815     0.196505358    -0.190667290
   52    19.706758793     9.711437587    11.602859961    -0.401961495     0.213083265    -0.207418608
   53    18.975985456     4.391599207    19.525872767    -0.406696846     0.224383686    -0.185066574
   54    15.135097688     2.498308495    19.837290506    -0.403564722     0.243600083    -0.166716871
   55    13.581320834    10.166617722    12.738697040    -0.403629182     0.221519023    -0.194968731
   56    16.692462367     4.159239373    19.702749753    -0.414038262     0.212132433    -0.183227041
   57    15.582128885     6.085407077    17.332518409    -0.416378102     0.207708325    -0.182993245
   58    14.455089231     0.373538892    17.122848080    -0.405073772     0.225877812    -0.186800571
   59    16.106819272     1.852568666    17.837961792    -0.411446518     0.218978080    -0.180998241
   60    19.212125191     6.531883826    19.083583041    -0.407423091     0.219152330    -0.189680470
   61    19.377002495     1.905380160    19.986992868    -0.422879772     0.205927073    -0.169607603
   62    19.208771690     7.421290622    12.421154935    -0.420447363     0.198339027    -0.184080540
   63    12.471350994     7.954922140    19.614990893    -0.399629512     0.227067076    -0.196816656
   64    13.811310478     9.276614294    10.681809732    -0.406201134     0.212135002    -0.199998449
   65    14.938256188     4.003238210    13.528762303    -0.376290413     0.267569966    -0.191864113
   66    11.336565763     6.884985660    18.122118251    -0.396225978     0.231699886    -0.198293059
   67    18.167549230     2.913889719    18.233914355    -0.413204815     0.221732687    -0.173483130
   68    11.330590036     2.444375829    15.333282288    -0.471071636     0.151047252    -0.072637738
   21    22.224452437     6.657685887    14.399785032     0.412077470    -0.204702799     0.195675555
   22    29.556758107     2.041308342    16.439711752    -0.457588171     0.168493362    -0.110557918
   23    29.440831689     9.568634053    17.304551384    -0.408497430     0.217863197    -0.188853057
   24    24.387622263     4.456347701    18.132662804    -0.417398374     0.202029451    -0.186983149
   25    25.666281073     0.700197984    11.417678875    -0.402131782     0.222998868    -0.196370912
   26    22.225507030     1.282575867    17.954824083    -0.104301123    -0.382645689     0.304472581
   27    20.890130207     3.282834344    13.243027508    -0.417043585     0.213870154    -0.174167178
   28    27.883290925     5.721648091    11.512306372    -0.423242508     0.198201611    -0.177712974
   29    28.595920746     8.374460994    15.591821198    -0.400653296     0.224696954    -0.197454338
   30    27.365887476     9.288122374    12.288866472    -0.413571497     0.217088613    -0.178412867
   31    25.878256537    10.251873066    19.303257687    -0.406976547     0.227621182    -0.180440261
   32    28.005131426     0.902860303    18.532186190    -0.405800726     0.227139443    -0.183666665
   33    21.068354757     8.277186891    15.934403575    -0.408259413     0.225049036    -0.180768314
   34    30.665658728     3.261952852    18.652636049    -0.483325730    -0.104598498     0.073860631
   35    28.037947940     7.863597117    10.828848549    -0.415906711     0.212833452    -0.178111002
   36    27.551716309     2.850356993    16.162919256    -0.449345937     0.175484896    -0.131503916
   37    28.057275670     5.463236878    18.099630515    -0.410097070     0.214497107    -0.189238961
   38    26.142323859     6.380443649    14.798769261    -0.426812682     0.197220526    -0.170102906
   39    28.328830560     6.075784362    14.224295252    -0.434174327     0.184753041    -0.165405465
   40    23.095240992     9.094540110    16.771260153    -0.407114663     0.223495144    -0.185223033
   41    26.594613035     2.286444674    14.212237266    -0.448425245     0.174578637    -0.135783279
   42    20.878723315     8.728032140    13.661271316    -0.417985268     0.199369106    -0.188521287
   43    24.416534042     7.312722634    15.805662327    -0.423685008     0.200110628    -0.174489974
   44    29.356929250     4.312064023    15.089001160    -0.435894593     0.185341073    -0.160139286
   45    24.696360060     9.828771473    15.264826412    -0.412596607     0.210445962    -0.188352162
   46    27.788386471     1.507275113    12.564567757    -0.446329526     0.181100506    -0.134136353
   47    27.212850501     2.077008853    20.129332486    -0.413662350     0.210392141    -0.186060763
   48    30.417765607     3.733858720    11.050434578    -0.407207406     0.228160802    -0.179233860
   49    23.657232044     5.586017327    12.140329406     0.417568952    -0.182911987     0.205376181
   50    26.811992069     9.660103663    17.261383317    -0.401974568     0.217849304    -0.202381144
   51    30.088962172     6.093716041    11.189768202    -0.418363648     0.196518076    -0.190663326
   52    29.796414742     9.856097799    11.890946830    -0.401958692     0.213095594    -0.207411372
   53    29.065641406     4.536259418    19.813959637    -0.406696260     0.224395600    -0.185053417
   54    25.224753638     2.642968706    20.125377375    -0.403570948     0.243605049    -0.166694542
   55    23.670976784    10.311277934    13.026783910    -0.403617997     0.221543002    -0.194964639
   56    26.782118317     4.303899584    19.990836622    -0.414041357     0.212141983    -0.183208990
   57    25.671784835     6.230067288    17.620605278    -0.416375421     0.207721119    -0.182984822
   58    24.544745181     0.518199104    17.410934950    -0.405077422     0.225892494    -0.186774900
   59    26.196475222     1.997228878    18.126048662    -0.411451576     0.218986531    -0.180976518
   60    29.301781141     6.676544038    19.371669911    -0.407420820     0.219163750    -0.189672154
   61    29.466658445     2.050040372    20.275079737    -0.422882411     0.205938413    -0.169587252
   62    29.298427640     7.565950834    12.709241805    -0.420442845     0.198351898    -0.184076991
   63    22.561006944     8.099582351    19.903077763    -0.399624231     0.227082687    -0.196809367
   64    23.900966428     9.421274505    10.969896602    -0.406190414     0.212158340    -0.199995466
   65    25.027912138     4.147898421    13.816849173    -0.376110352     0.267772107    -0.191935150
   66    21.426221713     7.029645872    18.410205120    -0.396219867     0.231716187    -0.198286220
   67    28.257205180     3.058549931    18.522001224    -0.413207175     0.221739872    -0.173468325
   68    21.420245986     2.589036041    15.621369157    -0.471061056     0.151051036    -0.072698459
   21    32.314108387     6.802346099    14.687871902     0.412080892    -0.204697688     0.195673695
   22    39.646414057     2.185968553    16.727798622    -0.457579520     0.168513742    -0.110562661
   23    39.530487639     9.713294265    17.592638253    -0.408500300     0.217858476    -0.188852296
   24    34.477278212     4.601007913    18.420749674    -0.417397592     0.202028227    -0.186986219
   25    35.755937022     0.844858196    11.705765745    -0.402124625     0.223008644    -0.196374465
   26    32.315162980     1.427236078    18.242910952    -0.104407771    -0.382466302     0.304661361
   27    30.979786157     3.427494556    13.531114377    -0.417033074     0.213891781    -0.174165785
   28    37.972946874     5.866308303    11.800393242    -0.423242687     0.198196950    -0.177717745
   29    38.685576696     8.519121205    15.879908068    -0.400656284     0.224692482    -0.197453363
   30    37.455543426     9.432782586    12.576953342    -0.413570295     0.217086347    -0.178418410
   31    35.967912487    10.396533278    19.591344557    -0.406980578     0.227606038    -0.180450271
   32    38.094787376     1.047520515    18.820273059    -0.405795282     0.227140988    -0.183676785
   33    31.158010707     8.421847102    16.222490444    -0.408258863     0.225052512    -0.180765228
   34    40.755314678     3.406613063    18.940722919    -0.483336956    -0.104566958     0.073831821
   35    38.127603890     8.008257329    11.116935418    -0.415908067     0.212829238    -0.178112872
   36    37.641372258     2.995017205    16.451006126    -0.449339526     0.175499824    -0.131505902
   37    38.146931619     5.607897089    18.387717385    -0.410095588     0.214491681    -0.189248322
   38    36.231979809     6.525103860    15.086856131    -0.426814637     0.197217790    -0.170101171
   39    38.418486510     6.220444574    14.512382122    -0.434175981     0.184751348    -0.165403015
   40    33.184896942     9.239200322    17.059347022    -0.407116098     0.223494330    -0.185220860
   41    36.684268985     2.431104886    14.500324135    -0.448418706     0.174593747    -0.135785448
   42    30.968379265     8.872692352    13.949358185    -0.417982080     0.199378445    -0.188518478
   43    34.506189992     7.457382846    16.093749196    -0.423686960     0.200107807    -0.174488466
   44    39.446585200     4.456724235    15.377088030    -0.435895426     0.185342146    -0.160135776
   45    34.786016010     9.973431684    15.552913282    -0.412597646     0.210442399    -0.188353867
   46    37.878042420     1.651935325    12.852654626    -0.446323315     0.181114697    -0.134137859
   47    37.302506451     2.221669064    20.417419356    -0.413657389     0.210390373    -0.186073791
   48    40.507421557     3.878518932    11.338521447    -0.407205083     0.228162244    -0.179237302
   49    33.746887994     5.730677539    12.428416275     0.417692164    -0.182493702     0.205497701
   50    36.901648019     9.804763875    17.549470186    -0.401978845     0.217834690    -0.202388378
   51    40.178618122     6.238376253    11.477855072    -0.418365236     0.196513149    -0.190664919
   52    39.886070692    10.000758011    12.179033700    -0.401954893     0.213094899    -0.207419449
   53    39.155297356     4.680919630    20.102046506    -0.406694693     0.224389513    -0.185064239
   54    35.314409587     2.787628918    20.413464245    -0.403563122     0.243607424    -0.166710016
   55    33.760632733    10.455938145    13.314870779    -0.403616892     0.221542059    -0.194968000
   56    36.871774267     4.448559796    20.278923492    -0.414036765     0.212141230    -0.183220239
   57    35.761440785     6.374727500    17.908692148    -0.416375463     0.207718576    -0.182987615
   58    34.634401130     0.662859315    17.699021819    -0.405072031     0.225892939    -0.186786054
   59    36.286131171     2.141889089    18.414135532    -0.411445863     0.218989119    -0.180986374
   60    39.391437091     6.821204249    19.659756781    -0.407421555     0.219155258    -0.189680388
   61    39.556314395     2.194700584    20.563166607    -0.422877960     0.205934948    -0.169602559
   62    39.388083590     7.710611045    12.997328674    -0.420444375     0.198346913    -0.184078868
   63    32.650662894     8.244242563    20.191164632    -0.399624454     0.227085473    -0.196805701
   64    33.990622378     9.565934717    11.257983471    -0.406187966     0.212160035    -0.199998640
   65    35.117568087     4.292558633    14.104936042    -0.375842654     0.267932776    -0.192235082
   66    31.515877663     7.174306084    18.698291990    -0.396219046     0.231722508    -0.198280476
   67    38.346861130     3.203210143    18.810088094    -0.413203466     0.221739251    -0.173477954
   68    31.509901936     2.733696253    15.909456027    -0.471069309     0.151030938    -0.072686740
   21     2.180216008    16.393458985    13.854236717     0.412089430    -0.204673241     0.195681287
   22     9.512521679    11.777081439    15.894163437    -0.457601317     0.168470784    -0.110537910
   23     9.396595261    19.304407151    16.759003068    -0.408517333     0.217836388    -0.188840929
   24     4.343385834    14.192120799    17.587114488    -0.417412226     0.201991178    -0.186993577
   25     5.622044644    10.435971082    10.872130559    -0.402142303     0.222974077    -0.196377517
   26     2.181270601    11.018348964    17.409275767    -0.104138773    -0.382440900     0.304785292
   27     0.845893778    13.018607442    12.697479192    -0.417037509     0.213871723    -0.174179798
   28     7.839054496    15.457421189    10.966758056    -0.423257875     0.198169339    -0.177712364
   29     8.551684317    18.110234091    15.046272882    -0.400676869     0.224666605    -0.197441036
   30     7.321651047    19.023895472    11.743318157    -0.413584415     0.217065336    -0.178411242
   31     5.834020109    19.987646164    18.757709372    -0.406993290     0.227593691    -0.180437175
   32     7.960894997    10.638633401    17.986637874    -0.405810442     0.227107889    -0.183684219
   33     1.024118329    18.012959989    15.388855259    -0.408266096     0.225033150    -0.180772996
   34    10.621422300    12.997725949    18.107087734    -0.483307707    -0.104600118     0.073976181
   35     7.993711512    17.599370215    10.283300233    -0.415922305     0.212804581    -0.178109087
   36     7.507479880    12.586130091    15.617370941    -0.449360158     0.175455946    -0.131493953
   37     8.013039241    15.199009976    17.554082199    -0.410111390     0.214458176    -0.189252049
   38     6.098087431    16.116216746    14.253220946    -0.426826469     0.197187354    -0.170106768
   39     8.284594131    15.811557460    13.678746936    -0.434188304     0.184720215    -0.165405438
   40     3.051004564    18.830313208    16.225711837    -0.407126187     0.223474067    -0.185223134
   41     6.550376607    12.022217772    13.666688950    -0.448439639     0.174548628    -0.135774323
   42     0.834486886    18.463805238    13.115723000    -0.417986622     0.199358951    -0.188529022
   43     4.372297614    17.048495732    15.260114011    -0.423698682     0.200078637    -0.174493455
   44     9.312692822    14.047837121    14.543452845    -0.435909119     0.185307777    -0.160138277
   45     4.652123632    19.564544570    14.719278096    -0.412608859     0.210422915    -0.188351071
   46     7.744150042    11.243048211    12.019019441    -0.446343751     0.181071312    -0.134128429
   47     7.168614072    11.812781950    19.583784171    -0.413670059     0.210362363    -0.186077292
   48    10.373529178    13.469631818    10.504886262    -0.407224659     0.228126985    -0.179237709
   49     3.612995616    15.321790425    11.594781090     0.417678194    -0.182574313     0.205454488
   50     6.767755640    19.395876761    16.715835001    -0.401993367     0.217820095    -0.202375243
   51    10.044725744    15.829489139    10.644219886    -0.418378996     0.196487228    -0.190661441
   52     9.752178314    19.591870897    11.345398515    -0.401971392     0.213070010    -0.207413043
   53     9.021404977    14.272032516    19.268411321    -0.406709263     0.224356253    -0.185072546
   54     5.180517209    12.378741804    19.579829060    -0.403579965     0.243572643    -0.166720064
   55     3.626740355    20.047051031    12.481235594    -0.403628805     0.221522882    -0.194965128
   56     6.737881888    14.039672682    19.445288307    -0.414050903     0.212107788    -0.183227006
   57     5.627548407    15.965840386    17.075056963    -0.416389951     0.207683151    -0.182994857
   58     4.500508752    10.253972201    16.865386634    -0.405085378     0.225859257    -0.186797838
   59     6.152238793    11.733001975    17.580500346    -0.411459869     0.218954767    -0.180996095
   60     9.257544712    16.412317135    18.826121595    -0.407437185     0.219123161    -0.189683896
   61     9.422422016    11.785813470    19.729531422    -0.422890197     0.205908952    -0.169603610
   62     9.254191212    17.301723931    12.163693489    -0.420458582     0.198320779    -0.184074576
   63     2.516770515    17.835355449    19.357529447    -0.399629111     0.227072028    -0.196811757
   64     3.856729999    19.157047603    10.424348286    -0.406199271     0.212140138    -0.199996785
   65     4.983675709    13.883671519    13.271300857    -0.376235273     0.267590492    -0.191943606
   66     1.381985285    16.765418970    17.864656805    -0.396222699     0.231709871    -0.198287943
   67     8.212968751    12.794323029    17.976452909    -0.413218568     0.221706245    -0.173484167
   68     1.376009558    12.324809139    15.075820841    -0.471059080     0.151072494    -0.072666667
   21    12.269871958    16.538119196    14.142323586     0.412095861    -0.204664058     0.195677350
   22    19.602177629    11.921741651    16.182250306    -0.457588044     0.168466921    -0.110598728
   23    19.486251210    19.449067363    17.047089938    -0.408508541     0.217846770    -0.188847973
   24    14.433041784    14.336781011    17.875201358    -0.417407601     0.202004483    -0.186989527
   25    15.711700594    10.580631293    11.160217429    -0.402137486     0.222979616    -0.196381092
   26    12.270926551    11.163009176    17.697362637    -0.104139360    -0.382359798     0.304886829
   27    10.935549728    13.163267653    12.985566062    -0.417049572     0.213854130    -0.174172517
   28    17.928710446    15.602081400    11.254844926    -0.423249090     0.198185975    -0.177714735
   29    18.641340267    18.254894303    15.334359752    -0.400664805     0.224682588    -0.197447332
   30    17.411306997    19.168555683    12.031405026    -0.413576529     0.217076995    -0.178415337
   31    15.923676059    20.132306376    19.045796241    -0.406993127     0.227587733    -0.180445057
   32    18.050550947    10.783293613    18.274724744    -0.405804479     0.227120142    -0.183682243
   33    11.113774279    18.157620200    15.676942129    -0.408274272     0.225024949    -0.180764740
   34    20.711078250    13.142386161    18.395174603    -0.483329285    -0.104696942     0.073697713
   35    18.083367461    17.744030427    10.571387103    -0.415913276     0.212820007    -0.178111740
   36    17.597135830    12.730790302    15.905457810    -0.449346213     0.175464835    -0.131529740
   37    18.102695191    15.343670187    17.842169069    -0.410106615     0.214475858    -0.189242359
   38    16.187743381    16.260876958    14.541307815    -0.426821468     0.197199426    -0.170105323
   39    18.374250081    15.956217672    13.966833806    -0.434180394     0.184737192    -0.165407240
   40    13.140660513    18.974973419    16.513798707    -0.407128933     0.223471100    -0.185220678
   41    16.640032557    12.166877983    13.954775820    -0.448425254     0.174561013    -0.135805907
   42    10.924142836    18.608465450    13.403809870    -0.417998750     0.199347295    -0.188514457
   43    14.461953564    17.193155943    15.548200881    -0.423695196     0.200086914    -0.174492430
   44    19.402348772    14.192497332    14.831539714    -0.435900019     0.185325909    -0.160142064
   45    14.741779581    19.709204782    15.007364966    -0.412609000     0.210420469    -0.188353496
   46    17.833805992    11.387708423    12.307106311    -0.446330602     0.181084590    -0.134154260
   47    17.258270022    11.957442162    19.871871040    -0.413664779     0.210375856    -0.186073775
   48    20.463185128    13.614292029    10.792973132    -0.407215855     0.228142301    -0.179238216
   49    13.702651566    15.466450637    11.882867960     0.417580850    -0.182604183     0.205625744
   50    16.857411590    19.540536972    17.003921871    -0.401991825     0.217815452    -0.202383303
   51    20.134381694    15.974149351    10.932306756    -0.418369390     0.196505274    -0.190663920
   52    19.841834264    19.736531108    11.633485384    -0.401962764     0.213083631    -0.207415772
   53    19.111060927    14.416692728    19.556498191    -0.406705985     0.224376512    -0.185055188
   54    15.270173159    12.523402016    19.867915929    -0.403575570     0.243587805    -0.166708550
   55    13.716396305    20.191711243    12.769322464    -0.403628449     0.221522661    -0.194966114
   56    16.827537838    14.184332894    19.733375176    -0.414046412     0.212122689    -0.183219904
   57    15.717204356    16.110500598    17.363143832    -0.416385359     0.207696613    -0.182990027
   58    14.590164702    10.398632413    17.153473504    -0.405083197     0.225861709    -0.186799604
   59    16.241894743    11.877662187    17.868587216    -0.411456311     0.218961311    -0.180996266
   60    19.347200662    16.556977347    19.114208465    -0.407432518     0.219142384    -0.189671714
   61    19.512077966    11.930473681    20.017618291    -0.422883922     0.205921458    -0.169604073
   62    19.343847161    17.446384143    12.451780359    -0.420448570     0.198338695    -0.184078141
   63    12.606426465    17.980015661    19.645616317    -0.399639942     0.227054849    -0.196809583
   64    13.946385949    19.301707815    10.712435156    -0.406199936     0.212138748    -0.199996909
   65    15.073331659    14.028331731    13.559387727    -0.375918074     0.267715729    -0.192389943
   66    11.471641234    16.910079181    18.152743674    -0.396235775     0.231687456    -0.198288006
   67    18.302624701    12.938983240    18.264539778    -0.413212896     0.221723568    -0.173475537
   68    11.465665507    12.469469350    15.363907711    -0.471080191     0.151014896    -0.072649531
   21    22.359527908    16.682779408    14.430410456     0.412076714    -0.204701315     0.195678700
   22    29.691833578    12.066401863    16.470337176    -0.457585510     0.168483111    -0.110584548
   23    29.575907160    19.593727574    17.335176807    -0.408503100     0.217865660    -0.188837951
   24    24.522697734    14.481441222    18.163288228    -0.417393586     0.202039187    -0.186983319
   25    25.801356544    10.725291505    11.448304299    -0.402130068     0.222998736    -0.196374572
   26    22.360582501    11.307669388    17.985449506    -0.104191087    -0.382839799     0.304266175
   27    21.025205678    13.307927865    13.273652931    -0.417042560     0.213886266    -0.174149845
   28    28.018366396    15.746741612    11.542931795    -0.423241315     0.198202754    -0.177714540
   29    28.730996217    18.399554515    15.622446622    -0.400662604     0.224696053    -0.197436475
   30    27.500962947    19.313215895    12.319491896    -0.413568855     0.217094520    -0.178411804
   31    26.013332008    20.276966587    19.333883111    -0.406984177     0.227607284    -0.180440584
   32    28.140206897    10.927953824    18.562811613    -0.405792252     0.227148569    -0.183674102
   33    21.203430228    18.302280412    15.965028998    -0.408262333     0.225047396    -0.180763760
   34    30.800734199    13.287046373    18.683261473    -0.483321734    -0.104641705     0.073825568
   35    28.173023411    17.888690638    10.859473972    -0.415905432     0.212836132    -0.178110787
   36    27.686791780    12.875450514    16.193544680    -0.449342638     0.175481645    -0.131519525
   37    28.192351141    15.488330399    18.130255939    -0.410094705     0.214501758    -0.189238814
   38    26.277399330    16.405537170    14.829394685    -0.426810733     0.197226545    -0.170100817
   39    28.463906031    16.100877883    14.254920676    -0.434172295     0.184759352    -0.165403747
   40    23.230316463    19.119633631    16.801885576    -0.407118747     0.223492335    -0.185217445
   41    26.729688506    12.311538195    14.242862689    -0.448422508     0.174575499    -0.135796352
   42    21.013798786    18.753125661    13.691896739    -0.417986902     0.199369475    -0.188517272
   43    24.551609513    17.337816155    15.836287750    -0.423683828     0.200115045    -0.174487772
   44    29.492004722    14.337157544    15.119626584    -0.435892161     0.185349006    -0.160136722
   45    24.831435531    19.853864994    15.295451836    -0.412599522     0.210442519    -0.188349623
   46    27.923461942    11.532368635    12.595193180    -0.446327483     0.181098152    -0.134146327
   47    27.347925972    12.102102374    20.159957910    -0.413654972     0.210401690    -0.186066367
   48    30.552841078    13.758952241    11.081060001    -0.407205531     0.228157586    -0.179242215
   49    23.792307516    15.611110848    12.170954829     0.417538627    -0.182884942     0.205461902
   50    26.947067540    19.685197184    17.292008740    -0.401981974     0.217836409    -0.202380314
   51    30.224037643    16.118809562    11.220393626    -0.418362999     0.196520161    -0.190662602
   52    29.931490213    19.881191320    11.921572254    -0.401953012     0.213101202    -0.207416618
   53    29.200716877    14.561352939    19.844585060    -0.406693555     0.224400010    -0.185054013
   54    25.359829109    12.668062227    20.156002799    -0.403559642     0.243621800    -0.166697432
   55    23.806052255    20.336371455    13.057409333    -0.403620674     0.221539022    -0.194963620
   56    26.917193788    14.328993105    20.021462046    -0.414033697     0.212154108    -0.183212260
   57    25.806860306    16.255160809    17.651230702    -0.416371854     0.207728904    -0.182984102
   58    24.679820652    10.543292625    17.441560373    -0.405070237     0.225903877    -0.186776717
   59    26.331550693    12.022322399    18.156674085    -0.411443516     0.218997827    -0.180981172
   60    29.436856612    16.701637559    19.402295334    -0.407421000     0.219165890    -0.189669296
   61    29.601733916    12.075133893    20.305705161    -0.422875856     0.205946071    -0.169594299
   62    29.433503111    17.591044355    12.739867228    -0.420442445     0.198355002    -0.184074560
   63    22.696082415    18.124675872    19.933703186    -0.399634042     0.227071993    -0.196801785
   64    24.036041899    19.446368026    11.000522025    -0.406192377     0.212155608    -0.199994378
   65    25.162987609    14.172991942    13.847474596    -0.376233085     0.267651162    -0.191863288
   66    21.561297184    17.054739393    18.440830544    -0.396229443     0.231706121    -0.198278849
   67    28.392280651    13.083643452    18.552626648    -0.413201233     0.221747454    -0.173472785
   68    21.555321457    12.614129562    15.651994581    -0.471071402     0.150993017    -0.072751926
   21    32.449183858    16.827439620    14.718497325     0.412080207    -0.204703744     0.195668802
   22    39.781489528    12.211062074    16.758424046    -0.457579237     0.168521836    -0.110551493
   23    39.665563110    19.738387786    17.623263677    -0.408504521     0.217833665    -0.188871784
   24    34.612353683    14.626101434    18.451375097    -0.417398236     0.202024707    -0.186988582
   25    35.891012493    10.869951717    11.736391168    -0.402127383     0.222994840    -0.196384493
   26    32.450238451    11.452329599    18.273536376    -0.104208628    -0.382457130     0.304741047
   27    31.114861628    13.452588077    13.561739801    -0.417028559     0.213916924    -0.174145717
   28    38.108022345    15.891401824    11.831018665    -0.423242139     0.198187654    -0.177729416
   29    38.820652167    18.544214726    15.910533491    -0.400660981     0.224667202    -0.197472596
   30    37.590618897    19.457876107    12.607578765    -0.413571489     0.217074824    -0.178429663
   31    36.102987958    20.421626799    19.621969981    -0.406978943     0.227599988    -0.180461589
   32    38.229862847    11.072614036    18.850898483    -0.405795838     0.227136594    -0.183680989
   33    31.293086178    18.446940623    16.253115868    -0.408259238     0.225054344    -0.180762101
   34    40.890390149    13.431706584    18.971348343    -0.483324862    -0.104550866     0.073933717
   35    38.262679361    18.033350850    11.147560842    -0.415907561     0.212818637    -0.178126720
   36    37.776447729    13.020110726    16.481631549    -0.449339151     0.175499503    -0.131507610
   37    38.282007090    15.632990610    18.418342808    -0.410096261     0.214490656    -0.189248026
   38    36.367055280    16.550197381    15.117481555    -0.426813191     0.197215126    -0.170107889
   39    38.553561981    16.245538095    14.543007545    -0.434174140     0.184745102    -0.165414822
   40    33.319972413    19.264293843    17.089972446    -0.407115139     0.223494144    -0.185223193
   41    36.819344456    12.456198407    14.530949559    -0.448417631     0.174590188    -0.135793573
   42    31.103454736    18.897785873    13.979983609    -0.417983656     0.199380429    -0.188512885
   43    34.641265463    17.482476367    16.124374620    -0.423685426     0.200106075    -0.174494178
   44    39.581660671    14.481817756    15.407713454    -0.435893712     0.185334938    -0.160148783
   45    34.921091481    19.998525205    15.583538705    -0.412595826     0.210440057    -0.188360469
   46    38.013117892    11.677028846    12.883280050    -0.446322640     0.181109353    -0.134147319
   47    37.437581922    12.246762585    20.448044779    -0.413656896     0.210388677    -0.186076806
   48    40.642497028    13.903612453    11.369146871    -0.407204982     0.228150089    -0.179253005
   49    33.881963465    15.755771060    12.459041699     0.417556094    -0.182802071     0.205500148
   50    37.036723490    19.829857396    17.580095610    -0.401975855     0.217829765    -0.202399619
   51    40.313693593    16.263469774    11.508480495    -0.418364389     0.196503040    -0.190677196
   52    40.021146163    20.025851532    12.209659124    -0.401958089     0.213081848    -0.207426664
   53    39.290372827    14.706013151    20.132671930    -0.406694220     0.224387465    -0.185067763
   54    35.449485059    12.812722439    20.444089669    -0.403565267     0.243600473    -0.166714980
   55    33.895708204    20.481031666    13.345496203    -0.403615129     0.221541332    -0.194972473
   56    37.006849738    14.473653317    20.309548916    -0.414036768     0.212137803    -0.183224198
   57    35.896516256    16.399821021    17.939317572    -0.416375772     0.207715800    -0.182990063
   58    34.769476601    10.687952836    17.729647243    -0.405072968     0.225885817    -0.186792635
   59    36.421206642    12.166982610    18.444760955    -0.411446639     0.218983538    -0.180991364
   60    39.526512562    16.846297770    19.690382204    -0.407422013     0.219155744    -0.189678842
   61    39.691389866    12.219794105    20.593792030    -0.422877836     0.205934553    -0.169603347
   62    39.523159061    17.735704566    13.027954098    -0.420444955     0.198336341    -0.184088934
   63    32.785738365    18.269336084    20.221790056    -0.399623128     0.227088344    -0.196805080
   64    34.125697849    19.591028238    11.288608895    -0.406187355     0.212157890    -0.200002156
   65    35.252643558    14.317652154    14.135561466    -0.375748957     0.267594660    -0.192888100
   66    31.650953134    17.199399605    18.728917413    -0.396218847     0.231723316    -0.198279928
   67    38.481936601    13.228303664    18.840713518    -0.413202622     0.221736480    -0.173483504
   68    31.644977407    12.758789774    15.940081450    -0.471070203     0.151010769    -0.072722843
   21     2.315291480    26.418552506    13.884862140     0.412079064    -0.204696950     0.195678317
   22     9.647597150    21.802174960    15.924788860    -0.457597940     0.168474958    -0.110545529
   23     9.531670732    29.329500672    16.789628491    -0.408504242     0.217855400    -0.188847316
   24     4.478461305    24.217214320    17.617739912    -0.417407160     0.202013234    -0.186981057
   25     5.757120115    20.461064603    10.902755983    -0.402140181     0.222981846    -0.196373042
   26     2.316346072    21.043442485    17.439901190    -0.104052258    -0.382927407     0.304203432
   27     0.980969250    23.043700963    12.728104616    -0.417029359     0.213929000    -0.174128965
   28     7.974129967    25.482514710    10.997383480    -0.423252024     0.198188349    -0.177705099
   29     8.686759788    28.135327612    15.076898306    -0.400662061     0.224688727    -0.197445915
   30     7.456726518    29.048988993    11.773943580    -0.413578845     0.217082096    -0.178403762
   31     5.969095580    30.012739685    18.788334795    -0.406983133     0.227605170    -0.180445603
   32     8.095970468    20.663726922    18.017263298    -0.405811835     0.227117588    -0.183669147
   33     1.159193800    28.038053510    15.419480683    -0.408259374     0.225053716    -0.180762575
   34    10.756497771    23.022819470    18.137713157    -0.483310809    -0.104638744     0.073901250
   35     8.128786983    27.624463736    10.313925657    -0.415916089     0.212822940    -0.178101665
   36     7.642555351    22.611223612    15.647996364    -0.449354206     0.175469099    -0.131496741
   37     8.148114712    25.224103497    17.584707623    -0.410106030     0.214475423    -0.189244120
   38     6.233162902    26.141310267    14.283846369    -0.426820555     0.197209426    -0.170096021
   39     8.419669602    25.836650981    13.709372360    -0.434181908     0.184743438    -0.165396291
   40     3.186080035    28.855406729    16.256337261    -0.407118979     0.223492109    -0.185217208
   41     6.685452078    22.047311293    13.697314374    -0.448432900     0.174563298    -0.135777719
   42     0.969562358    28.488898759    13.146348424    -0.417981762     0.199379759    -0.188517793
   43     4.507373085    27.073589253    15.290739435    -0.423692702     0.200099737    -0.174483781
   44     9.447768293    24.072930642    14.574078268    -0.435901598     0.185333112    -0.160129431
   45     4.787199103    29.589638091    14.749903520    -0.412602281     0.210438452    -0.188348123
   46     7.879225513    21.268141732    12.049644865    -0.446337386     0.181084768    -0.134131447
   47     7.303689543    21.837875471    19.614409594    -0.413671217     0.210366084    -0.186070510
   48    10.508604649    23.494725339    10.535511686    -0.407216287     0.228144073    -0.179234978
   49     3.748071087    25.346883946    11.625406514     0.417618539    -0.182569335     0.205580140
   50     6.902831111    29.420970282    16.746460425    -0.401981906     0.217834489    -0.202382515
   51    10.179801215    25.854582660    10.674845310    -0.418372769     0.196507177    -0.190654545
   52     9.887253785    29.616964418    11.376023938    -0.401966067     0.213089994    -0.207402834
   53     9.156480448    24.297126037    19.299036745    -0.406706105     0.224371212    -0.185061349
   54     5.315592680    22.403835325    19.610454483    -0.403579677     0.243588142    -0.166698114
   55     3.761815826    30.072144552    12.511861017    -0.403623769     0.221537707    -0.194958707
   56     6.872957359    24.064766203    19.475913730    -0.414049367     0.212121852    -0.183214197
   57     5.762623878    25.990933907    17.105682386    -0.416384163     0.207705299    -0.182982888
   58     4.635584223    20.279065722    16.896012058    -0.405086368     0.225879206    -0.186771569
   59     6.287314264    21.758095496    17.611125770    -0.411459770     0.218971615    -0.180975937
   60     9.392620183    26.437410656    18.856747019    -0.407430618     0.219141155    -0.189677215
   61     9.557497487    21.810906991    19.760156845    -0.422892379     0.205906215    -0.169601493
   62     9.389266683    27.326817452    12.194318913    -0.420451220     0.198342002    -0.184068524
   63     2.651845986    27.860448970    19.388154871    -0.399627700     0.227080601    -0.196804731
   64     3.991805470    29.182141124    10.454973710    -0.406194756     0.212155816    -0.199989324
   65     5.118751180    23.908765040    13.301926281    -0.376055594     0.267824461    -0.191969394
   66     1.517060756    26.790512491    17.895282228    -0.396220700     0.231719920    -0.198280194
   67     8.348044222    22.819416550    18.007078332    -0.413217045     0.221717389    -0.173473550
   68     1.511085029    22.349902660    15.106446265    -0.471096844     0.150871345    -0.072839558
   21    12.404947429    26.563212718    14.172949010     0.412085168    -0.204689945     0.195672789
   22    19.737253100    21.946835172    16.212875730    -0.457587524     0.168487294    -0.110569839
   23    19.621326681    29.474160884    17.077715361    -0.408503153     0.217857612    -0.188847121
   24    14.568117255    24.361874532    17.905826782    -0.417407393     0.202008692    -0.186985445
   25    15.846776065    20.605724814    11.190842853    -0.402135343     0.222985807    -0.196378451
   26    12.406002022    21.188102697    17.727988060    -0.104144402    -0.382528497     0.304673419
   27    11.070625199    23.188361175    13.016191485    -0.417037327     0.213891681    -0.174155725
   28    18.063785917    25.627174921    11.285470349    -0.423246920     0.198189522    -0.177715947
   29    18.776415738    28.279987824    15.364985175    -0.400660817     0.224690912    -0.197445951
   30    17.546382468    29.193649204    12.062030450    -0.413575402     0.217082666    -0.178411052
   31    16.058751530    30.157399897    19.076421665    -0.406986734     0.227594573    -0.180450849
   32    18.185626418    20.808387134    18.305350167    -0.405808486     0.227119119    -0.183674654
   33    11.248849750    28.182713721    15.707567552    -0.408266494     0.225040225    -0.180763290
   34    20.846153721    23.167479682    18.425800027    -0.483325481    -0.104618832     0.073833457
   35    18.218442932    27.769123948    10.602012526    -0.415910974     0.212823249    -0.178113240
   36    17.732211301    22.755883824    15.936083234    -0.449346835     0.175476203    -0.131512449
   37    18.237770662    25.368763708    17.872794493    -0.410108664     0.214470910    -0.189243526
   38    16.322818852    26.285970479    14.571933239    -0.426819074     0.197205260    -0.170104566
   39    18.509325552    25.981311193    13.997459230    -0.434178456     0.184741023    -0.165408049
   40    13.275735984    29.000066940    16.544424130    -0.407123309     0.223481549    -0.185220433
   41    16.775108028    22.191971504    13.985401243    -0.448425766     0.174571581    -0.135790629
   42    11.059218307    28.633558971    13.434435293    -0.417990232     0.199367472    -0.188512007
   43    14.597029035    27.218249464    15.578826304    -0.423692335     0.200094462    -0.174490719
   44    19.537424243    24.217590853    14.862165138    -0.435897745     0.185329995    -0.160143525
   45    14.876855053    29.734298303    15.037990389    -0.412605098     0.210429654    -0.188351781
   46    17.968881463    21.412801944    12.337731734    -0.446329927     0.181094777    -0.134142752
   47    17.393345493    21.982535683    19.902496464    -0.413673210     0.210365223    -0.186067054
   48    20.598260599    23.639385550    10.823598555    -0.407210095     0.228147217    -0.179245044
   49    13.837727037    25.491544158    11.913493383     0.417624001    -0.182691540     0.205460447
   50    16.992487061    29.565630493    17.034547294    -0.401985071     0.217822601    -0.202389024
   51    20.269457165    25.999242872    10.962932180    -0.418368010     0.196507142    -0.190665024
   52    19.976909735    29.761624629    11.664110808    -0.401961807     0.213090146    -0.207410934
   53    19.246136398    24.441786249    19.587123614    -0.406710588     0.224365203    -0.185058784
   54    15.405248630    22.548495537    19.898541353    -0.403580653     0.243584601    -0.166700926
   55    13.851471776    30.216804764    12.799947887    -0.403626301     0.221530916    -0.194961181
   56    16.962613309    24.209426415    19.764000600    -0.414051154     0.212117788    -0.183214864
   57    15.852279828    26.135594119    17.393769256    -0.416384502     0.207700711    -0.182987325
   58    14.725240173    20.423725934    17.184098927    -0.405085743     0.225866657    -0.186788100
   59    16.376970214    21.902755708    17.899212639    -0.411458527     0.218964702    -0.180987127
   60    19.482276133    26.582070868    19.144833888    -0.407434351     0.219135656    -0.189675549
   61    19.647153437    21.955567202    20.048243715    -0.422894316     0.205907704    -0.169594855
   62    19.478922633    27.471477664    12.482405782    -0.420448025     0.198342225    -0.184075582
   63    12.741501936    28.005109182    19.676241740    -0.399634464     0.227062744    -0.196811599
   64    14.081461420    29.326801336    10.743060579    -0.406198301     0.212148172    -0.199990233
   65    15.208407130    24.053425252    13.590013150    -0.376215011     0.267636427    -0.191919275
   66    11.606716706    26.935172702    18.183369098    -0.396228974     0.231700098    -0.198286824
   67    18.437700172    22.964076761    18.295165202    -0.413218079     0.221715678    -0.173473276
   68    11.600740978    22.494562871    15.394533135    -0.471079447     0.151008420    -0.072667819
   21    22.494603379    26.707872929    14.461035879     0.412085447    -0.204694991     0.195666923
   22    29.826909049    22.091495384    16.500962600    -0.457573468     0.168559714    -0.110517619
   23    29.710982631    29.618821095    17.365802231    -0.408504673     0.217845288    -0.188858049
   24    24.657773205    24.506534743    18.193913651    -0.417401621     0.202018253    -0.186987999
   25    25.936432015    20.750385026    11.478929722    -0.402129732     0.222999287    -0.196374635
   26    22.495657972    21.332762909    18.016074930    -0.104173230    -0.382576805     0.304602900
   27    21.160281149    23.333021386    13.304278355    -0.417035290     0.213880940    -0.174173795
   28    28.153441867    25.771835133    11.573557219    -0.423243747     0.198197668    -0.177714421
   29    28.866071688    28.424648036    15.653072045    -0.400662123     0.224679808    -0.197455938
   30    27.636038418    29.338309416    12.350117319    -0.413571473     0.217084512    -0.178417912
   31    26.148407479    30.302060108    19.364508535    -0.406986235     0.227593968    -0.180452736
   32    28.275282368    20.953047345    18.593437037    -0.405800428     0.227136084    -0.183671479
   33    21.338505699    28.327373933    15.995654422    -0.408265590     0.225041772    -0.180763405
   34    30.935809670    23.312139894    18.713886897    -0.483338298    -0.104402880     0.074054897
   35    28.308098882    27.913784159    10.890099396    -0.415907710     0.212830615    -0.178112060
   36    27.821867251    22.900544035    16.224170103    -0.449337681     0.175522773    -0.131481575
   37    28.327426612    25.513423920    18.160881362    -0.410100390     0.214482346    -0.189248496
   38    26.412474801    26.430630691    14.860020109    -0.426815308     0.197214490    -0.170103315
   39    28.598981502    26.125971404    14.285546099    -0.434174336     0.184753316    -0.165405132
   40    23.365391934    29.144727152    16.832511000    -0.407122340     0.223483732    -0.185219928
   41    26.864763978    22.336631716    14.273488113    -0.448418220     0.174609390    -0.135766937
   42    21.148874257    28.778219182    13.722522163    -0.417987864     0.199369748    -0.188514852
   43    24.686684984    27.362909676    15.866913174    -0.423688994     0.200101672    -0.174490566
   44    29.627080193    24.362251065    15.150252007    -0.435892959     0.185345073    -0.160139103
   45    24.966511002    29.878958515    15.326077259    -0.412602663     0.210431185    -0.188355406
   46    28.058537413    21.557462156    12.625818604    -0.446323031     0.181125225    -0.134124588
   47    27.483001443    22.127195895    20.190583333    -0.413665328     0.210382213    -0.186065366
   48    30.687916549    23.784045762    11.111685425    -0.407204859     0.228162699    -0.179237234
   49    23.927382987    25.636204369    12.201580253     0.417719437    -0.182745803     0.205218039
   50    27.082143011    29.710290705    17.322634164    -0.401984605     0.217823120    -0.202389391
   51    30.359113114    26.143903083    11.251019049    -0.418364371     0.196515865    -0.190664018
   52    30.066565684    29.906284841    11.952197678    -0.401956336     0.213093570    -0.207418019
   53    29.335792348    24.586446460    19.875210484    -0.406699810     0.224375372    -0.185070141
   54    25.494904580    22.693155748    20.186628223    -0.403574021     0.243593431    -0.166704079
   55    23.941127726    30.361464976    13.088034757    -0.403620640     0.221533003    -0.194970530
   56    27.052269259    24.354086626    20.052087469    -0.414043437     0.212130337    -0.183217773
   57    25.941935777    26.280254330    17.681856126    -0.416379224     0.207709203    -0.182989696
   58    24.814896123    20.568386146    17.472185797    -0.405076627     0.225887877    -0.186782209
   59    26.466626164    22.047415920    18.187299509    -0.411450093     0.218984526    -0.180982314
   60    29.571932083    26.726731080    19.432920758    -0.407424418     0.219147000    -0.189683778
   61    29.736809387    22.100227414    20.336330584    -0.422886508     0.205929324    -0.169588075
   62    29.568578582    27.616137876    12.770492652    -0.420444046     0.198348640    -0.184077760
   63    22.831157886    28.149769393    19.964328610    -0.399633595     0.227065095    -0.196810652
   64    24.171117370    29.471461547    11.031147449    -0.406191595     0.212150656    -0.200001218
   65    25.298063080    24.198085463    13.878100020    -0.376291461     0.267603417    -0.191815400
   66    21.696372655    27.079832914    18.471455967    -0.396229924     0.231699798    -0.198285276
   67    28.527356122    23.108736973    18.583252072    -0.413208622     0.221728892    -0.173478911
   68    21.690396928    22.639223083    15.682620004    -0.471068552     0.151025599    -0.072702734
   21    32.584259329    26.852533141    14.749122749     0.412079522    -0.204693928     0.195680513
   22    39.916564999    22.236155595    16.789049469    -0.457603437     0.168387613    -0.110655799
   23    39.800638581    29.763481307    17.653889100    -0.408496528     0.217871836    -0.188845042
   24    34.747429155    24.651194955    18.482000521    -0.417395759     0.202026672    -0.186991989
   25    36.026087965    20.895045238    11.767016592    -0.402126929     0.222993942    -0.196386443
   26    32.585313922    21.477423120    18.304161799    -0.104322603    -0.382193139     0.305033111
   27    31.249937099    23.477681598    13.592365224    -0.417034631     0.213874513    -0.174183265
   28    38.243097817    25.916495345    11.861644089    -0.423241448     0.198202318    -0.177714710
   29    38.955727638    28.569308247    15.941158915    -0.400652260     0.224706446    -0.197445637
   30    37.725694368    29.482969628    12.638204189    -0.413568111     0.217096229    -0.178411449
   31    36.238063429    30.446720320    19.652595404    -0.406975422     0.227623917    -0.180439347
   32    38.364938318    21.097707557    18.881523906    -0.405795977     0.227129816    -0.183689062
   33    31.428161649    28.472034144    16.283741291    -0.408259173     0.225050153    -0.180767465
   34    41.025465620    23.456800105    19.001973766    -0.483309893    -0.104910517     0.073520957
   35    38.397754832    28.058444371    11.178186266    -0.415904836     0.212835707    -0.178112688
   36    37.911523200    23.045204247    16.512256973    -0.449352286     0.175423734    -0.131563811
   37    38.417082561    25.658084132    18.448968232    -0.410095864     0.214496537    -0.189242220
   38    36.502130751    26.575290902    15.148106978    -0.426812403     0.197219640    -0.170104634
   39    38.688637452    26.270631616    14.573632969    -0.434174189     0.184750583    -0.165408572
   40    33.455047884    29.289387364    17.120597869    -0.407112990     0.223498989    -0.185222071
   41    36.954419927    22.481291928    14.561574982    -0.448431209     0.174525800    -0.135831497
   42    31.238530207    28.922879394    14.010609033    -0.417983890     0.199373498    -0.188519696
   43    34.776340934    27.507569888    16.155000044    -0.423684420     0.200110798    -0.174491205
   44    39.716736142    24.506911277    15.438338877    -0.435895965     0.185334771    -0.160142844
   45    35.056166952    30.023618726    15.614164129    -0.412594449     0.210451141    -0.188351102
   46    38.148193363    21.702122367    12.913905474    -0.446335031     0.181057451    -0.134176150
   47    37.572657393    22.271856106    20.478670203    -0.413655642     0.210392211    -0.186075597
   48    40.777572499    23.928705974    11.399772295    -0.407207105     0.228156878    -0.179239538
   49    34.017038936    25.780864581    12.489667122     0.417574822    -0.182541495     0.205693632
   50    37.171798961    29.854950917    17.610721034    -0.401973155     0.217853259    -0.202379694
   51    40.448769064    26.288563295    11.539105919    -0.418362074     0.196519281    -0.190665536
   52    40.156221634    30.050945053    12.240284547    -0.401952039     0.213105590    -0.207413996
   53    39.425448298    24.731106672    20.163297354    -0.406694406     0.224402357    -0.185049297
   54    35.584560530    22.837815960    20.474715092    -0.403561364     0.243609098    -0.166711826
   55    34.030783676    30.506125187    13.376121626    -0.403614173     0.221552693    -0.194961544
   56    37.141925209    24.498746838    20.340174339    -0.414035164     0.212143934    -0.183220724
   57    36.031591727    26.424914542    17.969942995    -0.416374130     0.207718561    -0.182990665
   58    34.904552072    20.713046357    17.760272666    -0.405070926     0.225876132    -0.186808773
   59    36.556282113    22.192076131    18.475386379    -0.411445994     0.218973654    -0.181004786
   60    39.661588033    26.871391291    19.721007628    -0.407421129     0.219163954    -0.189671254
   61    39.826465337    22.244887626    20.624417454    -0.422875303     0.205936165    -0.169607707
   62    39.658234532    27.760798087    13.058579522    -0.420442028     0.198353481    -0.184077152
   63    32.920813836    28.294429605    20.252415479    -0.399625640     0.227081558    -0.196807810
   64    34.260773320    29.616121759    11.319234319    -0.406186580     0.212169152    -0.199991782
   65    35.387719029    24.342745675    14.166186889    -0.376355717     0.267570264    -0.191735569
   66    31.786028605    27.224493126    18.759542837    -0.396221854     0.231713656    -0.198285208
   67    38.617012072    23.253397185    18.871338941    -0.413204934     0.221739112    -0.173474634
   68    31.780052878    22.783883295    15.970706874    -0.471048363     0.151129987    -0.072616571
   21     2.450366951    36.443646027    13.915487564     0.412079717    -0.204703644     0.195669938
   22     9.782672621    31.827268481    15.955414284    -0.457586056     0.168504928    -0.110549041
   23     9.666746203    39.354594193    16.820253915    -0.408508014     0.217849891    -0.188845512
   24     4.613536776    34.242307841    17.648365336    -0.417398834     0.202022207    -0.186989949
   25     5.892195586    30.486158124    10.933381407    -0.402135169     0.222995889    -0.196367359
   26     2.451421543    31.068536007    17.470526614    -0.104236759    -0.382519789     0.304652768
   27     1.116044721    33.068794484    12.758730039    -0.417025472     0.213902601    -0.174170700
   28     8.109205438    35.507608231    11.028008903    -0.423248867     0.198188965    -0.177711931
   29     8.821835260    38.160421133    15.107523729    -0.400665869     0.224683913    -0.197443665
   30     7.591801989    39.074082514    11.804569004    -0.413577561     0.217080856    -0.178408247
   31     6.104171051    40.037833206    18.818960219    -0.406985173     0.227598567    -0.180449332
   32     8.231045939    30.688820443    18.047888721    -0.405799150     0.227134515    -0.183676243
   33     1.294269271    38.063147031    15.450106106    -0.408260138     0.225051504    -0.180763604
   34    10.891573242    33.047912991    18.168338581    -0.483319503    -0.104602341     0.073895931
   35     8.263862454    37.649557257    10.344551080    -0.415912491     0.212823400    -0.178109518
   36     7.777630822    32.636317133    15.678621788    -0.449345696     0.175489709    -0.131498318
   37     8.283190183    35.249197018    17.615333047    -0.410098656     0.214484790    -0.189249485
   38     6.368238373    36.166403788    14.314471793    -0.426815317     0.197214613    -0.170103149
   39     8.554745073    35.861744502    13.739997784    -0.434177097     0.184746547    -0.165405448
   40     3.321155506    38.880500250    16.286962684    -0.407118856     0.223490072    -0.185219936
   41     6.820527549    32.072404814    13.727939797    -0.448426590     0.174579723    -0.135777440
   42     1.104637829    38.513992280    13.176973847    -0.417982245     0.199380661    -0.188515768
   43     4.642448556    37.098682774    15.321364858    -0.423687504     0.200105015    -0.174490348
   44     9.582843764    34.098024163    14.604703692    -0.435896755     0.185336223    -0.160139013
   45     4.922274574    39.614731612    14.780528943    -0.412601347     0.210437476    -0.188351259
   46     8.014300984    31.293235253    12.080270288    -0.446332319     0.181099372    -0.134128588
   47     7.438765014    31.862968992    19.645035018    -0.413660431     0.210385467    -0.186072574
   48    10.643680120    33.519818860    10.566137109    -0.407213442     0.228141495    -0.179244725
   49     3.883146558    35.371977467    11.656031937     0.417630585    -0.182765786     0.205381016
   50     7.037906582    39.446063803    16.777085848    -0.401984193     0.217825190    -0.202387981
   51    10.314876686    35.879676181    10.705470734    -0.418369044     0.196507452    -0.190662436
   52    10.022329256    39.642057939    11.406649362    -0.401963098     0.213088653    -0.207409965
   53     9.291555919    34.322219558    19.329662168    -0.406697654     0.224382611    -0.185066103
   54     5.450668151    32.428928846    19.641079907    -0.403567122     0.243605208    -0.166703571
   55     3.896891297    40.097238073    12.542486441    -0.403624297     0.221536127    -0.194959410
   56     7.008032830    34.089859724    19.506539154    -0.414039782     0.212135653    -0.183219879
   57     5.897699349    36.016027428    17.136307810    -0.416376891     0.207712547    -0.182991208
   58     4.770659694    30.304159243    16.926637481    -0.405076178     0.225885366    -0.186786217
   59     6.422389735    31.783189017    17.641751193    -0.411449419     0.218982499    -0.180986299
   60     9.527695654    36.462504177    18.887372442    -0.407423360     0.219150117    -0.189682450
   61     9.692572958    31.836000512    19.790782269    -0.422881433     0.205929416    -0.169600618
   62     9.524342154    37.351910974    12.224944336    -0.420448592     0.198342817    -0.184073650
   63     2.786921457    37.885542491    19.418780294    -0.399623457     0.227085903    -0.196807228
   64     4.126880941    39.207234645    10.485599133    -0.406195590     0.212153940    -0.199989621
   65     5.253826651    33.933858561    13.332551704    -0.376041084     0.267650082    -0.192240831
   66     1.652136227    36.815606012    17.925907652    -0.396218043     0.231722617    -0.198282351
   67     8.483119693    32.844510071    18.037703756    -0.413206184     0.221733461    -0.173478881
   68     1.646160500    32.374996181    15.137071689    -0.471067903     0.151042637    -0.072671538
   21    12.540022900    36.588306239    14.203574433     0.412083528    -0.204688414     0.195677846
   22    19.872328571    31.971928693    16.243501154    -0.457577007     0.168541537    -0.110530688
   23    19.756402152    39.499254405    17.108340785    -0.408499359     0.217858195    -0.188854656
   24    14.703192726    34.386968053    17.936452205    -0.417398805     0.202015792    -0.186996944
   25    15.981851536    30.630818335    11.221468276    -0.402135190     0.222990671    -0.196373242
   26    12.541077493    31.213196218    17.758613484    -0.103973560    -0.382598634     0.304643700
   27    11.205700670    33.213454696    13.046816909    -0.417035167     0.213882501    -0.174172171
   28    18.198861388    35.652268442    11.316095773    -0.423244938     0.198190999    -0.177719021
   29    18.911491209    38.305081345    15.395610599    -0.400657070     0.224690041    -0.197454546
   30    17.681457939    39.218742725    12.092655873    -0.413572963     0.217083849    -0.178415265
   31    16.193827001    40.182493418    19.107047089    -0.406980126     0.227600584    -0.180458171
   32    18.320701889    30.833480655    18.335975591    -0.405800618     0.227127276    -0.183681949
   33    11.383925221    38.207807242    15.738192976    -0.408263490     0.225042512    -0.180767228
   34    20.981229192    33.192573203    18.456425451    -0.483329357    -0.104490039     0.073990301
   35    18.353518403    37.794217469    10.632637950    -0.415909257     0.212825326    -0.178114769
   36    17.867286772    32.780977345    15.966708657    -0.449340897     0.175509555    -0.131488228
   37    18.372846133    35.393857229    17.903419916    -0.410097080     0.214482112    -0.189255934
   38    16.457894323    36.311064000    14.602558662    -0.426814813     0.197211374    -0.170108168
   39    18.644401023    36.006404714    14.028084653    -0.434176205     0.184746022    -0.165408375
   40    13.410811455    39.025160461    16.575049554    -0.407118502     0.223486168    -0.185225425
   41    16.910183499    32.217065025    14.016026667    -0.448422336     0.174597254    -0.135768948
   42    11.194293778    38.658652492    13.465060717    -0.417987654     0.199368291    -0.188516859
   43    14.732104506    37.243342985    15.609451728    -0.423687568     0.200100241    -0.174495668
   44    19.672499714    34.242684374    14.892790561    -0.435896281     0.185335091    -0.160141613
   45    15.011930524    39.759391824    15.068615813    -0.412599565     0.210433933    -0.188359122
   46    18.103956934    31.437895465    12.368357158    -0.446327640     0.181115070    -0.134122961
   47    17.528420964    32.007629204    19.933121887    -0.413662818     0.210373259    -0.186081071
   48    20.733336070    33.664479071    10.854223979    -0.407210342     0.228141113    -0.179252252
   49    13.972802508    35.516637679    11.944118807     0.417638434    -0.182678155     0.205443009
   50    17.127562532    39.590724014    17.065172718    -0.401977787     0.217829462    -0.202396107
   51    20.404532636    36.024336393    10.993557603    -0.418365517     0.196511113    -0.190666401
   52    20.111985206    39.786718150    11.694736231    -0.401958491     0.213091355    -0.207416117
   53    19.381211869    34.466879770    19.617749038    -0.406696661     0.224375029    -0.185077478
   54    15.540324101    32.573589058    19.929166776    -0.403570401     0.243589346    -0.166718811
   55    13.986547247    40.241898285    12.830573311    -0.403621659     0.221533205    -0.194968191
   56    17.097688780    34.234519936    19.794626023    -0.414040535     0.212125374    -0.183230077
   57    15.987355299    36.160687640    17.424394680    -0.416376441     0.207707925    -0.182997479
   58    14.860315644    30.448819455    17.214724351    -0.405080904     0.225874475    -0.186789139
   59    16.512045685    31.927849229    17.929838063    -0.411451620     0.218973994    -0.180991586
   60    19.617351604    36.607164389    19.175459312    -0.407422486     0.219148511    -0.189686183
   61    19.782228908    31.980660723    20.078869138    -0.422883923     0.205918975    -0.169607085
   62    19.613998104    37.496571185    12.513031206    -0.420445401     0.198345742    -0.184077787
   63    12.876577407    38.030202703    19.706867164    -0.399625113     0.227076399    -0.196814832
   64    14.216536891    39.351894857    10.773686003    -0.406193408     0.212150275    -0.199997941
   65    15.343482601    34.078518773    13.620638574    -0.376329012     0.267409772    -0.192011690
   66    11.741792177    36.960266223    18.213994521    -0.396221193     0.231710851    -0.198289807
   67    18.572775643    32.989170282    18.325790626    -0.413206719     0.221725694    -0.173487533
   68    11.735816449    32.519656392    15.425158558    -0.471067020     0.151044862    -0.072672636
   21    22.629678850    36.732966450    14.491661303     0.412084035    -0.204695341     0.195669531
   22    29.961984520    32.116588905    16.531588023    -0.457586839     0.168455002    -0.110621866
   23    29.846058102    39.643914616    17.396427654    -0.408505408     0.217859657    -0.188839883
   24    24.792848676    34.531628264    18.224539075    -0.417406350     0.202018662    -0.186977001
   25    26.071507486    30.775478547    11.509555146    -0.402129637     0.222989934    -0.196385448
   26    22.630733443    31.357856430    18.046700353    -0.104370032    -0.382286808     0.304899480
   27    21.295356620    33.358114907    13.334903778    -0.417041701     0.213860229    -0.174183875
   28    28.288517338    35.796928654    11.604182643    -0.423246100     0.198201170    -0.177704911
   29    29.001147159    38.449741557    15.683697469    -0.400662548     0.224692680    -0.197440427
   30    27.771113889    39.363402937    12.380742743    -0.413574011     0.217088818    -0.178406789
   31    26.283482950    40.327153629    19.395133958    -0.406985124     0.227610090    -0.180434907
   32    28.410357839    30.978140866    18.624062460    -0.405802321     0.227125777    -0.183680042
   33    21.473581170    38.352467454    16.026279845    -0.408261310     0.225050437    -0.180762285
   34    31.070885142    33.337233415    18.744512320    -0.483339610    -0.104710802     0.073610253
   35    28.443174353    37.938877680    10.920724820    -0.415910258     0.212833238    -0.178102977
   36    27.956942722    32.925637556    16.254795527    -0.449346103     0.175459421    -0.131537337
   37    28.462502083    35.538517441    18.191506786    -0.410106363     0.214487687    -0.189229499
   38    26.547550273    36.455724212    14.890645532    -0.426820302     0.197214531    -0.170090735
   39    28.734056973    36.151064925    14.316171523    -0.434181135     0.184748339    -0.165392846
   40    23.500467405    39.169820673    16.863136423    -0.407119448     0.223493973    -0.185213928
   41    26.999839449    32.361725237    14.304113536    -0.448426430     0.174555041    -0.135809699
   42    21.283949728    38.803312703    13.753147587    -0.417984627     0.199373697    -0.188517852
   43    24.821760455    37.388003197    15.897538598    -0.423692806     0.200104408    -0.174478170
   44    29.762155664    34.387344586    15.180877431    -0.435902701     0.185333839    -0.160125585
   45    25.101586473    39.904052036    15.356702683    -0.412602098     0.210442923    -0.188343529
   46    28.193612884    31.582555677    12.656444028    -0.446331142     0.181080403    -0.134158112
   47    27.618076914    32.152289416    20.221208757    -0.413663713     0.210378700    -0.186072930
   48    30.822992020    33.809139283    11.142310849    -0.407211554     0.228162117    -0.179222763
   49    24.062458458    35.661297890    12.232205676     0.417609418    -0.182755977     0.205432778
   50    27.217218482    39.735384226    17.353259587    -0.401983564     0.217838991    -0.202374376
   51    30.494188585    36.168996604    11.281644473    -0.418367591     0.196518216    -0.190654530
   52    30.201641155    39.931378362    11.982823101    -0.401961789     0.213095604    -0.207405362
   53    29.470867819    34.611539981    19.905835907    -0.406705629     0.224388283    -0.185041698
   54    25.629980051    32.718249269    20.217253646    -0.403572088     0.243596684    -0.166704006
   55    24.076203197    40.386558497    13.118660180    -0.403622214     0.221541748    -0.194957333
   56    27.187344730    34.379180147    20.082712893    -0.414044757     0.212132100    -0.183212748
   57    26.077011248    36.305347851    17.712481549    -0.416384139     0.207711299    -0.182976133
   58    24.949971594    30.593479667    17.502811220    -0.405078445     0.225871116    -0.186798534
   59    26.601701635    32.072509441    18.217924933    -0.411452754     0.218969790    -0.180994095
   60    29.707007554    36.751824601    19.463546182    -0.407432117     0.219154608    -0.189658450
   61    29.871884858    32.125320935    20.366956008    -0.422883001     0.205923418    -0.169603989
   62    29.703654053    37.641231397    12.801118076    -0.420448014     0.198350176    -0.184067041
   63    22.966233357    38.174862914    19.994954033    -0.399626865     0.227079161    -0.196808087
   64    24.306192841    39.496555068    11.061772872    -0.406194112     0.212157874    -0.199988449
   65    25.433138551    34.223178984    13.908725443    -0.376237932     0.267603918    -0.191919675
   66    21.831448126    37.104926435    18.502081391    -0.396220927     0.231713189    -0.198287607
   67    28.662431593    33.133830494    18.613877495    -0.413212204     0.221730719    -0.173468046
   68    21.825472399    32.664316604    15.713245428    -0.471054418     0.151099894    -0.072639915
   21    32.719334800    36.877626662    14.779748173     0.412088185    -0.204698814     0.195657158
   22    40.051640470    32.261249116    16.819674893    -0.457584748     0.168509956    -0.110546793
   23    39.935714052    39.788574828    17.684514524    -0.408500068     0.217862316    -0.188848367
   24    34.882504626    34.676288476    18.512625944    -0.417393120     0.202039837    -0.186983657
   25    36.161163436    30.920138759    11.797642015    -0.402122763     0.223013701    -0.196372534
   26    32.720389393    31.502516641    18.334787223    -0.104272566    -0.382796834     0.304292320
   27    31.385012570    33.502775119    13.622990648    -0.417049337     0.213901447    -0.174114967
   28    38.378173288    35.941588866    11.892269512    -0.423239040     0.198206984    -0.177715240
   29    39.090803109    38.594401768    15.971784338    -0.400658064     0.224694028    -0.197447991
   30    37.860769839    39.508063149    12.668829613    -0.413567477     0.217096596    -0.178412472
   31    36.373138900    40.471813841    19.683220828    -0.406979731     0.227611795    -0.180444919
   32    38.500013789    31.122801078    18.912149330    -0.405791263     0.227152380    -0.183671574
   33    31.563237120    38.497127665    16.314366715    -0.408264226     0.225052416    -0.180753235
   34    41.160541091    33.481893626    19.032599190    -0.483315073    -0.104632336     0.073882435
   35    38.532830303    38.083537892    11.208811689    -0.415903099     0.212838828    -0.178113014
   36    38.046598671    33.070297768    16.542882397    -0.449343101     0.175499886    -0.131493604
   37    38.552158033    35.683177653    18.479593655    -0.410092824     0.214502768    -0.189241745
   38    36.637206222    36.600384423    15.178732402    -0.426810801     0.197228726    -0.170098118
   39    38.823712923    36.295725137    14.604258392    -0.434171477     0.184761656    -0.165403322
   40    33.590123355    39.314480885    17.151223293    -0.407118081     0.223497794    -0.185212321
   41    37.089495398    32.506385449    14.592200406    -0.448422362     0.174594179    -0.135772818
   42    31.373605678    38.947972915    14.041234456    -0.417988488     0.199377005    -0.188505792
   43    34.911416405    37.532663409    16.185625467    -0.423684409     0.200117145    -0.174483954
   44    39.851811613    34.532004798    15.468964301    -0.435891546     0.185351041    -0.160136041
   45    35.191242423    40.048712247    15.644789552    -0.412598222     0.210447944    -0.188346409
   46    38.283268834    31.727215888    12.944530897    -0.446326064     0.181115643    -0.134127433
   47    37.707732864    32.296949627    20.509295627    -0.413653451     0.210403063    -0.186068195
   48    40.912647970    33.953799495    11.430397718    -0.407201997     0.228162754    -0.179243665
   49    34.152114407    35.805958102    12.520292546     0.417708786    -0.182639463     0.205334353
   50    37.306874432    39.880044438    17.641346457    -0.401977842     0.217840082    -0.202384568
   51    40.583844535    36.313656816    11.569731342    -0.418361149     0.196523208    -0.190663519
   52    40.291297105    40.076038574    12.270909971    -0.401953078     0.213104081    -0.207413532
   53    39.560523769    34.756200193    20.193922777    -0.406690972     0.224400683    -0.185058872
   54    35.719636001    32.862909481    20.505340516    -0.403560267     0.243618726    -0.166700412
   55    34.165859147    40.531218708    13.406747050    -0.403617684     0.221549004    -0.194958468
   56    37.277000680    34.523840359    20.370799763    -0.414032954     0.212153232    -0.183214952
   57    36.166667198    36.450008063    18.000568419    -0.416371268     0.207729690    -0.182984542
   58    35.039627543    30.738139878    17.790898090    -0.405068612     0.225907342    -0.186776049
   59    36.691357584    32.217169652    18.506011802    -0.411442614     0.219001169    -0.180979178
   60    39.796663504    36.896484812    19.751633051    -0.407418616     0.219165075    -0.189675358
   61    39.961540808    32.269981147    20.655042877    -0.422874817     0.205946814    -0.169595987
   62    39.793310003    37.785891608    13.089204945    -0.420441767     0.198357075    -0.184073875
   63    33.055889307    38.319523126    20.283040903    -0.399633113     0.227080868    -0.196793431
   64    34.395848791    39.641215280    11.349859742    -0.406189286     0.212166621    -0.199988971
   65    35.522794500    34.367839196    14.196812313    -0.376411168     0.267548332    -0.191657305
   66    31.921104076    37.249586647    18.790168261    -0.396228513     0.231716493    -0.198268586
   67    38.752087543    33.278490706    18.901964365    -0.413198956     0.221751611    -0.173472895
   68    31.915128349    32.808976816    16.001332297    -0.471070349     0.150976311    -0.072793408
   21     2.332011708     6.400501200    23.835596655     0.412078832    -0.204700271     0.195675330
   22     9.664317379     1.784123655    25.875523375    -0.457599317     0.168449969    -0.110577907
   23     9.548390960     9.311449367    26.740363006    -0.408503544     0.217858581    -0.188845157
   24     4.495181534     4.199163015    27.568474427    -0.417399041     0.202024306    -0.186987219
   25     5.773840344     0.443013297    20.853490498    -0.402129572     0.222997648    -0.196376822
   26     2.333066301     1.025391180    27.390635705    -0.104153339    -0.382745146     0.304398152
   27     0.997689478     3.025649657    22.678839130    -0.417029707     0.213909414    -0.174152191
   28     7.990850196     5.464463404    20.948117995    -0.423246568     0.198184122    -0.177722807
   29     8.703480017     8.117276307    25.027632821    -0.400659765     0.224691473    -0.197447449
   30     7.473446747     9.030937687    21.724678095    -0.413575212     0.217076541    -0.178418943
   31     5.985815809     9.994688379    28.739069310    -0.406985691     0.227599599    -0.180446861
   32     8.112690697     0.645675616    27.967997812    -0.405799349     0.227135327    -0.183674799
   33     1.175914029     8.020002204    25.370215197    -0.408260856     0.225047647    -0.180766784
   34    10.773218000     3.004768165    28.088447672    -0.483306997    -0.104733109     0.073792426
   35     8.145507211     7.606412431    20.264660171    -0.415911135     0.212818866    -0.178118102
   36     7.659275580     2.593172306    25.598730879    -0.449353315     0.175454192    -0.131519674
   37     8.164834941     5.206052191    27.535442138    -0.410099529     0.214489493    -0.189242263
   38     6.249883131     6.123258962    24.234580884    -0.426816912     0.197207552    -0.170107334
   39     8.436389831     5.818599676    23.660106875    -0.434178366     0.184737525    -0.165412191
   40     3.202800263     8.837355423    26.207071775    -0.407119735     0.223485997    -0.185222921
   41     6.702172307     2.029259987    23.648048888    -0.448431651     0.174550886    -0.135797801
   42     0.986282586     8.470847453    23.097082939    -0.417981674     0.199377885    -0.188519970
   43     4.524093314     7.055537947    25.241473950    -0.423689461     0.200097839    -0.174493827
   44     9.464488522     4.054879336    24.524812783    -0.435899038     0.185323755    -0.160147228
   45     4.803919332     9.571586786    24.700638035    -0.412601382     0.210432430    -0.188356822
   46     7.895945742     1.250090427    22.000379380    -0.446335629     0.181076306    -0.134148715
   47     7.320409772     1.819824166    29.565144109    -0.413661033     0.210385741    -0.186070927
   48    10.525324878     3.476674033    20.486246201    -0.407210430     0.228140837    -0.179252405
   49     3.764791316     5.328832640    21.576141028     0.417648480    -0.182677733     0.205422961
   50     6.919551340     9.402918976    26.697194939    -0.401983687     0.217828796    -0.202385107
   51    10.196521444     5.836531355    20.625579825    -0.418367227     0.196503383    -0.190670616
   52     9.903974014     9.598913112    21.326758453    -0.401961642     0.213079683    -0.207422002
   53     9.173200677     4.279074732    29.249771259    -0.406698301     0.224389700    -0.185056085
   54     5.332312909     2.385784020    29.561188998    -0.403569753     0.243601417    -0.166702743
   55     3.778536055    10.054093247    22.462595532    -0.403621365     0.221530200    -0.194972214
   56     6.889677588     4.046714898    29.426648245    -0.414040206     0.212138690    -0.183215403
   57     5.779344107     5.972882602    27.056416901    -0.416377398     0.207713805    -0.182988626
   58     4.652304452     0.261014417    26.846746572    -0.405074472     0.225893378    -0.186780229
   59     6.304034493     1.740044191    27.561860285    -0.411448782     0.218985726    -0.180983842
   60     9.409340412     6.419359351    28.807481534    -0.407425721     0.219152773    -0.189674311
   61     9.574217716     1.792855685    29.710891360    -0.422881986     0.205928136    -0.169600794
   62     9.405986912     7.308766147    22.145053428    -0.420446572     0.198338526    -0.184082886
   63     2.668566215     7.842397665    29.338889385    -0.399629007     0.227074439    -0.196809186
   64     4.008525699     9.164089819    20.405708224    -0.406192414     0.212147245    -0.200003173
   65     5.135471409     3.890713734    23.252660795    -0.375986270     0.267894604    -0.192007306
   66     1.533780985     6.772461185    27.846016743    -0.396223576     0.231711103    -0.198284752
   67     8.364764451     2.801365244    27.957812847    -0.413208472     0.221733748    -0.173473064
   68     1.527805257     2.331851354    25.057180780    -0.471071797     0.150991650    -0.072752208
   21    12.421667658     6.545161412    24.123683524     0.412078196    -0.204695025     0.195682159
   22    19.753973328     1.928783866    26.163610245    -0.457578940     0.168510339    -0.110570246
   23    19.638046910     9.456109578    27.028449876    -0.408503236     0.217859513    -0.188844749
   24    14.584837484     4.343823226    27.856561296    -0.417394270     0.202025822    -0.186996230
   25    15.863496294     0.587673509    21.141577367    -0.402124454     0.223000259    -0.196384337
   26    12.422722251     1.170051392    27.678722575    -0.104146631    -0.382638361     0.304534668
   27    11.087345428     3.170309869    22.966926000    -0.417031560     0.213889701    -0.174171966
   28    18.080506146     5.609123616    21.236204864    -0.423241190     0.198201361    -0.177716391
   29    18.793135967     8.261936519    25.315719690    -0.400660768     0.224692809    -0.197443892
   30    17.563102697     9.175597899    22.012764964    -0.413570688     0.217089146    -0.178414093
   31    16.075471758    10.139348591    29.027156180    -0.406985785     0.227600433    -0.180445597
   32    18.202346647     0.790335828    28.256084682    -0.405793520     0.227137008    -0.183685599
   33    11.265569978     8.164662416    25.658302067    -0.408262717     0.225044690    -0.180766263
   34    20.862873950     3.149428376    28.376534542    -0.483332546    -0.104571615     0.073854097
   35    18.235163161     7.751072642    20.552747041    -0.415905764     0.212834261    -0.178112248
   36    17.748931530     2.737832518    25.886817749    -0.449339519     0.175494553    -0.131512961
   37    18.254490891     5.350712403    27.823529007    -0.410096461     0.214486640    -0.189252144
   38    16.339539081     6.267919174    24.522667754    -0.426812393     0.197217658    -0.170106956
   39    18.526045781     5.963259887    23.948193744    -0.434173748     0.184752530    -0.165407554
   40    13.292456213     8.982015635    26.495158645    -0.407119303     0.223488084    -0.185221352
   41    16.791828257     2.173920199    23.936135758    -0.448420391     0.174585025    -0.135791096
   42    11.075938536     8.615507665    23.385169808    -0.417985583     0.199368513    -0.188521216
   43    14.613749263     7.200198159    25.529560819    -0.423685429     0.200106251    -0.174493969
   44    19.554144472     4.199539548    24.812899653    -0.435894181     0.185340340    -0.160141253
   45    14.893575281     9.716246998    24.988724904    -0.412600311     0.210436716    -0.188354377
   46    17.985601692     1.394750638    22.288466249    -0.446325623     0.181105102    -0.134143132
   47    17.410065722     1.964484377    29.853230979    -0.413657298     0.210383191    -0.186082112
   48    20.614980828     3.621334245    20.774333070    -0.407205526     0.228157235    -0.179242673
   49    13.854447266     5.473492852    21.864227898     0.417594579    -0.182708578     0.205505091
   50    17.009207290     9.547579188    26.985281809    -0.401983752     0.217829420    -0.202384304
   51    20.286177393     5.981191566    20.913666694    -0.418362694     0.196518803    -0.190664669
   52    19.993629963     9.743573324    21.614845323    -0.401956692     0.213096173    -0.207414654
   53    19.262856627     4.423734943    29.537858129    -0.406696035     0.224382213    -0.185070143
   54    15.421968859     2.530444231    29.849275868    -0.403562444     0.243603936    -0.166716755
   55    13.868192005    10.198753458    22.750682402    -0.403620198     0.221535427    -0.194968692
   56    16.979333538     4.191375109    29.714735115    -0.414035658     0.212135904    -0.183228906
   57    15.869000056     6.117542813    27.344503771    -0.416372691     0.207716486    -0.182996293
   58    14.741960402     0.405674629    27.134833442    -0.405070940     0.225888316    -0.186794011
   59    16.393690443     1.884704402    27.849947154    -0.411443609     0.218985524    -0.180995848
   60    19.498996362     6.564019562    29.095568403    -0.407423954     0.219149417    -0.189681982
   61    19.663873666     1.937515897    29.998978229    -0.422879351     0.205926433    -0.169609429
   62    19.495642861     7.453426359    22.433140297    -0.420442501     0.198352086    -0.184077574
   63    12.758222165     7.987057876    29.626976255    -0.399630426     0.227074612    -0.196806106
   64    14.098181649     9.308750030    20.693795094    -0.406191480     0.212152145    -0.199999873
   65    15.225127359     4.035373946    23.540747665    -0.376199093     0.267654003    -0.191925967
   66    11.623436934     6.917121397    28.134103612    -0.396224138     0.231712038    -0.198282535
   67    18.454420401     2.946025456    28.245899717    -0.413203167     0.221733088    -0.173486544
   68    11.617461207     2.476511566    25.345267649    -0.471085257     0.150967247    -0.072715687
   21    22.511323608     6.689821624    24.411770394     0.412066297    -0.204706208     0.195695516
   22    29.843629278     2.073444078    26.451697114    -0.457583693     0.168512705    -0.110546966
   23    29.727702860     9.600769790    27.316536745    -0.408500231     0.217866221    -0.188843509
   24    24.674493434     4.488483438    28.144648166    -0.417398638     0.202031040    -0.186980843
   25    25.953152244     0.732333720    21.429664237    -0.402131406     0.223007136    -0.196362291
   26    22.512378201     1.314711603    27.966809444    -0.104204965    -0.382493159     0.304697077
   27    21.177001378     3.314970081    23.255012870    -0.417038345     0.213883564    -0.174163257
   28    28.170162096     5.753783827    21.524291734    -0.423238963     0.198214608    -0.177706921
   29    28.882791917     8.406596730    25.603806560    -0.400657094     0.224700033    -0.197443128
   30    27.652758647     9.320258110    22.300851834    -0.413565932     0.217105876    -0.178404759
   31    26.165127708    10.284008803    29.315243049    -0.406981814     0.227605358    -0.180448342
   32    28.292002597     0.934996040    28.544171552    -0.405802121     0.227134706    -0.183669441
   33    21.355225928     8.309322627    25.946388936    -0.408256794     0.225055873    -0.180765716
   34    30.952529899     3.294088588    28.664621411    -0.483323686    -0.104601017     0.073870437
   35    28.324819111     7.895732854    20.840833911    -0.415903004     0.212847180    -0.178103255
   36    27.838587479     2.882492730    26.174904618    -0.449342235     0.175502936    -0.131492491
   37    28.344146841     5.495372614    28.111615877    -0.410100973     0.214490080    -0.189238467
   38    26.429195030     6.412579385    24.810754623    -0.426809713     0.197230698    -0.170098562
   39    28.615701731     6.107920099    24.236280614    -0.434169415     0.184770483    -0.165398875
   40    23.382112163     9.126675846    26.783245515    -0.407114148     0.223499831    -0.185218511
   41    26.881484206     2.318580410    24.224222628    -0.448422287     0.174596971    -0.135769476
   42    21.165594486     8.760167877    23.673256678    -0.417980741     0.199380517    -0.188519256
   43    24.703405213     7.344858371    25.817647689    -0.423682572     0.200118549    -0.174486804
   44    29.643800421     4.344199759    25.100986522    -0.435888068     0.185363271    -0.160131352
   45    24.983231231     9.860907209    25.276811774    -0.412595807     0.210448185    -0.188351431
   46    28.075257642     1.539410850    22.576553119    -0.446326937     0.181117773    -0.134121654
   47    27.499721672     2.109144589    30.141317848    -0.413663382     0.210385513    -0.186065962
   48    30.704636778     3.765994456    21.062419940    -0.407203543     0.228172814    -0.179227346
   49    23.944103215     5.618153064    22.152314767     0.417219916    -0.182829273     0.206157703
   50    27.098863240     9.692239399    27.273368679    -0.401978368     0.217836444    -0.202387438
   51    30.375833343     6.125851778    21.201753564    -0.418360903     0.196530472    -0.190656572
   52    30.083285913     9.888233536    21.902932192    -0.401951080     0.213112051    -0.207409216
   53    29.352512577     4.568395155    29.825944999    -0.406701618     0.224384843    -0.185054684
   54    25.511624809     2.675104443    30.137362737    -0.403568263     0.243605313    -0.166700656
   55    23.957847955    10.343413670    23.038769271    -0.403614631     0.221551936    -0.194961456
   56    27.068989488     4.336035321    30.002821984    -0.414042242     0.212137493    -0.183212188
   57    25.958656006     6.262203025    27.632590640    -0.416375842     0.207722866    -0.182981880
   58    24.831616351     0.550334840    27.422920312    -0.405077748     0.225884161    -0.186784272
   59    26.483346392     2.029364614    28.138034024    -0.411451101     0.218982579    -0.180982380
   60    29.588652312     6.708679774    29.383655273    -0.407427852     0.219152867    -0.189669625
   61    29.753529616     2.082176108    30.287065099    -0.422884383     0.205930092    -0.169592442
   62    29.585298811     7.598086570    22.721227167    -0.420439431     0.198364768    -0.184070921
   63    22.847878115     8.131718088    29.915063125    -0.399626424     0.227078138    -0.196810163
   64    24.187837599     9.453410242    20.981881964    -0.406186321     0.212169207    -0.199992251
   65    25.314783308     4.180034158    23.828834535    -0.376105170     0.267898758    -0.191768499
   66    21.713092884     7.061781608    28.422190482    -0.396221084     0.231713297    -0.198287166
   67    28.544076351     3.090685667    28.533986586    -0.413209071     0.221735503    -0.173469393
   68    21.707117157     2.621171777    25.633354519    -0.471060211     0.151052667    -0.072700545
   21    32.600979558     6.834481835    24.699857264     0.412077579    -0.204710147     0.195667639
   22    39.933285228     2.218104290    26.739783984    -0.457586930     0.168469959    -0.110598707
   23    39.817358810     9.745430001    27.604623615    -0.408498012     0.217859847    -0.188855661
   24    34.764149383     4.633143649    28.432735035    -0.417400584     0.202024902    -0.186983130
   25    36.042808193     0.876993932    21.717751106    -0.402126116     0.223009443    -0.196370505
   26    32.602034150     1.459371815    28.254896314    -0.104186537    -0.382611959     0.304554189
   27    31.266657328     3.459630292    23.543099739    -0.417019454     0.213926886    -0.174155282
   28    38.259818045     5.898444039    21.812378603    -0.423239355     0.198205286    -0.177716384
   29    38.972447867     8.551256942    25.891893429    -0.400652564     0.224697355    -0.197455367
   30    37.742414596     9.464918322    22.588938704    -0.413566766     0.217095022    -0.178416034
   31    36.254783658    10.428669014    29.603329919    -0.406980231     0.227603714    -0.180453985
   32    38.381658547     1.079656251    28.832258421    -0.405800361     0.227134529    -0.183673550
   33    31.444881878     8.453982839    26.234475806    -0.408258302     0.225056565    -0.180761448
   34    41.042185849     3.438748800    28.952708281    -0.483327698    -0.104697791     0.073706915
   35    38.414475061     8.040393065    21.128920780    -0.415903063     0.212836877    -0.178115430
   36    37.928243429     3.027152941    26.462991488    -0.449343391     0.175473600    -0.131527689
   37    38.433802790     5.640032826    28.399702747    -0.410100425     0.214487896    -0.189242132
   38    36.518850980     6.557239597    25.098841493    -0.426813443     0.197220226    -0.170101344
   39    38.705357681     6.252580310    24.524367483    -0.434172748     0.184754764    -0.165407685
   40    33.471768113     9.271336058    27.071332384    -0.407114889     0.223497631    -0.185219534
   41    36.971140156     2.463240622    24.512309497    -0.448421437     0.174573608    -0.135802320
   42    31.255250436     8.904828088    23.961343547    -0.417980236     0.199387910    -0.188512556
   43    34.793061163     7.489518582    26.105734558    -0.423686288     0.200109780    -0.174487837
   44    39.733456371     4.488859971    25.389073392    -0.435893036     0.185342577    -0.160141781
   45    35.072887181    10.005567421    25.564898643    -0.412596908     0.210444687    -0.188352927
   46    38.164913591     1.684071062    22.864639988    -0.446325328     0.181100779    -0.134149950
   47    37.589377621     2.253804801    30.429404718    -0.413660232     0.210387016    -0.186071266
   48    40.794292728     3.910654668    21.350506809    -0.407202589     0.228165333    -0.179239036
   49    34.033759165     5.762813275    22.440401637     0.417620368    -0.182850989     0.205325946
   50    37.188519189     9.836899611    27.561455548    -0.401977370     0.217834046    -0.202392001
   51    40.465489293     6.270511990    21.489840433    -0.418360769     0.196520611    -0.190667030
   52    40.172941863    10.032893747    22.191019062    -0.401953389     0.213099732    -0.207417399
   53    39.442168527     4.713055366    30.114031868    -0.406699872     0.224387474    -0.185055331
   54    35.601280758     2.819764655    30.425449607    -0.403567260     0.243605330    -0.166703060
   55    34.047503904    10.488073882    23.326856141    -0.403616183     0.221547365    -0.194963437
   56    37.158645437     4.480695532    30.290908854    -0.414040618     0.212138151    -0.183215096
   57    36.048311956     6.406863237    27.920677510    -0.416378160     0.207715880    -0.182984537
   58    34.921272301     0.694995052    27.711007181    -0.405078238     0.225887784    -0.186778826
   59    36.573002342     2.174024826    28.426120893    -0.411451051     0.218982473    -0.180982622
   60    39.678308261     6.853339986    29.671742142    -0.407426302     0.219150763    -0.189675385
   61    39.843185566     2.226836320    30.575151969    -0.422879892     0.205930075    -0.169603660
   62    39.674954761     7.742746782    23.009314036    -0.420441352     0.198353250    -0.184078945
   63    32.937534065     8.276378300    30.203149994    -0.399628749     0.227078076    -0.196805513
   64    34.277493549     9.598070453    21.269968833    -0.406187758     0.212165578    -0.199993182
   65    35.404439258     4.324694369    24.116921404    -0.376016118     0.267538241    -0.192445236
   66    31.802748834     7.206441820    28.710277352    -0.396223458     0.231715140    -0.198280269
   67    38.633732300     3.235345879    28.822073456    -0.413208052     0.221735355    -0.173472008
   68    31.796773107     2.765831989    25.921441389    -0.471065389     0.151048794    -0.072675040
   21     2.467087179    16.425594721    23.866222078     0.412083313    -0.204695430     0.195670959
   22     9.799392850    11.809217176    25.906148799    -0.457589280     0.168520112    -0.110512546
   23     9.683466431    19.336542888    26.770988430    -0.408512752     0.217824965    -0.188864014
   24     4.630257005    14.224256536    27.599099850    -0.417403454     0.202008874    -0.186994042
   25     5.908915815    10.468106818    20.884115921    -0.402134706     0.222983305    -0.196382596
   26     2.468141772    11.050484701    27.421261129    -0.104007546    -0.382581801     0.304653239
   27     1.132764949    13.050743178    22.709464554    -0.417030724     0.213905479    -0.174154589
   28     8.125925667    15.489556925    20.978743418    -0.423253561     0.198171061    -0.177720719
   29     8.838555488    18.142369828    25.058258244    -0.400672289     0.224654047    -0.197464619
   30     7.608522218    19.056031208    21.755303518    -0.413581762     0.217064935    -0.178417881
   31     6.120891280    20.019781900    28.769694734    -0.406986562     0.227583072    -0.180465740
   32     8.247766168    10.670769137    27.998623236    -0.405801160     0.227130146    -0.183677206
   33     1.310989500    18.045095725    25.400840621    -0.408261813     0.225048410    -0.180763672
   34    10.908293471    13.029861686    28.119073096    -0.483312212    -0.104561064     0.074001954
   35     8.280582682    17.631505952    20.295285595    -0.415918796     0.212804971    -0.178116814
   36     7.794351051    12.618265827    25.629356302    -0.449348862     0.175494682    -0.131480862
   37     8.299910412    15.231145712    27.566067561    -0.410102751     0.214473872    -0.189252984
   38     6.384958602    16.148352483    24.265206308    -0.426818841     0.197200175    -0.170111046
   39     8.571465302    15.843693197    23.690732298    -0.434180536     0.184731221    -0.165413536
   40     3.337875734    18.862448944    26.237697199    -0.407121121     0.223483129    -0.185223334
   41     6.837247778    12.054353508    23.678674312    -0.448428136     0.174584105    -0.135766702
   42     1.121358057    18.495940974    23.127708362    -0.417981928     0.199382140    -0.188514907
   43     4.659168785    17.080631468    25.272099373    -0.423690998     0.200091424    -0.174497451
   44     9.599563993    14.079972857    24.555438207    -0.435899099     0.185322651    -0.160148340
   45     4.938994803    19.596680307    24.731263458    -0.412602621     0.210427688    -0.188359406
   46     8.031021213    11.275183948    22.031004803    -0.446332535     0.181101360    -0.134125185
   47     7.455485243    11.844917687    29.595769533    -0.413664719     0.210376634    -0.186073028
   48    10.660400349    13.501767554    20.516871624    -0.407213807     0.228133475    -0.179254101
   49     3.899866787    15.353926161    21.606766452     0.417642989    -0.182681382     0.205430880
   50     7.054626811    19.428012497    26.727820363    -0.401983237     0.217813137    -0.202402851
   51    10.331596915    15.861624876    20.656205248    -0.418374740     0.196488449    -0.190669521
   52    10.039049485    19.624006633    21.357383877    -0.401965711     0.213073986    -0.207419970
   53     9.308276148    14.304168253    29.280396683    -0.406701481     0.224370593    -0.185072264
   54     5.467388380    12.410877541    29.591814422    -0.403573036     0.243590894    -0.166710171
   55     3.913611526    20.079186768    22.493220956    -0.403623960     0.221530526    -0.194966471
   56     7.024753059    14.071808419    29.457273669    -0.414043961     0.212124802    -0.183222998
   57     5.914419578    15.997976123    27.087042325    -0.416380908     0.207700209    -0.182996073
   58     4.787379923    10.286107938    26.877371996    -0.405079421     0.225878332    -0.186787692
   59     6.439109964    11.765137712    27.592485708    -0.411452465     0.218975635    -0.180987681
   60     9.544415883    16.444452872    28.838106957    -0.407428565     0.219137614    -0.189685716
   61     9.709293187    11.817949206    29.741516783    -0.422886023     0.205921540    -0.169598735
   62     9.541062383    17.333859668    22.175678851    -0.420453587     0.198323412    -0.184083147
   63     2.803641686    17.867491186    29.369514809    -0.399629312     0.227072049    -0.196811324
   64     4.143601170    19.189183340    20.436333648    -0.406194786     0.212149130    -0.199996357
   65     5.270546880    13.915807255    23.283286219    -0.376210539     0.267680200    -0.191866987
   66     1.668856456    16.797554706    27.876642166    -0.396223937     0.231710188    -0.198285098
   67     8.499839922    12.826458765    27.988438271    -0.413209950     0.221724498    -0.173481367
   68     1.662880728    12.356944875    25.087806203    -0.471063456     0.151038157    -0.072709663
   21    12.556743129    16.570254933    24.154308948     0.412095884    -0.204670505     0.195670556
   22    19.889048799    11.953877388    26.194235668    -0.457581508     0.168528684    -0.110531651
   23    19.773122381    19.481203099    27.059075299    -0.408515219     0.217842866    -0.188838030
   24    14.719912955    14.368916747    27.887186720    -0.417407319     0.202009589    -0.186984640
   25    15.998571765    10.612767030    21.172202791    -0.402131049     0.222992989    -0.196379090
   26    12.557797722    11.195144913    27.709347998    -0.104128790    -0.382531686     0.304674752
   27    11.222420899    13.195403390    22.997551424    -0.417034412     0.213858220    -0.174203793
   28    18.215581617    15.634217137    21.266830288    -0.423250386     0.198191290    -0.177705722
   29    18.928211438    18.287030040    25.346345114    -0.400674710     0.224673220    -0.197437892
   30    17.698178168    19.200691420    22.043390388    -0.413580925     0.217077255    -0.178404831
   31    16.210547229    20.164442112    29.057781603    -0.406993488     0.227593238    -0.180437300
   32    18.337422118    10.815429349    28.286710106    -0.405801889     0.227129855    -0.183675953
   33    11.400645449    18.189755937    25.688927490    -0.408271798     0.225027473    -0.180767186
   34    20.997949421    13.174521897    28.407159965    -0.483324399    -0.104513612     0.073989390
   35    18.370238632    17.776166163    20.583372465    -0.415915389     0.212822807    -0.178103460
   36    17.884007001    12.762926039    25.917443172    -0.449343820     0.175501782    -0.131488617
   37    18.389566362    15.375805924    27.854154431    -0.410106841     0.214475374    -0.189242418
   38    16.474614552    16.293012695    24.553293177    -0.426822158     0.197204305    -0.170097934
   39    18.661121252    15.988353408    23.978819168    -0.434181678     0.184742327    -0.165398135
   40    13.427531684    19.007109156    26.525784069    -0.407128560     0.223474201    -0.185217755
   41    16.926903728    12.199013720    23.966761181    -0.448423172     0.174591731    -0.135773289
   42    11.211014007    18.640601186    23.415795232    -0.417994718     0.199348500    -0.188522124
   43    14.748824734    17.225291680    25.560186243    -0.423695736     0.200091825    -0.174485485
   44    19.689219943    14.224633069    24.843525076    -0.435900351     0.185334146    -0.160131629
   45    15.028650752    19.741340519    25.019350328    -0.412610152     0.210423964    -0.188347067
   46    18.120677163    11.419844159    22.319091673    -0.446327698     0.181110087    -0.134129498
   47    17.545141193    11.989577899    29.883856402    -0.413666012     0.210374659    -0.186072386
   48    20.750056299    13.646427766    20.804958494    -0.407211985     0.228154798    -0.179231101
   49    13.989522737    15.498586373    21.894853321     0.417700524    -0.182635888     0.205354339
   50    17.144282761    19.572672709    27.015907233    -0.401993585     0.217819510    -0.202375440
   51    20.421252864    16.006285087    20.944292118    -0.418372395     0.196507092    -0.190655453
   52    20.128705434    19.768666845    21.645470746    -0.401967311     0.213084320    -0.207406253
   53    19.397932098    14.448828464    29.568483553    -0.406705482     0.224370491    -0.185063594
   54    15.557044330    12.555537752    29.879901291    -0.403575578     0.243591709    -0.166702825
   55    14.003267476    20.223846979    22.781307825    -0.403631123     0.221522356    -0.194960925
   56    17.114409009    14.216468630    29.745360538    -0.414046164     0.212124967    -0.183217829
   57    16.004075527    16.142636334    27.375129194    -0.416385403     0.207700784    -0.182985191
   58    14.877035873    10.430768150    27.165458866    -0.405078205     0.225880869    -0.186787260
   59    16.528765914    11.909797924    27.880572578    -0.411452444     0.218976978    -0.180986102
   60    19.634071833    16.589113083    29.126193827    -0.407433095     0.219140425    -0.189672738
   61    19.798949137    11.962609418    30.029603653    -0.422887784     0.205918449    -0.169598097
   62    19.630718332    17.478519880    22.463765721    -0.420452958     0.198338897    -0.184067901
   63    12.893297636    18.012151397    29.657601678    -0.399632758     0.227064156    -0.196813435
   64    14.233257120    19.333843551    20.724420518    -0.406202220     0.212139334    -0.199991648
   65    15.360202830    14.060467467    23.571373089    -0.376263154     0.267496718    -0.192019647
   66    11.758512405    16.942214918    28.164729036    -0.396228029     0.231698446    -0.198290642
   67    18.589495872    12.971118977    28.276525140    -0.413211947     0.221723488    -0.173477900
   68    11.752536678    12.501605087    25.375893073    -0.471068578     0.151068168    -0.072614070
   21    22.646399079    16.714915145    24.442395818     0.412093682    -0.204683782     0.195661307
   22    29.978704749    12.098537599    26.482322538    -0.457577400     0.168542199    -0.110528051
   23    29.862778331    19.625863311    27.347162169    -0.408508049     0.217854124    -0.188840553
   24    24.809568905    14.513576959    28.175273589    -0.417400788     0.202025493    -0.186982037
   25    26.088227715    10.757427241    21.460289660    -0.402122775     0.223016303    -0.196369555
   26    22.647453672    11.339805124    27.997434868    -0.103973517    -0.382325077     0.304986956
   27    21.312076849    13.340063602    23.285638293    -0.417041890     0.213874770    -0.174165566
   28    28.305237567    15.778877348    21.554917157    -0.423240629     0.198213883    -0.177703760
   29    29.017867388    18.431690251    25.634431983    -0.400665601     0.224689134    -0.197438267
   30    27.787834118    19.345351631    22.331477258    -0.413571718     0.217097890    -0.178401066
   31    26.300203179    20.309102324    29.345868473    -0.406989280     0.227596441    -0.180442749
   32    28.427078068    10.960089561    28.574796975    -0.405797616     0.227137638    -0.183675770
   33    21.490301399    18.334416148    25.977014360    -0.408271204     0.225037625    -0.180755888
   34    31.087605370    13.319182109    28.695246835    -0.483325492    -0.104523205     0.073968699
   35    28.459894582    17.920826375    20.871459334    -0.415904676     0.212845448    -0.178101420
   36    27.973662950    12.907586251    26.205530042    -0.449338546     0.175519208    -0.131483379
   37    28.479222312    15.520466135    28.142241300    -0.410101168     0.214486373    -0.189242247
   38    26.564270501    16.437672906    24.841380047    -0.426815720     0.197221579    -0.170094063
   39    28.750777202    16.133013620    24.266906037    -0.434172910     0.184764207    -0.165396710
   40    23.517187634    19.151769367    26.813870938    -0.407125907     0.223483667    -0.185212166
   41    27.016559677    12.343673931    24.254848051    -0.448418239     0.174610704    -0.135765183
   42    21.300669957    18.785261398    23.703882101    -0.417994719     0.199362739    -0.188507063
   43    24.838480684    17.369951892    25.848273112    -0.423690010     0.200107730    -0.174481149
   44    29.778875892    14.369293280    25.131611946    -0.435890955     0.185356596    -0.160131221
   45    25.118306702    19.886000730    25.307437197    -0.412606129     0.210434484    -0.188344128
   46    28.210333113    11.564504371    22.607178542    -0.446321905     0.181130990    -0.134120547
   47    27.634797143    12.134238110    30.171943272    -0.413662421     0.210388012    -0.186065273
   48    30.839712249    13.791087977    21.093045363    -0.407199411     0.228177214    -0.179231131
   49    24.079178686    15.643246585    22.182940191     0.417670459    -0.182662968     0.205391401
   50    27.233938711    19.717332920    27.303994102    -0.401987250     0.217826886    -0.202380085
   51    30.510908814    16.150945299    21.232378987    -0.418361940     0.196530046    -0.190654736
   52    30.218361384    19.913327057    21.933557616    -0.401958051     0.213107255    -0.207400634
   53    29.487588048    14.593488676    29.856570422    -0.406699223     0.224382314    -0.185063014
   54    25.646700280    12.700197964    30.167988161    -0.403566161     0.243608220    -0.166701496
   55    24.092923426    20.368507191    23.069394695    -0.403625060     0.221538112    -0.194955574
   56    27.204064959    14.361128842    30.033447408    -0.414040501     0.212138062    -0.183215465
   57    26.093731477    16.287296546    27.663216064    -0.416378830     0.207716395    -0.182982428
   58    24.966691823    10.575428361    27.453545735    -0.405074893     0.225881255    -0.186793977
   59    26.618421863    12.054458135    28.168659447    -0.411447819     0.218983230    -0.180989053
   60    29.723727783    16.733773295    29.414280696    -0.407427087     0.219149067    -0.189675659
   61    29.888605087    12.107269629    30.317690523    -0.422884167     0.205933720    -0.169588574
   62    29.720374282    17.623180091    22.751852590    -0.420443047     0.198361488    -0.184066196
   63    22.982953586    18.156811609    29.945688548    -0.399637180     0.227064417    -0.196804153
   64    24.322913070    19.478503763    21.012507387    -0.406196948     0.212155148    -0.199985581
   65    25.449858780    14.205127679    23.859459958    -0.376193503     0.267721013    -0.191843446
   66    21.848168355    17.086875129    28.452815906    -0.396232180     0.231700590    -0.198279843
   67    28.679151822    13.115779188    28.564612010    -0.413205913     0.221736600    -0.173475512
   68    21.842192628    12.646265298    25.663979942    -0.471059889     0.151081819    -0.072642037
   21    32.736055029    16.859575356    24.730482687     0.412077177    -0.204709574     0.195669084
   22    40.068360699    12.243197811    26.770409407    -0.457580293     0.168503161    -0.110575587
   23    39.952434281    19.770523523    27.635249039    -0.408497401     0.217877235    -0.188836924
   24    34.899224854    14.658237170    28.463360459    -0.417397217     0.202027765    -0.186987555
   25    36.177883664    10.902087453    21.748376530    -0.402125324     0.223005378    -0.196376743
   26    32.737109622    11.484465336    28.285521738    -0.104059883    -0.382387913     0.304878706
   27    31.401732799    13.484723813    23.573725163    -0.417024902     0.213901545    -0.174173362
   28    38.394893516    15.923537560    21.843004027    -0.423238984     0.198207049    -0.177715301
   29    39.107523338    18.576350463    25.922518853    -0.400653557     0.224711108    -0.197437700
   30    37.877490067    19.490011843    22.619564127    -0.413566086     0.217099146    -0.178412592
   31    36.389859129    20.453762535    29.633955342    -0.406979129     0.227618959    -0.180437242
   32    38.516734018    11.104749772    28.862883845    -0.405795601     0.227134932    -0.183683568
   33    31.579957349    18.479076360    26.265101230    -0.408258858     0.225058746    -0.180757478
   34    41.177261320    13.463842321    28.983333704    -0.483325426    -0.104620837     0.073830978
   35    38.549550532    18.065486586    21.159546204    -0.415903237     0.212839390    -0.178112019
   36    38.063318900    13.052246462    26.493616911    -0.449338354     0.175495426    -0.131515776
   37    38.568878261    15.665126347    28.430328170    -0.410099607     0.214487076    -0.189244832
   38    36.653926451    16.582333118    25.129466916    -0.426810316     0.197227306    -0.170100982
   39    38.840433152    16.277673831    24.554992907    -0.434171504     0.184760724    -0.165404293
   40    33.606843584    19.296429579    27.101957808    -0.407113390     0.223504946    -0.185214004
   41    37.106215627    12.488334143    24.542934921    -0.448417193     0.174590929    -0.135794065
   42    31.390325907    18.929921609    23.991968971    -0.417983572     0.199384618    -0.188508642
   43    34.928136634    17.514612103    26.136359982    -0.423682995     0.200117287    -0.174487225
   44    39.868531842    14.513953492    25.419698815    -0.435891241     0.185350439    -0.160137569
   45    35.207962652    20.030660942    25.595524067    -0.412594526     0.210454599    -0.188347070
   46    38.299989062    11.709164583    22.895265412    -0.446321506     0.181113586    -0.134145379
   47    37.724453093    12.278898322    30.460030141    -0.413660304     0.210378797    -0.186080399
   48    40.929368199    13.935748189    21.381132233    -0.407201730     0.228161901    -0.179245358
   49    34.168834636    15.787906796    22.471027061     0.417511690    -0.182695990     0.205684623
   50    37.323594660    19.861993132    27.592080972    -0.401978213     0.217847470    -0.202375878
   51    40.600564764    16.295605511    21.520465857    -0.418361007     0.196523696    -0.190663328
   52    40.308017334    20.057987268    22.221644485    -0.401952971     0.213103074    -0.207414774
   53    39.577243998    14.738148888    30.144657292    -0.406699535     0.224382945    -0.185061564
   54    35.736356229    12.844858176    30.456075030    -0.403566201     0.243600197    -0.166713124
   55    34.182579375    20.513167403    23.357481564    -0.403613512     0.221553778    -0.194961679
   56    37.293720908    14.505789054    30.321534277    -0.414038967     0.212134391    -0.183223180
   57    36.183387427    16.431956758    27.951302933    -0.416375023     0.207719469    -0.182987604
   58    35.056347772    10.720088573    27.741632605    -0.405072700     0.225883118    -0.186796480
   59    36.708077813    12.199118347    28.456746317    -0.411445500     0.218982808    -0.180994834
   60    39.813383732    16.878433507    29.702367566    -0.407426384     0.219150963    -0.189674978
   61    39.978261037    12.251929841    30.605777392    -0.422881991     0.205921080    -0.169609347
   62    39.810030232    17.767840303    23.039939460    -0.420440669     0.198358500    -0.184074846
   63    33.072609536    18.301471821    30.233775418    -0.399629885     0.227077150    -0.196804276
   64    34.412569020    19.623163974    21.300594257    -0.406185191     0.212171190    -0.199992442
   65    35.539514729    14.349787890    24.147546828    -0.376187670     0.267622900    -0.191991719
   66    31.937824305    17.231535341    28.740902775    -0.396224536     0.231713182    -0.198280403
   67    38.768807772    13.260439400    28.852698879    -0.413205473     0.221732778    -0.173481447
   68    31.931848578    12.790925510    25.952066812    -0.471057227     0.151090944    -0.072640314
   21     2.602162650    26.450688242    23.896847502     0.412078805    -0.204704530     0.195670932
   22     9.934468321    21.834310697    25.936774222    -0.457599871     0.168438196    -0.110593545
   23     9.818541902    29.361636409    26.801613853    -0.408502604     0.217850279    -0.188856767
   24     4.765332476    24.249350057    27.629725274    -0.417402176     0.202006856    -0.186999074
   25     6.043991286    20.493200339    20.914741345    -0.402137772     0.222987244    -0.196371846
   26     2.603217243    21.075578222    27.451886552    -0.104205720    -0.382237321     0.305017701
   27     1.267840420    23.075836699    22.740089977    -0.417027714     0.213891670    -0.174178758
   28     8.261001138    25.514650446    21.009368842    -0.423247841     0.198189260    -0.177714046
   29     8.973630959    28.167463349    25.088883668    -0.400659779     0.224683057    -0.197456997
   30     7.743597689    29.081124729    21.785928942    -0.413573198     0.217085868    -0.178412264
   31     6.255966751    30.044875421    28.800320157    -0.406983392     0.227592633    -0.180460832
   32     8.382841639    20.695862658    28.029248660    -0.405804439     0.227111084    -0.183693529
   33     1.446064971    28.070189246    25.431466044    -0.408259303     0.225052772    -0.180763909
   34    11.043368942    23.054955207    28.149698519    -0.483312928    -0.104737616     0.073747173
   35     8.415658154    27.656599473    20.325911019    -0.415911337     0.212823362    -0.178112257
   36     7.929426522    22.643359348    25.659981726    -0.449354025     0.175446265    -0.131527822
   37     8.434985883    25.256239233    27.596692985    -0.410103926     0.214471090    -0.189253590
   38     6.520034073    26.173446004    24.295831731    -0.426816868     0.197205340    -0.170110009
   39     8.706540773    25.868786718    23.721357722    -0.434178744     0.184737787    -0.165410909
   40     3.472951205    28.887542465    26.268322623    -0.407118040     0.223489473    -0.185222453
   41     6.972323249    22.079447029    23.709299735    -0.448433255     0.174544449    -0.135800777
   42     1.256433528    28.521034495    23.158333786    -0.417981279     0.199385022    -0.188513297
   43     4.794244256    27.105724989    25.302724797    -0.423689292     0.200095879    -0.174496485
   44     9.734639464    24.105066378    24.586063630    -0.435899601     0.185323742    -0.160145711
   45     5.074070274    29.621773828    24.761888882    -0.412599630     0.210435042    -0.188357740
   46     8.166096684    21.300277469    22.061630227    -0.446337893     0.181070705    -0.134148744
   47     7.590560714    21.870011208    29.626394956    -0.413665160     0.210364079    -0.186086243
   48    10.795475820    23.526861075    20.547497048    -0.407214698     0.228142174    -0.179241007
   49     4.034942258    25.379019682    21.637391875     0.417665715    -0.182569498     0.205484134
   50     7.189702282    29.453106018    26.758445787    -0.401979863     0.217823109    -0.202398822
   51    10.466672386    25.886718397    20.686830672    -0.418368825     0.196505138    -0.190665301
   52    10.174124956    29.649100154    21.388009300    -0.401957846     0.213090993    -0.207417740
   53     9.443351619    24.329261774    29.311022107    -0.406703691     0.224370052    -0.185068062
   54     5.602463851    22.435971062    29.622439845    -0.403569895     0.243586945    -0.166723543
   55     4.048686997    30.104280289    22.523846379    -0.403620223     0.221539973    -0.194963474
   56     7.159828530    24.096901940    29.487899092    -0.414043648     0.212117415    -0.183232257
   57     6.049495049    26.023069644    27.117667748    -0.416380047     0.207699556    -0.182998773
   58     4.922455394    20.311201459    26.907997420    -0.405078491     0.225861124    -0.186810517
   59     6.574185435    21.790231233    27.623111132    -0.411452530     0.218959257    -0.181007347
   60     9.679491354    26.469546393    28.868732381    -0.407430810     0.219135653    -0.189683160
   61     9.844368658    21.843042727    29.772142207    -0.422885223     0.205908141    -0.169616998
   62     9.676137854    27.358953189    22.206304275    -0.420447543     0.198339136    -0.184080013
   63     2.938717157    27.892584707    29.400140232    -0.399628165     0.227075774    -0.196809355
   64     4.278676641    29.214276861    20.466959072    -0.406191351     0.212159430    -0.199992408
   65     5.405622351    23.940900776    23.313911642    -0.376102591     0.267813350    -0.191892811
   66     1.803931927    26.822648227    27.907267590    -0.396220990     0.231714973    -0.198285397
   67     8.634915393    22.851552286    28.019063694    -0.413212659     0.221714963    -0.173487099
   68     1.797956199    22.382038396    25.118431627    -0.471048563     0.151134701    -0.072605464
   21    12.691818600    26.595348454    24.184934372     0.412087675    -0.204675908     0.195682194
   22    20.024124270    21.978970909    26.224861092    -0.457597202     0.168480102    -0.110540745
   23    19.908197852    29.506296620    27.089700723    -0.408504523     0.217844025    -0.188859830
   24    14.854988426    24.394010268    27.917812143    -0.417409417     0.202007253    -0.186982480
   25    16.133647236    20.637860551    21.202828214    -0.402139819     0.222984843    -0.196370379
   26    12.692873193    21.220238434    27.739973422    -0.104122954    -0.382696788     0.304469340
   27    11.357496370    23.220496911    23.028176847    -0.417035694     0.213889765    -0.174161988
   28    18.350657088    25.659310658    21.297455711    -0.423253109     0.198180548    -0.177711217
   29    19.063286909    28.312123561    25.376970537    -0.400663306     0.224676284    -0.197457546
   30    17.833253639    29.225784941    22.074015812    -0.413577829     0.217074884    -0.178414892
   31    16.345622700    30.189535633    29.088407027    -0.406982898     0.227596200    -0.180457449
   32    18.472497589    20.840522870    28.317335529    -0.405809772     0.227121488    -0.183668882
   33    11.535720921    28.214849458    25.719552914    -0.408263890     0.225037861    -0.180772113
   34    21.133024892    23.199615419    28.437785389    -0.483316202    -0.104610272     0.073906293
   35    18.505314103    27.801259684    20.613997888    -0.415916296     0.212815464    -0.178110116
   36    18.019082472    22.788019560    25.948068596    -0.449356024     0.175467857    -0.131492187
   37    18.524641833    25.400899445    27.884779854    -0.410104955     0.214476356    -0.189245392
   38    16.609690023    26.318106216    24.583918601    -0.426822269     0.197201061    -0.170101418
   39    18.796196723    26.013446929    24.009444591    -0.434183726     0.184733794    -0.165402289
   40    13.562607155    29.032202677    26.556409492    -0.407120942     0.223480647    -0.185226724
   41    17.061979199    22.224107241    23.997386605    -0.448436539     0.174558921    -0.135771327
   42    11.346089478    28.665694707    23.446420655    -0.417986704     0.199363770    -0.188523744
   43    14.883900205    27.250385201    25.590811666    -0.423694222     0.200091302    -0.174489763
   44    19.824295414    24.249726590    24.874150500    -0.435904397     0.185321826    -0.160134872
   45    15.163726223    29.766434040    25.049975751    -0.412602942     0.210428319    -0.188357996
   46    18.255752634    21.444937680    22.349717096    -0.446341403     0.181080013    -0.134124496
   47    17.680216664    22.014671420    29.914481826    -0.413667162     0.210376648    -0.186067581
   48    20.885131770    23.671521287    20.835583917    -0.407220405     0.228137721    -0.179233708
   49    14.124598208    25.523679894    21.925478745     0.417708808    -0.182578145     0.205388833
   50    17.279358232    29.597766230    27.046532656    -0.401980674     0.217824653    -0.202395549
   51    20.556328336    26.031378608    20.974917541    -0.418373563     0.196498480    -0.190661766
   52    20.263780905    29.793760366    21.676096170    -0.401964742     0.213081752    -0.207413868
   53    19.533007569    24.473921985    29.599108976    -0.406703827     0.224374463    -0.185062416
   54    15.692119801    22.580631273    29.910526715    -0.403575174     0.243595006    -0.166698987
   55    14.138342947    30.248940500    22.811933249    -0.403623961     0.221528090    -0.194969238
   56    17.249484480    24.241562151    29.775985962    -0.414048427     0.212124186    -0.183213617
   57    16.139150998    26.167729855    27.405754618    -0.416386471     0.207698713    -0.182985112
   58    15.012111344    20.455861671    27.196084289    -0.405086832     0.225875034    -0.186775608
   59    16.663841385    21.934891445    27.911198001    -0.411460235     0.218969503    -0.180977436
   60    19.769147304    26.614206605    29.156819250    -0.407428514     0.219142887    -0.189679732
   61    19.934024608    21.987702939    30.060229077    -0.422885231     0.205924383    -0.169597259
   62    19.765793803    27.503613401    22.494391144    -0.420452433     0.198333141    -0.184075302
   63    13.028373107    28.037244918    29.688227102    -0.399631965     0.227064103    -0.196815105
   64    14.368332591    29.358937072    20.755045941    -0.406195944     0.212144534    -0.199998881
   65    15.495278301    24.085560988    23.601998512    -0.376045230     0.267762909    -0.192075532
   66    11.893587876    26.967308439    28.195354460    -0.396226943     0.231699536    -0.198291540
   67    18.724571343    22.996212498    28.307150564    -0.413215208     0.221721180    -0.173473081
   68    11.887612149    22.526698608    25.406518496    -0.471085156     0.150956457    -0.072738740
   21    22.781474550    26.740008666    24.473021241     0.412087037    -0.204685714     0.195673279
   22    30.113780220    22.123631120    26.512947961    -0.457597512     0.168483087    -0.110534912
   23    29.997853802    29.650956832    27.377787592    -0.408504129     0.217845158    -0.188859376
   24    24.944644376    24.538670480    28.205899013    -0.417402903     0.202011828    -0.186992080
   25    26.223303186    20.782520762    21.490915084    -0.402131509     0.223003356    -0.196366374
   26    22.782529143    21.364898645    28.028060291    -0.104159972    -0.382536275     0.304658331
   27    21.447152320    23.365157123    23.316263717    -0.417042745     0.213871974    -0.174166953
   28    28.440313038    25.803970869    21.585542581    -0.423243193     0.198192754    -0.177721219
   29    29.152942859    28.456783772    25.665057407    -0.400660641     0.224678512    -0.197460419
   30    27.922909589    29.370445152    22.362102681    -0.413572251     0.217083402    -0.178417461
   31    26.435278650    30.334195845    29.376493896    -0.406985453     0.227598465    -0.180448828
   32    28.562153539    20.985183082    28.605422399    -0.405804200     0.227127740    -0.183673462
   33    21.625376870    28.359509669    26.007639784    -0.408265952     0.225036589    -0.180769040
   34    31.222680841    23.344275630    28.725872258    -0.483308566    -0.104660553     0.073885035
   35    28.594970053    27.945919896    20.902084758    -0.415908679     0.212827171    -0.178113913
   36    28.108738421    22.932679772    26.236155465    -0.449353960     0.175476819    -0.131487280
   37    28.614297783    25.545559656    28.172866724    -0.410102373     0.214477607    -0.189249571
   38    26.699345972    26.462766427    24.872005470    -0.426815583     0.197209469    -0.170108446
   39    28.885852673    26.158107141    24.297531461    -0.434175762     0.184746495    -0.165409009
   40    23.652263105    29.176862888    26.844496362    -0.407121328     0.223481401    -0.185224965
   41    27.151635148    22.368767453    24.285473475    -0.448432857     0.174573379    -0.135764901
   42    21.435745428    28.810354919    23.734507525    -0.417990637     0.199360147    -0.188518856
   43    24.973556155    27.395045413    25.878898536    -0.423689058     0.200097610    -0.174495067
   44    29.913951363    24.394386801    25.162237369    -0.435895974     0.185335831    -0.160141592
   45    25.253382173    29.911094251    25.338062621    -0.412602089     0.210431518    -0.188356290
   46    28.345408584    21.589597892    22.637803966    -0.446335976     0.181097824    -0.134118510
   47    27.769872614    22.159331631    30.202568695    -0.413666254     0.210372132    -0.186074707
   48    30.974787720    23.816181498    21.123670787    -0.407209209     0.228146733    -0.179247673
   49    24.214254157    25.668340106    22.213565615     0.417677193    -0.182781444     0.205272273
   50    27.369014182    29.742426441    27.334619526    -0.401984371     0.217826366    -0.202386364
   51    30.645984285    26.176038820    21.263004411    -0.418365195     0.196510636    -0.190667600
   52    30.353436855    29.938420578    21.964183039    -0.401960167     0.213088516    -0.207415786
   53    29.622663519    24.618582197    29.887195846    -0.406702664     0.224373928    -0.185065621
   54    25.781775751    22.725291485    30.198613584    -0.403574148     0.243589053    -0.166710169
   55    24.227998897    30.393600712    23.100020118    -0.403622862     0.221531673    -0.194967441
   56    27.339140430    24.386222363    30.064072831    -0.414045305     0.212123899    -0.183221004
   57    26.228806948    26.312390067    27.693841487    -0.416380057     0.207704250    -0.182993423
   58    25.101767294    20.600521882    27.484171159    -0.405082979     0.225876243    -0.186782501
   59    26.753497335    22.079551656    28.199284871    -0.411455974     0.218972727    -0.180983221
   60    29.858803254    26.758866816    29.444906120    -0.407428270     0.219142896    -0.189680248
   61    30.023680558    22.132363150    30.348315946    -0.422887793     0.205912695    -0.169605060
   62    29.855449753    27.648273612    22.782478014    -0.420443869     0.198344119    -0.184083034
   63    23.118029057    28.181905130    29.976313972    -0.399631865     0.227066804    -0.196812192
   64    24.457988541    29.503597284    21.043132811    -0.406193954     0.212149239    -0.199997930
   65    25.584934251    24.230221200    23.890085382    -0.376210085     0.267694688    -0.191847663
   66    21.983243826    27.111968650    28.483441329    -0.396226618     0.231703528    -0.198287523
   67    28.814227293    23.140872709    28.595237433    -0.413212309     0.221723570    -0.173476933
   68    21.977268099    22.671358819    25.694605366    -0.471076818     0.151019125    -0.072662613
   21    32.871130500    26.884668877    24.761108111     0.412076978    -0.204697958     0.195681655
   22    40.203436170    22.268291332    26.801034831    -0.457572279     0.168569581    -0.110507490
   23    40.087509752    29.795617044    27.665874462    -0.408496905     0.217871070    -0.188845110
   24    35.034300325    24.683330692    28.493985883    -0.417394738     0.202035944    -0.186984250
   25    36.312959135    20.927180974    21.779001954    -0.402123027     0.223006966    -0.196379644
   26    32.872185093    21.509558857    28.316147161    -0.104169034    -0.382606787     0.304566674
   27    31.536808270    23.509817334    23.604350586    -0.417028917     0.213889752    -0.174178232
   28    38.529968987    25.948631081    21.873629450    -0.423239573     0.198216313    -0.177703566
   29    39.242598809    28.601443984    25.953144276    -0.400654372     0.224704531    -0.197443531
   30    38.012565538    29.515105364    22.650189551    -0.413566153     0.217105363    -0.178404872
   31    36.524934600    30.478856056    29.664580766    -0.406978609     0.227613650    -0.180445111
   32    38.651809489    21.129843293    28.893509268    -0.405794060     0.227150168    -0.183668129
   33    31.715032820    28.504169881    26.295726653    -0.408258173     0.225049400    -0.180770660
   34    41.312336791    23.488935842    29.013959128    -0.483334047    -0.104423360     0.074053771
   35    38.684626003    28.090580107    21.190171627    -0.415903163     0.212846279    -0.178103960
   36    38.198394371    23.077339983    26.524242335    -0.449335752     0.175533816    -0.131473423
   37    38.703953732    25.690219868    28.460953594    -0.410095741     0.214494569    -0.189244718
   38    36.789001922    26.607426639    25.160092340    -0.426809119     0.197230785    -0.170099951
   39    38.975508623    26.302767353    24.585618331    -0.434170098     0.184767697    -0.165400193
   40    33.741919055    29.321523100    27.132583231    -0.407113514     0.223496333    -0.185224124
   41    37.241291098    22.513427664    24.573560344    -0.448416002     0.174620082    -0.135760511
   42    31.525401378    28.955015130    24.022594394    -0.417983382     0.199370801    -0.188523676
   43    35.063212105    27.539705624    26.166985405    -0.423681987     0.200118576    -0.174488192
   44    40.003607313    24.539047013    25.450324239    -0.435889004     0.185359164    -0.160133559
   45    35.343038123    30.055754463    25.626149490    -0.412594949     0.210448924    -0.188352485
   46    38.435064533    21.734258104    22.925890835    -0.446320128     0.181135773    -0.134120001
   47    37.859528564    22.303991843    30.490655565    -0.413659772     0.210397640    -0.186060276
   48    41.064443670    23.960841710    21.411757656    -0.407199799     0.228184198    -0.179221358
   49    34.303910107    25.813000317    22.501652484     0.417533031    -0.182805509     0.205543946
   50    37.458670131    29.887086653    27.622706395    -0.401976911     0.217841418    -0.202384978
   51    40.735640235    26.320699032    21.551091281    -0.418360242     0.196531576    -0.190656884
   52    40.443092805    30.083080789    22.252269909    -0.401952488     0.213110024    -0.207408571
   53    39.712319469    24.763242409    30.175282715    -0.406694569     0.224387964    -0.185066392
   54    35.871431700    22.869951697    30.486700454    -0.403564343     0.243616321    -0.166694059
   55    34.317654846    30.538260924    23.388106988    -0.403614113     0.221553350    -0.194960922
   56    37.428796380    24.530882575    30.352159701    -0.414037340     0.212146950    -0.183212317
   57    36.318462898    26.457050279    27.981928357    -0.416372684     0.207725675    -0.182985880
   58    35.191423243    20.745182094    27.772258028    -0.405070776     0.225902394    -0.186777341
   59    36.843153284    22.224211868    28.487371740    -0.411444005     0.218999876    -0.180977583
   60    39.948459204    26.903527028    29.732992989    -0.407421437     0.219156351    -0.189679378
   61    40.113336508    22.277023362    30.636402816    -0.422881694     0.205943830    -0.169582463
   62    39.945105703    27.792933824    23.070564883    -0.420440033     0.198364053    -0.184070316
   63    33.207685007    28.326565342    30.264400841    -0.399627299     0.227073894    -0.196813283
   64    34.547644491    29.648257496    21.331219680    -0.406186916     0.212169187    -0.199991063
   65    35.674590200    24.374881411    24.178172251    -0.376196082     0.267642825    -0.191947457
   66    32.072899776    27.256628862    28.771528199    -0.396222595     0.231708137    -0.198290178
   67    38.903883243    23.285532921    28.883324303    -0.413202165     0.221745057    -0.173473630
   68    32.066924049    22.816019031    25.982692236    -0.471079701     0.151012371    -0.072657960
   21     2.737238121    36.475781763    23.927472926     0.412080313    -0.204699671     0.195672839
   22    10.069543792    31.859404218    25.967399646    -0.457581774     0.168516203    -0.110549581
   23     9.953617373    39.386729930    26.832239277    -0.408506582     0.217848976    -0.188849665
   24     4.900407947    34.274443578    27.660350697    -0.417397510     0.202018865    -0.186996517
   25     6.179066757    30.518293860    20.945366768    -0.402128555     0.223002175    -0.196373765
   26     2.738292714    31.100671743    27.482511976    -0.104284315    -0.382213792     0.305020326
   27     1.402915891    33.100930220    22.770715401    -0.417028100     0.213894784    -0.174174008
   28     8.396076609    35.539743967    21.039994265    -0.423241824     0.198197555    -0.177719125
   29     9.108706430    38.192556870    25.119509091    -0.400665401     0.224680884    -0.197448062
   30     7.878673160    39.106218250    21.816554366    -0.413571686     0.217084356    -0.178417608
   31     6.391042222    40.069968942    28.830945581    -0.406981687     0.227609407    -0.180443521
   32     8.517917110    30.720956179    28.059874083    -0.405798884     0.227125001    -0.183688594
   33     1.581140442    38.095282767    25.462091468    -0.408259542     0.225050421    -0.180766298
   34    11.178444413    33.080048728    28.180323943    -0.483324985    -0.104570390     0.073905292
   35     8.550733625    37.681692994    20.356536442    -0.415906675     0.212829953    -0.178115269
   36     8.064501993    32.668452869    25.690607150    -0.449341304     0.175499511    -0.131500245
   37     8.570061354    35.281332754    27.627318408    -0.410098570     0.214482301    -0.189252491
   38     6.655109544    36.198539525    24.326457155    -0.426811711     0.197219139    -0.170106952
   39     8.841616244    35.893880239    23.751983145    -0.434173172     0.184753376    -0.165408122
   40     3.608026677    38.912635986    26.298948046    -0.407116587     0.223492541    -0.185221944
   41     7.107398720    32.104540550    23.739925159    -0.448421734     0.174590393    -0.135779761
   42     1.391508999    38.546128016    23.188959209    -0.417982206     0.199379804    -0.188516761
   43     4.929319727    37.130818510    25.333350220    -0.423684644     0.200108294    -0.174493535
   44     9.869714935    34.130159899    24.616689054    -0.435893302     0.185343240    -0.160140290
   45     5.209145745    39.646867349    24.792514305    -0.412597573     0.210444070    -0.188352160
   46     8.301172155    31.325370990    22.092255650    -0.446326619     0.181110226    -0.134132899
   47     7.725636185    31.895104729    29.657020380    -0.413663112     0.210373727    -0.186079889
   48    10.930551291    33.551954596    20.578122471    -0.407204738     0.228158065    -0.179243406
   49     4.170017729    35.404113203    21.668017299     0.417638219    -0.182891796     0.205253281
   50     7.324777753    39.478199539    26.789071210    -0.401980485     0.217837174    -0.202382449
   51    10.601747857    35.911811918    20.717456095    -0.418363500     0.196514570    -0.190667263
   52    10.309200427    39.674193675    21.418634724    -0.401959634     0.213088902    -0.207416423
   53     9.578427090    34.354355295    29.341647530    -0.406698330     0.224377673    -0.185070603
   54     5.737539322    32.461064583    29.653065269    -0.403570147     0.243591168    -0.166716764
   55     4.183762468    40.129373810    22.554471803    -0.403616849     0.221546743    -0.194962765
   56     7.294904001    34.121995461    29.518524516    -0.414040562     0.212126824    -0.183228337
   57     6.184570520    36.048163165    27.148293172    -0.416375357     0.207711010    -0.182996445
   58     5.057530865    30.336294980    26.938622843    -0.405074646     0.225870626    -0.186807364
   59     6.709260906    31.815324754    27.653736555    -0.411448051     0.218971621    -0.181002571
   60     9.814566825    36.494639914    28.899357804    -0.407424427     0.219147903    -0.189682715
   61     9.979444129    31.868136248    29.802767630    -0.422885012     0.205917963    -0.169605598
   62     9.811213325    37.384046710    22.236929698    -0.420443623     0.198348127    -0.184079278
   63     3.073792628    37.917678228    29.430765656    -0.399625531     0.227077370    -0.196812862
   64     4.413752112    39.239370382    20.497584495    -0.406187976     0.212165220    -0.199993119
   65     5.540697822    33.965994297    23.344537066    -0.376367559     0.267406394    -0.191940827
   66     1.939007398    36.847741748    27.937893014    -0.396219947     0.231713595    -0.198289092
   67     8.769990864    32.876645807    28.049689118    -0.413206394     0.221727431    -0.173486088
   68     1.933031670    32.407131917    25.149057050    -0.471050369     0.151109744    -0.072645684
   21    12.826894071    36.620441975    24.215559795     0.412082998    -0.204695087     0.195671982
   22    20.159199741    32.004064430    26.255486515    -0.457587839     0.168470191    -0.110594593
   23    20.043273323    39.531390141    27.120326146    -0.408498393     0.217860287    -0.188854330
   24    14.990063897    34.419103789    27.948437567    -0.417396446     0.202022863    -0.186994572
   25    16.268722707    30.662954072    21.233453638    -0.402132881     0.222989398    -0.196379415
   26    12.827948664    31.245331955    27.770598845    -0.104230979    -0.382469483     0.304717898
   27    11.492571841    33.245590432    23.058802271    -0.417031512     0.213891963    -0.174169303
   28    18.485732559    35.684404179    21.328081135    -0.423240037     0.198195771    -0.177725370
   29    19.198362380    38.337217082    25.407595961    -0.400654899     0.224695522    -0.197452714
   30    17.968329110    39.250878462    22.104641235    -0.413567819     0.217088736    -0.178421243
   31    16.480698171    40.214629154    29.119032450    -0.406977622     0.227607537    -0.180455049
   32    18.607573060    30.865616391    28.347960953    -0.405798650     0.227126260    -0.183687555
   33    11.670796392    38.239942979    25.750178338    -0.408260398     0.225046151    -0.180769681
   34    21.268100363    33.224708940    28.468410812    -0.483325428    -0.104667913     0.073764212
   35    18.640389574    37.826353205    20.644623312    -0.415904402     0.212829660    -0.178120927
   36    18.154157943    32.813113081    25.978694019    -0.449344428     0.175469311    -0.131529869
   37    18.659717304    35.425992966    27.915405278    -0.410096738     0.214486255    -0.189251979
   38    16.744765494    36.343199737    24.614544024    -0.426811699     0.197215642    -0.170111033
   39    18.931272194    36.038540450    24.040070015    -0.434172896     0.184748495    -0.165414299
   40    13.697682626    39.057296198    26.587034916    -0.407115324     0.223489530    -0.185228354
   41    17.197054670    32.249200762    24.028012029    -0.448423693     0.174565267    -0.135805594
   42    11.481164949    38.690788228    23.477046079    -0.417985312     0.199370997    -0.188519188
   43    15.018975677    37.275478722    25.621437090    -0.423684558     0.200105209    -0.174497278
   44    19.959370885    34.274820111    24.904775923    -0.435893342     0.185336571    -0.160147901
   45    15.298801694    39.791527561    25.080601175    -0.412596076     0.210439760    -0.188360255
   46    18.390828105    31.470031201    22.380342520    -0.446328251     0.181089809    -0.134155035
   47    17.815292135    32.039764941    29.945107249    -0.413658427     0.210379636    -0.186083622
   48    21.020207241    33.696614808    20.866209341    -0.407205800     0.228146416    -0.179255820
   49    14.259673679    35.548773415    21.956104168     0.417630221    -0.182735455     0.205408744
   50    17.414433703    39.622859751    27.077158080    -0.401975054     0.217835802    -0.202394713
   51    20.691403807    36.056472129    21.005542965    -0.418361704     0.196513385    -0.190672426
   52    20.398856377    39.818853887    21.706721593    -0.401953096     0.213095878    -0.207421927
   53    19.668083040    34.499015506    29.629734400    -0.406696328     0.224383026    -0.185068513
   54    15.827195272    32.605724794    29.941152138    -0.403566717     0.243595090    -0.166719337
   55    14.273418418    40.274034022    22.842558672    -0.403615183     0.221541812    -0.194971817
   56    17.384559951    34.266655672    29.806611385    -0.414037764     0.212131639    -0.183229085
   57    16.274226469    36.192823376    27.436380041    -0.416374635     0.207713563    -0.182995189
   58    15.147186815    30.480955192    27.226709713    -0.405076154     0.225874596    -0.186799294
   59    16.798916856    31.959984966    27.941823425    -0.411448877     0.218972934    -0.180999104
   60    19.904222775    36.639300126    29.187444674    -0.407422643     0.219150777    -0.189683228
   61    20.069100079    32.012796460    30.090854500    -0.422877589     0.205925606    -0.169614826
   62    19.900869274    37.528706922    22.525016568    -0.420441526     0.198348407    -0.184083766
   63    13.163448578    38.062338439    29.718852526    -0.399625755     0.227076191    -0.196813767
   64    14.503408062    39.384030593    20.785671365    -0.406187332     0.212158125    -0.200001953
   65    15.630353772    34.110654509    23.632623936    -0.376308634     0.267565225    -0.191834988
   66    12.028663347    36.992401960    28.225979883    -0.396220914     0.231711484    -0.198289626
   67    18.859646814    33.021306019    28.337775987    -0.413205917     0.221728513    -0.173485839
   68    12.022687620    32.551792129    25.437143920    -0.471063251     0.151057799    -0.072670180
   21    22.916550021    36.765102187    24.503646665     0.412080011    -0.204697418     0.195675833
   22    30.248855691    32.148724641    26.543573385    -0.457585102     0.168468312    -0.110608782
   23    30.132929273    39.676050353    27.408413016    -0.408507362     0.217858848    -0.188836590
   24    25.079719847    34.563764001    28.236524437    -0.417403048     0.202022428    -0.186980305
   25    26.358378657    30.807614283    21.521540508    -0.402131081     0.222994617    -0.196377174
   26    22.917604614    31.389992166    28.058685715    -0.104287292    -0.382600331     0.304534313
   27    21.582227791    33.390250644    23.346889140    -0.417032554     0.213896246    -0.174161549
   28    28.575388509    35.829064391    21.616168004    -0.423250115     0.198204869    -0.177691222
   29    29.288018330    38.481877293    25.695682830    -0.400666874     0.224691804    -0.197432644
   30    28.057985060    39.395538673    22.392728105    -0.413576367     0.217095398    -0.178393320
   31    26.570354121    40.359289366    29.407119320    -0.406984929     0.227604723    -0.180442116
   32    28.697229010    31.010276603    28.636047822    -0.405801956     0.227127003    -0.183679331
   33    21.760452341    38.384603190    26.038265207    -0.408260293     0.225049390    -0.180765884
   34    31.357756312    33.369369151    28.756497682    -0.483334639    -0.104684644     0.073680068
   35    28.730045524    37.971013417    20.932710181    -0.415913788     0.212836312    -0.178091059
   36    28.243813893    32.957773293    26.266780889    -0.449343295     0.175472358    -0.131529672
   37    28.749373254    35.570653177    28.203492148    -0.410103908     0.214486373    -0.189236309
   38    26.834421443    36.487859948    24.902630894    -0.426819510     0.197217439    -0.170089351
   39    29.020928144    36.183200662    24.328156885    -0.434180803     0.184754846    -0.165386448
   40    23.787338576    39.201956410    26.875121785    -0.407119425     0.223491503    -0.185216959
   41    27.286710619    32.393860974    24.316098898    -0.448422893     0.174569012    -0.135803422
   42    21.570820899    38.835448440    23.765132948    -0.417981672     0.199376032    -0.188521935
   43    25.108631626    37.420138934    25.909523959    -0.423691907     0.200105766    -0.174478796
   44    30.049026835    34.419480322    25.192862793    -0.435900590     0.185344058    -0.160119505
   45    25.388457644    39.936187772    25.368688044    -0.412601639     0.210440595    -0.188347135
   46    28.480484055    31.614691413    22.668429389    -0.446327768     0.181093908    -0.134151108
   47    27.904948085    32.184425152    30.233194119    -0.413664241     0.210378745    -0.186071704
   48    31.109863191    33.841275019    21.154296210    -0.407212711     0.228165887    -0.179215334
   49    24.349329628    35.693433627    22.244191038     0.417643413    -0.182689597     0.205422711
   50    27.504089653    39.767519962    27.365244949    -0.401983602     0.217832851    -0.202380909
   51    30.781059756    36.201132341    21.293629834    -0.418371752     0.196520036    -0.190643521
   52    30.488512326    39.963514099    21.994808463    -0.401963728     0.213102833    -0.207394176
   53    29.757738990    34.643675718    29.917821269    -0.406703651     0.224384965    -0.185050070
   54    25.916851222    32.750385006    30.229239008    -0.403571802     0.243596740    -0.166704617
   55    24.363074368    40.418694233    23.130645542    -0.403620686     0.221544722    -0.194957119
   56    27.474215901    34.411315884    30.094698255    -0.414043736     0.212132331    -0.183214789
   57    26.363882419    36.337483588    27.724466911    -0.416381167     0.207714015    -0.182979812
   58    25.236842765    30.625615403    27.514796582    -0.405077825     0.225879667    -0.186789538
   59    26.888572806    32.104645177    28.229910294    -0.411451347     0.218975926    -0.180989870
   60    29.993878725    36.783960337    29.475531543    -0.407428672     0.219152237    -0.189668591
   61    30.158756029    32.157456671    30.378941370    -0.422884099     0.205923085    -0.169601656
   62    29.990525224    37.673367133    22.813103437    -0.420451377     0.198352875    -0.184056449
   63    23.253104528    38.206998651    30.006939395    -0.399625888     0.227076192    -0.196813498
   64    24.593064012    39.528690805    21.073758234    -0.406191956     0.212162107    -0.199988337
   65    25.720009722    34.255314721    23.920710805    -0.376378929     0.267374231    -0.191963336
   66    22.118319297    37.137062171    28.514066753    -0.396220641     0.231712029    -0.198289534
   67    28.949302764    33.165966230    28.625862857    -0.413210347     0.221731385    -0.173471617
   68    22.112343570    32.696452340    25.725230790    -0.471071789     0.150998413    -0.072738221
   21    33.006205971    36.909762398    24.791733534     0.412090072    -0.204695221     0.195656943
   22    40.338511641    32.293384853    26.831660255    -0.457572156     0.168551347    -0.110535809
   23    40.222585223    39.820710565    27.696499886    -0.408503561     0.217852832    -0.188851752
   24    35.169375796    34.708424213    28.524611306    -0.417397265     0.202027497    -0.186987737
   25    36.448034606    30.952274495    21.809627377    -0.402122183     0.223017951    -0.196368896
   26    33.007260564    31.534652378    28.346772585    -0.104203471    -0.382730549     0.304399348
   27    31.671883741    33.534910855    23.634976010    -0.417043152     0.213916979    -0.174110698
   28    38.665044458    35.973724602    21.904254874    -0.423237667     0.198213283    -0.177711484
   29    39.377674280    38.626537505    25.983769700    -0.400660363     0.224687543    -0.197450707
   30    38.147641010    39.540198885    22.680814974    -0.413566580     0.217099762    -0.178410697
   31    36.660010071    40.503949577    29.695206190    -0.406984352     0.227606596    -0.180441057
   32    38.786884960    31.154936814    28.924134692    -0.405794310     0.227143231    -0.183676156
   33    31.850108291    38.529263402    26.326352077    -0.408265826     0.225050935    -0.180751466
   34    41.447412262    33.514029363    29.044584552    -0.483339436    -0.104441288     0.073993289
   35    38.819701474    38.115673629    21.220797051    -0.415902272     0.212845000    -0.178107570
   36    38.333469842    33.102433504    26.554867758    -0.449333871     0.175525287    -0.131491240
   37    38.839029203    35.715313389    28.491579017    -0.410096381     0.214488686    -0.189249999
   38    36.924077393    36.632520160    25.190717763    -0.426812884     0.197223140    -0.170099369
   39    39.110584094    36.327860874    24.616243754    -0.434170714     0.184762989    -0.165403835
   40    33.876994526    39.346616621    27.163208655    -0.407120928     0.223493789    -0.185210896
   41    37.376366569    32.538521185    24.604185768    -0.448413499     0.174616593    -0.135773265
   42    31.660476849    38.980108651    24.053219818    -0.417990830     0.199377842    -0.188499714
   43    35.198287576    37.564799145    26.197610829    -0.423686733     0.200111066    -0.174485281
   44    40.138682784    34.564140534    25.480949662    -0.435888922     0.185354852    -0.160138772
   45    35.478113594    40.080847984    25.656774914    -0.412601894     0.210443196    -0.188343670
   46    38.570140004    31.759351625    22.956516259    -0.446318514     0.181134152    -0.134127564
   47    37.994604035    32.329085364    30.521280988    -0.413658723     0.210389853    -0.186071414
   48    41.199519141    33.985935231    21.442383080    -0.407197697     0.228176125    -0.179236413
   49    34.438985578    35.838093838    22.532277908     0.417629363    -0.182598288     0.205532431
   50    37.593745603    39.912180174    27.653331819    -0.401984739     0.217833168    -0.202378311
   51    40.870715706    36.345792553    21.581716704    -0.418359493     0.196529192    -0.190660984
   52    40.578168276    40.108174310    22.282895332    -0.401953302     0.213107357    -0.207409734
   53    39.847394940    34.788335930    30.205908139    -0.406695941     0.224382551    -0.185069939
   54    36.006507172    32.895045218    30.517325877    -0.403565041     0.243607972    -0.166704570
   55    34.452730317    40.563354445    23.418732412    -0.403621079     0.221546962    -0.194953759
   56    37.563871851    34.555976096    30.382785124    -0.414037158     0.212140544    -0.183220144
   57    36.453538369    36.482143800    28.012553781    -0.416375149     0.207718348    -0.182988588
   58    35.326498714    30.770275615    27.802883452    -0.405071016     0.225897749    -0.186782438
   59    36.978228755    32.249305389    28.517997164    -0.411443952     0.218994091    -0.180984702
   60    40.083534675    36.928620549    29.763618413    -0.407422897     0.219151728    -0.189681583
   61    40.248411979    32.302116883    30.667028239    -0.422879924     0.205936757    -0.169595465
   62    40.080181174    37.818027345    23.101190307    -0.420440044     0.198359226    -0.184075493
   63    33.342760478    38.351658863    30.295026265    -0.399631639     0.227076323    -0.196801667
   64    34.682719962    39.673351017    21.361845104    -0.406193238     0.212164699    -0.199982984
   65    35.809665671    34.399974932    24.208797675    -0.375701531     0.268224898    -0.192103522
   66    32.207975247    37.281722383    28.802153622    -0.396226759     0.231713309    -0.198275812
   67    39.038958714    33.310626442    28.913949727    -0.413203611     0.221736838    -0.173480692
   68    32.201999520    32.841112552    26.013317659    -0.471069595     0.150990215    -0.072769444
   21     2.618882879     6.432636937    33.847582017     0.412090262    -0.204676930     0.195675677
   22     9.951188550     1.816259391    35.887508737    -0.457583725     0.168509140    -0.110552268
   23     9.835262131     9.343585103    36.752348368    -0.408503033     0.217852278    -0.188853532
   24     4.782052705     4.231298751    37.580459788    -0.417402004     0.202014337    -0.186991375
   25     6.060711515     0.475149034    30.865475860    -0.402127482     0.223003533    -0.196374419
   26     2.619937472     1.057526916    37.402621067    -0.104307053    -0.382314931     0.304885769
   27     1.284560649     3.057785394    32.690824492    -0.417036615     0.213881913    -0.174169426
   28     8.277721367     5.496599141    30.960103356    -0.423243322     0.198202758    -0.177709754
   29     8.990351188     8.149412043    35.039618182    -0.400658257     0.224688134    -0.197454307
   30     7.760317918     9.063073424    31.736663457    -0.413572885     0.217088623    -0.178409636
   31     6.272686979    10.026824116    38.751054672    -0.406983061     0.227602004    -0.180449761
   32     8.399561868     0.677811353    37.979983174    -0.405800209     0.227127628    -0.183682420
   33     1.462785200     8.052137940    35.382200559    -0.408264704     0.225034378    -0.180774611
   34    11.060089171     3.036903901    38.100433034    -0.483325046    -0.104579509     0.073891993
   35     8.432378382     7.638548167    30.276645533    -0.415908039     0.212834334    -0.178106848
   36     7.946146751     2.625308043    35.610716241    -0.449343203     0.175493920    -0.131501217
   37     8.451706112     5.238187928    37.547427500    -0.410102763     0.214475921    -0.189250635
   38     6.536754302     6.155394698    34.246566246    -0.426816315     0.197211372    -0.170104403
   39     8.723261002     5.850735412    33.672092237    -0.434176147     0.184750864    -0.165403118
   40     3.489671434     8.869491160    36.219057137    -0.407119711     0.223480529    -0.185229570
   41     6.989043478     2.061395724    33.660034250    -0.448422929     0.174586861    -0.135780355
   42     1.273153757     8.502983190    33.109068300    -0.417987886     0.199361677    -0.188523339
   43     4.810964485     7.087673684    35.253459311    -0.423689334     0.200099248    -0.174492519
   44     9.751359693     4.087015073    34.536798145    -0.435895156     0.185341794    -0.160136916
   45     5.090790502     9.603722522    34.712623396    -0.412600965     0.210433489    -0.188356550
   46     8.182816913     1.282226163    32.012364741    -0.446327560     0.181107574    -0.134133350
   47     7.607280943     1.851959902    39.577129471    -0.413663630     0.210376226    -0.186075911
   48    10.812196049     3.508809770    30.498231562    -0.407204549     0.228166909    -0.179232578
   49     4.051662487     5.360968377    31.588126390     0.417746556    -0.182599073     0.205293432
   50     7.206422511     9.435054713    36.709180301    -0.401981097     0.217829772    -0.202389199
   51    10.483392615     5.868667091    30.637565186    -0.418365369     0.196517253    -0.190660397
   52    10.190845185     9.631048849    31.338743815    -0.401958715     0.213096301    -0.207410602
   53     9.460071848     4.311210468    39.261756621    -0.406702110     0.224372033    -0.185069134
   54     5.619184080     2.417919756    39.573174360    -0.403570704     0.243593752    -0.166711639
   55     4.065407226    10.086228983    32.474580894    -0.403621511     0.221536821    -0.194964389
   56     7.176548759     4.078850634    39.438633607    -0.414042832     0.212125849    -0.183224336
   57     6.066215277     6.005018338    37.068402263    -0.416379646     0.207706079    -0.182992281
   58     4.939175623     0.293150153    36.858731934    -0.405075648     0.225874315    -0.186800730
   59     6.590905664     1.772179927    37.573845646    -0.411450241     0.218972912    -0.180996030
   60     9.696211583     6.451495087    38.819466895    -0.407429491     0.219138547    -0.189682648
   61     9.861088887     1.824991422    39.722876722    -0.422884851     0.205920296    -0.169603168
   62     9.692858082     7.340901883    32.157038789    -0.420445461     0.198348465    -0.184074716
   63     2.955437386     7.874533401    39.350874747    -0.399631831     0.227061327    -0.196818580
   64     4.295396870     9.196225555    30.417693586    -0.406193019     0.212154465    -0.199994286
   65     5.422342580     3.922849471    33.264646157    -0.376046837     0.267816521    -0.191997624
   66     1.820652155     6.804596922    37.858002105    -0.396225562     0.231697454    -0.198296732
   67     8.651635622     2.833500981    37.969798209    -0.413209654     0.221724552    -0.173482001
   68     1.814676428     2.363987091    35.069166142    -0.471054160     0.151087687    -0.072666972
   21    12.708538829     6.577297148    34.135668886     0.412084112    -0.204688745     0.195676269
   22    20.040844499     1.960919603    36.175595606    -0.457587474     0.168465174    -0.110603748
   23    19.924918081     9.488245315    37.040435238    -0.408511065     0.217835738    -0.188855237
   24    14.871708655     4.375958963    37.868546658    -0.417402815     0.202015599    -0.186988202
   25    16.150367465     0.619809245    31.153562729    -0.402124662     0.223002307    -0.196381585
   26    12.709593422     1.202187128    37.690707937    -0.104026951    -0.382511060     0.304735430
   27    11.374216599     3.202445605    32.978911362    -0.417032718     0.213893982    -0.174163937
   28    18.367377317     5.641259352    31.248190226    -0.423242716     0.198196613    -0.177718052
   29    19.080007138     8.294072255    35.327705052    -0.400666917     0.224672015    -0.197455077
   30    17.849973868     9.207733635    32.024750326    -0.413573082     0.217084039    -0.178414758
   31    16.362342929    10.171484328    39.039141541    -0.406991346     0.227590373    -0.180445743
   32    18.489217818     0.822471564    38.268070044    -0.405799360     0.227128265    -0.183683506
   33    11.552441149     8.196798152    35.670287429    -0.408265268     0.225041936    -0.180763929
   34    21.149745120     3.181564113    38.388519904    -0.483332743    -0.104676914     0.073703482
   35    18.522034332     7.783208379    30.564732403    -0.415907856     0.212828588    -0.178114142
   36    18.035802701     2.769968254    35.898803110    -0.449345026     0.175466450    -0.131531640
   37    18.541362062     5.382848139    37.835514369    -0.410102961     0.214479823    -0.189245785
   38    16.626410251     6.300054910    34.534653115    -0.426819557     0.197208506    -0.170099591
   39    18.812916952     5.995395624    33.960179106    -0.434179071     0.184743676    -0.165403472
   40    13.579327384     9.014151371    36.507144007    -0.407124876     0.223480828    -0.185217858
   41    17.078699427     2.206055935    33.948121120    -0.448423583     0.174564412    -0.135807054
   42    11.362809707     8.647643401    33.397155170    -0.417985969     0.199372293    -0.188516361
   43    14.900620434     7.232333895    35.541546181    -0.423692940     0.200096855    -0.174486507
   44    19.841015643     4.231675284    34.824885014    -0.435899440     0.185331291    -0.160137412
   45    15.180446452     9.748382734    35.000710266    -0.412606474     0.210429837    -0.188348563
   46    18.272472863     1.426886375    32.300451611    -0.446327484     0.181091245    -0.134155648
   47    17.696936893     1.996620114    39.865216340    -0.413661716     0.210379418    -0.186076557
   48    20.901851999     3.653469981    30.786318432    -0.407204947     0.228155851    -0.179245749
   49    14.141318436     5.505628588    31.876213260     0.417613133    -0.182645502     0.205523458
   50    17.296078461     9.579714924    36.997267171    -0.401990711     0.217817725    -0.202383070
   51    20.573048564     6.013327303    30.925652056    -0.418365872     0.196510979    -0.190665761
   52    20.280501134     9.775709060    31.626830684    -0.401959755     0.213094012    -0.207410939
   53    19.549727798     4.455870680    39.549843491    -0.406702512     0.224379249    -0.185059503
   54    15.708840030     2.562579968    39.861261229    -0.403566414     0.243601276    -0.166711031
   55    14.155063176    10.230889195    32.762667764    -0.403623562     0.221536978    -0.194959965
   56    17.266204709     4.223510846    39.726720476    -0.414041450     0.212131197    -0.183221268
   57    16.155871227     6.149678550    37.356489133    -0.416381041     0.207706668    -0.182988439
   58    15.028831573     0.437810365    37.146818804    -0.405077047     0.225876994    -0.186794458
   59    16.680561614     1.916840139    37.861932516    -0.411450231     0.218974013    -0.180994721
   60    19.785867533     6.596155299    39.107553765    -0.407429656     0.219142068    -0.189678226
   61    19.950744837     1.969651633    40.010963591    -0.422881801     0.205922872    -0.169607644
   62    19.782514032     7.485562095    32.445125659    -0.420447334     0.198342548    -0.184076812
   63    13.045093336     8.019193613    39.638961617    -0.399634981     0.227062181    -0.196811198
   64    14.385052820     9.340885767    30.705780456    -0.406194440     0.212155218    -0.199990601
   65    15.511998530     4.067509683    33.552733027    -0.376343708     0.267227073    -0.192237105
   66    11.910308105     6.949257133    38.146088974    -0.396229053     0.231698974    -0.198287980
   67    18.741291572     2.978161192    38.257885079    -0.413209401     0.221727389    -0.173478977
   68    11.904332378     2.508647302    35.357253011    -0.471064570     0.151050734    -0.072676316
   21    22.798194779     6.721957360    34.423755756     0.412086331    -0.204689634     0.195670667
   22    30.130500449     2.105579815    36.463682476    -0.457578439     0.168510526    -0.110572033
   23    30.014574031     9.632905526    37.328522107    -0.408515486     0.217850885    -0.188828203
   24    24.961364604     4.520619174    38.156633528    -0.417400996     0.202019484    -0.186988065
   25    26.240023414     0.764469457    31.441649599    -0.402129577     0.223003145    -0.196370570
   26    22.799249372     1.346847340    37.978794806    -0.104252733    -0.382719729     0.304396085
   27    21.463872549     3.347105817    33.266998231    -0.417041145     0.213894115    -0.174143592
   28    28.457033266     5.785919564    31.536277096    -0.423246555     0.198199648    -0.177705523
   29    29.169663088     8.438732467    35.615791922    -0.400674330     0.224684411    -0.197425927
   30    27.939629818     9.352393847    32.312837196    -0.413574370     0.217090949    -0.178403363
   31    26.451998879    10.316144539    39.327228411    -0.406992699     0.227599802    -0.180430799
   32    28.578873768     0.967131776    38.556156913    -0.405796334     0.227136255    -0.183680312
   33    21.642097099     8.341458364    35.958374298    -0.408267486     0.225038933    -0.180762658
   34    31.239401070     3.326224325    38.676606773    -0.483338282    -0.104554158     0.073841268
   35    28.611690282     7.927868590    30.852819272    -0.415910631     0.212832604    -0.178102864
   36    28.125458650     2.914628466    36.186889980    -0.449340619     0.175495130    -0.131508430
   37    28.631018011     5.527508351    38.123601239    -0.410102543     0.214479776    -0.189246743
   38    26.716066201     6.444715122    34.822739985    -0.426817843     0.197212817    -0.170098894
   39    28.902572902     6.140055835    34.248265976    -0.434178723     0.184748287    -0.165399235
   40    23.668983334     9.158811583    36.795230876    -0.407123764     0.223484321    -0.185216088
   41    27.168355377     2.350716147    34.236207989    -0.448421460     0.174587982    -0.135783765
   42    21.452465657     8.792303613    33.685242040    -0.417988481     0.199366405    -0.188517019
   43    24.990276384     7.376994107    35.829633050    -0.423690858     0.200101777    -0.174485918
   44    29.930671592     4.376335496    35.112971884    -0.435897868     0.185339131    -0.160132618
   45    25.270102402     9.893042946    35.288797136    -0.412604277     0.210436401    -0.188346041
   46    28.362128812     1.571546586    32.588538481    -0.446326550     0.181110082    -0.134133324
   47    27.786592843     2.141280326    40.153303210    -0.413661213     0.210381067    -0.186075811
   48    30.991507949     3.798130193    31.074405302    -0.407210046     0.228158636    -0.179230619
   49    24.230974386     5.650288800    32.164300129     0.417638149    -0.182761510     0.205369440
   50    27.385734411     9.724375136    37.285354040    -0.401991150     0.217828576    -0.202370518
   51    30.662704514     6.157987514    31.213738926    -0.418369064     0.196514630    -0.190654994
   52    30.370157084     9.920369272    31.914917554    -0.401960294     0.213098839    -0.207404935
   53    29.639383748     4.600530891    39.837930360    -0.406701169     0.224377533    -0.185064534
   54    25.798495980     2.707240179    40.149348099    -0.403564719     0.243604358    -0.166710631
   55    24.244719125    10.375549407    33.050754633    -0.403620745     0.221541420    -0.194960749
   56    27.355860659     4.368171057    40.014807346    -0.414039637     0.212133685    -0.183222485
   57    26.245527177     6.294338761    37.644576002    -0.416379587     0.207709669    -0.182988340
   58    25.118487522     0.582470577    37.434905673    -0.405071928     0.225892739    -0.186786520
   59    26.770217563     2.061500351    38.150019386    -0.411445830     0.218987092    -0.180988902
   60    29.875523483     6.740815511    39.395640635    -0.407429678     0.219141172    -0.189679214
   61    30.040400787     2.114311845    40.299050461    -0.422882859     0.205924315    -0.169603255
   62    29.872169982     7.630222307    32.733212529    -0.420449588     0.198346630    -0.184067266
   63    23.134749286     8.163853824    39.927048486    -0.399634968     0.227066038    -0.196806775
   64    24.474708770     9.485545978    30.993867325    -0.406191251     0.212159329    -0.199992717
   65    25.601654479     4.212169894    33.840819896    -0.376207969     0.267622664    -0.191952271
   66    21.999964055     7.093917345    38.434175844    -0.396229020     0.231702764    -0.198283618
   67    28.830947522     3.122821404    38.545971948    -0.413207033     0.221730699    -0.173480388
   68    21.993988328     2.653307514    35.645339881    -0.471070875     0.150991642    -0.072758194
   21    32.887850729     6.866617572    34.711842625     0.412089708    -0.204683196     0.195670288
   22    40.220156399     2.250240026    36.751769346    -0.457574859     0.168532954    -0.110552667
   23    40.104229981     9.777565738    37.616608977    -0.408507407     0.217827755    -0.188872358
   24    35.051020554     4.665279386    38.444720397    -0.417399429     0.202011995    -0.186999654
   25    36.329679364     0.909129668    31.729736468    -0.402128832     0.223003545    -0.196371642
   26    32.888905321     1.491507551    38.266881676    -0.104397120    -0.382383485     0.304768948
   27    31.553528499     3.491766029    33.555085101    -0.417041047     0.213890130    -0.174148722
   28    38.546689216     5.930579776    31.824363965    -0.423244687     0.198199062    -0.177710626
   29    39.259319038     8.583392678    35.903878791    -0.400665337     0.224663564    -0.197467898
   30    38.029285767     9.497054058    32.600924065    -0.413571954     0.217085243    -0.178415908
   31    36.541654829    10.460804751    39.615315281    -0.406987237     0.227579214    -0.180469085
   32    38.668529717     1.111791988    38.844243783    -0.405796959     0.227126971    -0.183690410
   33    31.731753049     8.486118575    36.246461168    -0.408268392     0.225036933    -0.180763101
   34    41.329057020     3.470884536    38.964693643    -0.483333700    -0.104494366     0.073955813
   35    38.701346232     8.072528802    31.140906142    -0.415908844     0.212829644    -0.178110572
   36    38.215114600     3.059288678    36.474976850    -0.449336886     0.175507100    -0.131505211
   37    38.720673961     5.672168562    38.411688108    -0.410100322     0.214471811    -0.189260584
   38    36.805722151     6.589375333    35.110826855    -0.426816241     0.197206910    -0.170109763
   39    38.992228851     6.284716047    34.536352845    -0.434175743     0.184747147    -0.165408329
   40    33.758639284     9.303471795    37.083317746    -0.407124625     0.223475817    -0.185224456
   41    37.258011327     2.495376359    34.524294859    -0.448416962     0.174597624    -0.135786220
   42    31.542121607     8.936963825    33.973328909    -0.417991636     0.199367912    -0.188508428
   43    35.079932334     7.521654319    36.117719920    -0.423689884     0.200093714    -0.174497531
   44    40.020327542     4.520995708    35.401058754    -0.435894444     0.185339268    -0.160141779
   45    35.359758352    10.037703157    35.576884005    -0.412603862     0.210423925    -0.188360890
   46    38.451784762     1.716206798    32.876625350    -0.446322302     0.181116391    -0.134138942
   47    37.876248792     2.285940537    40.441390080    -0.413659580     0.210375380    -0.186085871
   48    41.081163898     3.942790405    31.362492171    -0.407206535     0.228164729    -0.179230841
   49    34.320630336     5.794949012    32.452386999     0.417707163    -0.182581175     0.205389485
   50    37.475390360     9.869035348    37.573440910    -0.401985505     0.217807860    -0.202404026
   51    40.752360464     6.302647726    31.501825795    -0.418366053     0.196512456    -0.190663842
   52    40.459813034    10.065029484    32.203004424    -0.401959741     0.213091552    -0.207413492
   53    39.729039697     4.745191103    40.126017230    -0.406699875     0.224366678    -0.185080538
   54    35.888151929     2.851900391    40.437434969    -0.403568655     0.243589680    -0.166722550
   55    34.334375075    10.520209618    33.338841503    -0.403621689     0.221535078    -0.194966000
   56    37.445516608     4.512831269    40.302894216    -0.414039502     0.212124229    -0.183233737
   57    36.335183127     6.438998973    37.932662872    -0.416377458     0.207703240    -0.183000482
   58    35.208143472     0.727130788    37.722992543    -0.405072412     0.225879280    -0.186801745
   59    36.859873513     2.206160562    38.438106255    -0.411446599     0.218975734    -0.181000896
   60    39.965179432     6.885475722    39.683727504    -0.407427801     0.219134938    -0.189690449
   61    40.130056736     2.258972057    40.587137330    -0.422880761     0.205921545    -0.169611848
   62    39.961825932     7.774882518    33.021299398    -0.420446467     0.198342473    -0.184078873
   63    33.224405235     8.308514036    40.215135356    -0.399634503     0.227061019    -0.196813510
   64    34.564364719     9.630206190    31.281954195    -0.406192577     0.212154980    -0.199994637
   65    35.691310429     4.356830106    34.128906766    -0.376088485     0.267714719    -0.192058015
   66    32.089620005     7.238577557    38.722262713    -0.396229566     0.231699168    -0.198286727
   67    38.920603471     3.267481616    38.834058818    -0.413206202     0.221722016    -0.173493465
   68    32.083644278     2.797967725    35.933426750    -0.471058257     0.151054923    -0.072708522
   21     2.753958350    16.457730458    33.878207440     0.412085164    -0.204694042     0.195668512
   22    10.086264021    11.841352912    35.918134160    -0.457586741     0.168496659    -0.110558809
   23     9.970337602    19.368678624    36.782973792    -0.408513219     0.217832186    -0.188854676
   24     4.917128176    14.256392272    37.611085212    -0.417403703     0.202010300    -0.186991944
   25     6.195786986    10.500242555    30.896101283    -0.402130923     0.222997277    -0.196374478
   26     2.755012943    11.082620437    37.433246491    -0.104537030    -0.382828536     0.304161670
   27     1.419636120    13.082878915    32.721449916    -0.417043917     0.213909486    -0.174118074
   28     8.412796838    15.521692662    30.990728780    -0.423246076     0.198184981    -0.177723021
   29     9.125426659    18.174505564    35.070243606    -0.400670689     0.224663798    -0.197456772
   30     7.895393389    19.088166945    31.767288880    -0.413574431     0.217075149    -0.178422446
   31     6.407762451    20.051917637    38.781680095    -0.406996819     0.227577131    -0.180450101
   32     8.534637339    10.702904874    38.010608598    -0.405800122     0.227128378    -0.183681685
   33     1.597860671    18.077231461    35.412825983    -0.408267971     0.225038783    -0.180761750
   34    11.195164642    13.061997422    38.131058457    -0.483321468    -0.104622245     0.073854886
   35     8.567453853    17.663641688    30.307270957    -0.415911096     0.212818232    -0.178118949
   36     8.081222222    12.650401564    35.641341664    -0.449346399     0.175482921    -0.131504974
   37     8.586781583    15.263281449    37.578052923    -0.410106236     0.214469959    -0.189249868
   38     6.671829773    16.180488219    34.277191669    -0.426819141     0.197201384    -0.170108892
   39     8.858336473    15.875828933    33.702717660    -0.434178330     0.184737397    -0.165412430
   40     3.624746905    18.894584681    36.249682561    -0.407126701     0.223476150    -0.185219491
   41     7.124118949    12.086489245    33.690659674    -0.448426285     0.174576750    -0.135782271
   42     1.408229228    18.528076711    33.139693724    -0.417988941     0.199370751    -0.188511403
   43     4.946039956    17.112767205    35.284084735    -0.423692560     0.200090313    -0.174494932
   44     9.886435164    14.112108594    34.567423568    -0.435897676     0.185327791    -0.160146263
   45     5.225865974    19.628816043    34.743248820    -0.412606845     0.210422380    -0.188356082
   46     8.317892384    11.307319684    32.042990165    -0.446331091     0.181098226    -0.134134221
   47     7.742356414    11.877053423    39.607754894    -0.413664043     0.210371511    -0.186080325
   48    10.947271520    13.533903291    30.528856986    -0.407208495     0.228145606    -0.179250730
   49     4.186737958    15.386061898    31.618751814     0.417608143    -0.182718305     0.205468879
   50     7.341497982    19.460148234    36.739805725    -0.401992873     0.217810535    -0.202386513
   51    10.618468086    15.893760612    30.668190610    -0.418368410     0.196500854    -0.190670626
   52    10.325920656    19.656142370    31.369369238    -0.401959431     0.213083518    -0.207422348
   53     9.595147319    14.336303989    39.292382045    -0.406706452     0.224365835    -0.185067106
   54     5.754259551    12.443013277    39.603799783    -0.403565600     0.243598043    -0.166717725
   55     4.200482697    20.111322504    32.505206318    -0.403622472     0.221529711    -0.194970478
   56     7.311624230    14.103944155    39.469259030    -0.414042540     0.212125042    -0.183225931
   57     6.201290749    16.030111859    37.099027686    -0.416382271     0.207700125    -0.182993067
   58     5.074251094    10.318243674    36.889357358    -0.405074249     0.225890200    -0.186784556
   59     6.725981135    11.797273448    37.604471070    -0.411449147     0.218980451    -0.180989397
   60     9.831287054    16.476588608    38.850092319    -0.407433921     0.219131924    -0.189680785
   61     9.996164358    11.850084943    39.753502145    -0.422886397     0.205911710    -0.169609738
   62     9.827933554    17.365995404    32.187664213    -0.420448653     0.198333401    -0.184083655
   63     3.090512857    17.899626922    39.381500171    -0.399634798     0.227059821    -0.196814292
   64     4.430472341    19.221319076    30.448319010    -0.406192515     0.212149425    -0.200000655
   65     5.557418051    13.947942992    33.295271581    -0.376006647     0.267869362    -0.192002620
   66     1.955727626    16.829690443    37.888627528    -0.396229340     0.231696027    -0.198290851
   67     8.786711093    12.858594502    38.000423632    -0.413211421     0.221720870    -0.173482498
   68     1.949751899    12.389080612    35.099791565    -0.471076763     0.150932354    -0.072843037
   21    12.843614300    16.602390669    34.166294310     0.412088181    -0.204680589     0.195676231
   22    20.175919970    11.986013124    36.206221030    -0.457597599     0.168435423    -0.110607170
   23    20.059993552    19.513338836    37.071060661    -0.408507178     0.217849941    -0.188847262
   24    15.006784126    14.401052484    37.899172082    -0.417406635     0.202010040    -0.186985681
   25    16.285442936    10.644902766    31.184188153    -0.402131515     0.222997665    -0.196372823
   26    12.844668893    11.227280649    37.721333360    -0.104095780    -0.382631708     0.304560413
   27    11.509292070    13.227539126    33.009536785    -0.417035601     0.213877437    -0.174177352
   28    18.502452788    15.666352873    31.278815650    -0.423250691     0.198186535    -0.177710297
   29    19.215082609    18.319165776    35.358330476    -0.400665274     0.224682735    -0.197446212
   30    17.985049339    19.232827156    32.055375750    -0.413577784     0.217081553    -0.178406883
   31    16.497418400    20.196577849    39.069766965    -0.406987453     0.227597394    -0.180445669
   32    18.624293289    10.847565085    38.298695467    -0.405807928     0.227117505    -0.183677883
   33    11.687516620    18.221891673    35.700912852    -0.408267411     0.225033646    -0.180769409
   34    21.284820591    13.206657634    38.419145327    -0.483316737    -0.104776934     0.073666316
   35    18.657109803    17.808301900    30.595357826    -0.415914734     0.212821238    -0.178106864
   36    18.170878172    12.795061775    35.929428534    -0.449352581     0.175448095    -0.131530315
   37    18.676437533    15.407941660    37.866139793    -0.410107690     0.214474484    -0.189241588
   38    16.761485722    16.325148431    34.565278539    -0.426820903     0.197204968    -0.170100316
   39    18.947992423    16.020489145    33.990804530    -0.434182335     0.184738440    -0.165400753
   40    13.714402855    19.039244892    36.537769430    -0.407123766     0.223478640    -0.185222937
   41    17.213774899    12.231149456    33.978746543    -0.448431251     0.174548855    -0.135801733
   42    11.497885178    18.672736922    33.427780593    -0.417990267     0.199356922    -0.188523087
   43    15.035695905    17.257427416    35.572171604    -0.423693544     0.200094029    -0.174488282
   44    19.976091114    14.256768805    34.855510438    -0.435902897     0.185325856    -0.160134292
   45    15.315521923    19.773476255    35.031335690    -0.412605265     0.210428679    -0.188352506
   46    18.407548334    11.451979896    32.331077034    -0.446334761     0.181077966    -0.134149364
   47    17.832012364    12.021713635    39.895841764    -0.413668453     0.210367020    -0.186075596
   48    21.036927470    13.678563502    30.816943855    -0.407212287     0.228145743    -0.179241940
   49    14.276393908    15.530722109    31.906838683     0.417637564    -0.182728025     0.205400423
   50    17.431153932    19.604808445    37.027892594    -0.401985600     0.217825366    -0.202384999
   51    20.708124035    16.038420824    30.956277480    -0.418372230     0.196503958    -0.190659046
   52    20.415576605    19.800802581    31.657456108    -0.401963398     0.213089848    -0.207408155
   53    19.684803269    14.480964201    39.580468914    -0.406707522     0.224375239    -0.185053354
   54    15.843915501    12.587673489    39.891886653    -0.403575921     0.243586904    -0.166709017
   55    14.290138647    20.255982716    32.793293187    -0.403624481     0.221531921    -0.194963807
   56    17.401280180    14.248604367    39.757345900    -0.414048310     0.212120468    -0.183218187
   57    16.290946698    16.174772071    37.387114556    -0.416384716     0.207700993    -0.182986518
   58    15.163907044    10.462903886    37.177444227    -0.405084404     0.225872603    -0.186783814
   59    16.815637085    11.941933660    37.892557939    -0.411457867     0.218966189    -0.180986827
   60    19.920943004    16.621248820    39.138179189    -0.407432487     0.219140023    -0.189674508
   61    20.085820308    11.994745154    40.041589015    -0.422888008     0.205908695    -0.169609381
   62    19.917589503    17.510655616    32.475751082    -0.420451948     0.198338183    -0.184070976
   63    13.180168807    18.044287134    39.669587040    -0.399634106     0.227062728    -0.196812344
   64    14.520128291    19.365979288    30.736405879    -0.406195641     0.212148972    -0.199994787
   65    15.647074001    14.092603204    33.583358450    -0.376347435     0.267504854    -0.191843064
   66    12.045383576    16.974350654    38.176714398    -0.396230211     0.231696486    -0.198288573
   67    18.876367043    13.003254713    38.288510502    -0.413215580     0.221720138    -0.173473528
   68    12.039407849    12.533740823    35.387878435    -0.471068575     0.151033290    -0.072686609
   21    22.933270250    16.747050881    34.454381179     0.412094577    -0.204680849     0.195662490
   22    30.265575920    12.130673336    36.494307900    -0.457593518     0.168530870    -0.110478586
   23    30.149649502    19.657999047    37.359147531    -0.408507585     0.217840018    -0.188857830
   24    25.096440076    14.545712695    38.187258951    -0.417409121     0.202009586    -0.186980622
   25    26.375098886    10.789562978    31.472275022    -0.402128875     0.223003478    -0.196371628
   26    22.934324843    11.371940861    38.009420230    -0.104140122    -0.382860396     0.304257707
   27    21.598948020    13.372199338    33.297623655    -0.417038630     0.213902447    -0.174139381
   28    28.592108738    15.811013085    31.566902519    -0.423245707     0.198194331    -0.177713474
   29    29.304738559    18.463825988    35.646417345    -0.400664895     0.224674733    -0.197456087
   30    28.074705289    19.377487368    32.343462619    -0.413575313     0.217082445    -0.178411526
   31    26.587074350    20.341238060    39.357853835    -0.406989508     0.227586869    -0.180454308
   32    28.713949239    10.992225297    38.586782337    -0.405810436     0.227125239    -0.183662778
   33    21.777172570    18.366551885    35.988999722    -0.408269517     0.225035411    -0.180762456
   34    31.374476541    13.351317846    38.707232197    -0.483308145    -0.104480935     0.074141560
   35    28.746765753    17.952962111    30.883444696    -0.415911044     0.212827525    -0.178107968
   36    28.260534121    12.939721987    36.217515403    -0.449352852     0.175502301    -0.131457053
   37    28.766093482    15.552601872    38.154226662    -0.410108106     0.214471351    -0.189244236
   38    26.851141672    16.469808643    34.853365409    -0.426822329     0.197203447    -0.170098500
   39    29.037648373    16.165149356    34.278891399    -0.434179998     0.184744182    -0.165400474
   40    23.804058805    19.183905104    36.825856300    -0.407126881     0.223475327    -0.185220087
   41    27.303430848    12.375809668    34.266833413    -0.448431314     0.174592691    -0.135745163
   42    21.587541128    18.817397134    33.715867463    -0.417992086     0.199362921    -0.188512711
   43    25.125351855    17.402087628    35.860258474    -0.423695827     0.200091450    -0.174485695
   44    30.065747063    14.401429017    35.143597308    -0.435898860     0.185335798    -0.160133774
   45    25.405177873    19.918136467    35.319422559    -0.412607530     0.210424196    -0.188352553
   46    28.497204284    11.596640107    32.619163904    -0.446334135     0.181112812    -0.134104398
   47    27.921668314    12.166373847    40.183928634    -0.413672396     0.210371940    -0.186061269
   48    31.126583420    13.823223714    31.105030725    -0.407206912     0.228155850    -0.179241288
   49    24.366049857    15.675382321    32.194925553     0.417733569    -0.182807359     0.205134431
   50    27.520809882    19.749468657    37.315979464    -0.401988483     0.217813245    -0.202392315
   51    30.797779985    16.183081035    31.244364349    -0.418368328     0.196510416    -0.190660952
   52    30.505232555    19.945462793    31.945542978    -0.401963399     0.213086975    -0.207411107
   53    29.774459219    14.625624412    39.868555784    -0.406706577     0.224365386    -0.185067378
   54    25.933571451    12.732333700    40.179973523    -0.403583714     0.243584584    -0.166693538
   55    24.379794596    20.400642928    33.081380057    -0.403628677     0.221527120    -0.194960575
   56    27.490936130    14.393264578    40.045432770    -0.414050889     0.212121547    -0.183211109
   57    26.380602648    16.319432282    37.675201426    -0.416386915     0.207699669    -0.182983017
   58    25.253562993    10.607564098    37.465531097    -0.405084871     0.225885842    -0.186766788
   59    26.905293034    12.086593872    38.180644809    -0.411459681     0.218977144    -0.180969450
   60    30.010598954    16.765909032    39.426266058    -0.407432754     0.219136484    -0.189678022
   61    30.175476258    12.139405366    40.329675884    -0.422893604     0.205916748    -0.169585650
   62    30.007245453    17.655315828    32.763837952    -0.420448627     0.198342216    -0.184074218
   63    23.269824757    18.188947345    39.957673910    -0.399635482     0.227063423    -0.196808747
   64    24.609784241    19.510639499    31.024492749    -0.406199891     0.212145407    -0.199989936
   65    25.736729950    14.237263415    33.871445320    -0.376166063     0.267584376    -0.192087726
   66    22.135039526    17.119010866    38.464801267    -0.396230741     0.231700107    -0.198283283
   67    28.966022993    13.147914925    38.576597372    -0.413216189     0.221719899    -0.173472383
   68    22.129063799    12.678401035    35.675965304    -0.471084205     0.150945489    -0.072767653
   21    33.022926200    16.891711093    34.742468049     0.412091696    -0.204681938     0.195667418
   22    40.355231870    12.275333547    36.782394769    -0.457588991     0.168425846    -0.110657352
   23    40.239305452    19.802659259    37.647234400    -0.408507218     0.217859051    -0.188836667
   24    35.186096025    14.690372907    38.475345821    -0.417403790     0.202005714    -0.186996706
   25    36.464754835    10.934223190    31.760361892    -0.402127925     0.222999300    -0.196378320
   26    33.023980792    11.516601072    38.297507099    -0.104323557    -0.382162369     0.305071334
   27    31.688603970    13.516859550    33.585710525    -0.417030806     0.213873286    -0.174193928
   28    38.681764687    15.955673297    31.854989389    -0.423245449     0.198197418    -0.177710646
   29    39.394394509    18.608486199    35.934504215    -0.400664486     0.224694317    -0.197434631
   30    38.164361238    19.522147580    32.631549489    -0.413572344     0.217094937    -0.178403207
   31    36.676730300    20.485898272    39.645940704    -0.406985920     0.227598875    -0.180447258
   32    38.803605188    11.136885509    38.874869207    -0.405803373     0.227110843    -0.183696182
   33    31.866828520    18.511212096    36.277086591    -0.408267935     0.225037900    -0.180762929
   34    41.464132491    13.495978057    38.995319066    -0.483338379    -0.104781664     0.073517443
   35    38.836421703    18.097622323    31.171531566    -0.415909158     0.212832295    -0.178106671
   36    38.350190071    13.084382199    36.505602273    -0.449343915     0.175446292    -0.131562320
   37    38.855749432    15.697262083    38.442313532    -0.410103675     0.214472327    -0.189252732
   38    36.940797622    16.614468854    35.141452278    -0.426819499     0.197204529    -0.170104347
   39    39.127304322    16.309809568    34.566978269    -0.434179919     0.184741617    -0.165403545
   40    33.893714755    19.328565316    37.113943170    -0.407123299     0.223483705    -0.185217853
   41    37.393086798    12.520469880    34.554920282    -0.448422346     0.174550270    -0.135829314
   42    31.677197078    18.962057346    34.003954333    -0.417989928     0.199365129    -0.188515159
   43    35.215007805    17.546747840    36.148345344    -0.423692259     0.200094525    -0.174490833
   44    40.155403013    14.546089229    35.431684177    -0.435900854     0.185327569    -0.160137870
   45    35.494833823    20.062796678    35.607509429    -0.412604019     0.210433602    -0.188349736
   46    38.586860233    11.741300319    32.907250774    -0.446327310     0.181079208    -0.134172475
   47    38.011324263    12.311034058    40.472015503    -0.413663335     0.210364579    -0.186089734
   48    41.216239369    13.967883926    31.393117595    -0.407208378     0.228156258    -0.179237437
   49    34.455705807    15.820042533    32.483012422     0.417692802    -0.182548507     0.205447720
   50    37.610465831    19.894128869    37.604066334    -0.401983731     0.217828098    -0.202385770
   51    40.887435935    16.327741247    31.532451219    -0.418367448     0.196513803    -0.190659391
   52    40.594888505    20.090123005    32.233629847    -0.401956394     0.213104565    -0.207406610
   53    39.864115169    14.770284624    40.156642654    -0.406703981     0.224373000    -0.185063850
   54    36.023227400    12.876993912    40.468060392    -0.403574009     0.243578190    -0.166726376
   55    34.469450546    20.545303139    33.369466926    -0.403622099     0.221541846    -0.194957462
   56    37.580592079    14.537924790    40.333519639    -0.414044510     0.212115655    -0.183232346
   57    36.470258598    16.464092494    37.963288295    -0.416381828     0.207698681    -0.182995714
   58    35.343218943    10.752224309    37.753617967    -0.405079507     0.225855339    -0.186815308
   59    36.994948984    12.231254083    38.468731679    -0.411452880     0.218954855    -0.181011875
   60    40.100254903    16.910569243    39.714352928    -0.407429881     0.219136968    -0.189683634
   61    40.265132207    12.284065578    40.617762754    -0.422881145     0.205909908    -0.169625019
   62    40.096901403    17.799976039    33.051924822    -0.420448004     0.198345900    -0.184071670
   63    33.359480706    18.333607557    40.245760779    -0.399633885     0.227065972    -0.196809050
   64    34.699440191    19.655299711    31.312579619    -0.406193162     0.212160401    -0.199987698
   65    35.826385900    14.381923627    34.159532189    -0.375888764     0.267985084    -0.192071944
   66    32.224695476    17.263671078    38.752888137    -0.396229302     0.231700796    -0.198285352
   67    39.055678942    13.292575137    38.864684241    -0.413211449     0.221717517    -0.173486716
   68    32.218719749    12.823061247    35.964052174    -0.471070139     0.151088164    -0.072562326
   21     2.889033821    26.482823979    33.908832864     0.412083820    -0.204691885     0.195673599
   22    10.221339492    21.866446433    35.948759584    -0.457588636     0.168476185    -0.110582166
   23    10.105413073    29.393772145    36.813599215    -0.408512462     0.217838971    -0.188848487
   24     5.052203647    24.281485793    37.641710636    -0.417413894     0.201999651    -0.186980699
   25     6.330862457    20.525336076    30.926726707    -0.402131900     0.222984158    -0.196387373
   26     2.890088414    21.107713958    37.463871914    -0.103788407    -0.382343582     0.305026805
   27     1.554711591    23.107972436    32.752075339    -0.417030029     0.213871747    -0.174197677
   28     8.547872309    25.546786183    31.021354203    -0.423248577     0.198184323    -0.177717799
   29     9.260502130    28.199599085    35.100869030    -0.400670491     0.224670028    -0.197450085
   30     8.030468860    29.113260466    31.797914304    -0.413576222     0.217075568    -0.178417787
   31     6.542837922    30.077011158    38.812305519    -0.406993556     0.227588488    -0.180443138
   32     8.669712810    20.727998395    38.041234021    -0.405812118     0.227109221    -0.183678869
   33     1.732936142    28.102324982    35.443451406    -0.408263280     0.225044884    -0.180764749
   34    11.330240113    23.087090943    38.161683881    -0.483322294    -0.104670358     0.073781270
   35     8.702529324    27.688735209    30.337896380    -0.415912564     0.212817675    -0.178116188
   36     8.216297693    22.675495085    35.671967088    -0.449347977     0.175467421    -0.131520263
   37     8.721857054    25.288374970    37.608678347    -0.410114076     0.214467376    -0.189235804
   38     6.806905244    26.205581740    34.307817093    -0.426823492     0.197198618    -0.170101180
   39     8.993411944    25.900922454    33.733343084    -0.434182024     0.184733912    -0.165406627
   40     3.759822376    28.919678202    36.280307984    -0.407124229     0.223482347    -0.185217447
   41     7.259194420    22.111582766    33.721285097    -0.448427418     0.174560873    -0.135798940
   42     1.543304699    28.553170232    33.170319147    -0.417984231     0.199374276    -0.188518117
   43     5.081115427    27.137860726    35.314710158    -0.423696063     0.200089246    -0.174487650
   44    10.021510635    24.137202115    34.598048992    -0.435901639     0.185323041    -0.160140973
   45     5.360941445    29.653909564    34.773874244    -0.412606300     0.210428887    -0.188350007
   46     8.452967855    21.332413205    32.073615588    -0.446331918     0.181083339    -0.134151569
   47     7.877431885    21.902146944    39.638380318    -0.413676114     0.210357713    -0.186069089
   48    11.082346991    23.558996812    30.559482409    -0.407211034     0.228145880    -0.179244613
   49     4.321813429    25.411155419    31.649377237     0.417663908    -0.182633931     0.205430542
   50     7.476573453    29.485241755    36.770431148    -0.401991943     0.217817337    -0.202381040
   51    10.753543557    25.918854133    30.698816034    -0.418370323     0.196499840    -0.190667473
   52    10.460996127    29.681235891    31.399994662    -0.401963619     0.213080610    -0.207417219
   53     9.730222790    24.361397510    39.323007468    -0.406714596     0.224364703    -0.185050581
   54     5.889335022    22.468106798    39.634425207    -0.403589403     0.243569586    -0.166701683
   55     4.335558168    30.136416025    32.535831741    -0.403623385     0.221533720    -0.194964034
   56     7.446699701    24.129037676    39.499884454    -0.414056430     0.212109106    -0.183212991
   57     6.336366220    26.055205380    37.129653110    -0.416390700     0.207692876    -0.182982114
   58     5.209326565    20.343337195    36.919982781    -0.405090025     0.225852711    -0.186795676
   59     6.861056606    21.822366969    37.635096493    -0.411462475     0.218952858    -0.180992480
   60     9.966362525    26.501682129    38.880717742    -0.407438720     0.219136051    -0.189665707
   61    10.131239829    21.875178464    39.784127569    -0.422896159     0.205901828    -0.169597393
   62     9.963009025    27.391088925    32.218289636    -0.420451813     0.198331580    -0.184078400
   63     3.225588328    27.924720443    39.412125594    -0.399631952     0.227067008    -0.196811780
   64     4.565547812    29.246412597    30.478944433    -0.406193429     0.212153150    -0.199994847
   65     5.692493522    23.973036513    33.325897004    -0.376266950     0.267573920    -0.191904611
   66     2.090803098    26.854783964    37.919252952    -0.396224631     0.231704076    -0.198290854
   67     8.921786564    22.883688023    38.031049056    -0.413221516     0.221710806    -0.173471315
   68     2.084827370    22.414174133    35.130416989    -0.471068432     0.151096281    -0.072556505
   21    12.978689771    26.627484190    34.196919733     0.412089373    -0.204676619     0.195677873
   22    20.310995441    22.011106645    36.236846454    -0.457577563     0.168524491    -0.110554377
   23    20.195069023    29.538432357    37.101686085    -0.408501971     0.217853754    -0.188854127
   24    15.141859597    24.426146005    37.929797505    -0.417401168     0.202014878    -0.186992659
   25    16.420518407    20.669996287    31.214813576    -0.402136401     0.222991802    -0.196369476
   26    12.979744364    21.252374170    37.751958784    -0.104103944    -0.382684209     0.304491650
   27    11.644367541    23.252632647    33.040162209    -0.417041573     0.213879963    -0.174159949
   28    18.637528259    25.691446394    31.309441073    -0.423245090     0.198193161    -0.177716247
   29    19.350158080    28.344259297    35.388955899    -0.400660983     0.224684951    -0.197452399
   30    18.120124810    29.257920677    32.086001173    -0.413571044     0.217085157    -0.178418122
   31    16.632493871    30.221671370    39.100392389    -0.406983572     0.227599547    -0.180451706
   32    18.759368760    20.872658606    38.329320891    -0.405802979     0.227127075    -0.183676982
   33    11.822592091    28.246985194    35.731538276    -0.408268681     0.225034483    -0.180765499
   34    21.419896063    23.231751155    38.449770751    -0.483331162    -0.104537541     0.073911366
   35    18.792185274    27.833395421    30.625983250    -0.415909273     0.212825826    -0.178114135
   36    18.305953643    22.820155296    35.960053957    -0.449338103     0.175505735    -0.131502874
   37    18.811513004    25.433035181    37.896765216    -0.410101689     0.214478692    -0.189249823
   38    16.896561194    26.350241952    34.595903963    -0.426816726     0.197207442    -0.170107928
   39    19.083067894    26.045582666    34.021429953    -0.434175536     0.184746270    -0.165409854
   40    13.849478326    29.064338413    36.568394854    -0.407123217     0.223480480    -0.185221924
   41    17.348850370    22.256242977    34.009371967    -0.448416770     0.174601908    -0.135781347
   42    11.632960649    28.697830443    33.458406017    -0.417991981     0.199357472    -0.188518705
   43    15.170771376    27.282520937    35.602797028    -0.423689934     0.200096198    -0.174494560
   44    20.111166585    24.281862326    34.886135862    -0.435894000     0.185338359    -0.160144039
   45    15.450597394    29.798569776    35.061961113    -0.412602485     0.210431013    -0.188355988
   46    18.542623805    21.477073417    32.361702458    -0.446323157     0.181117744    -0.134134270
   47    17.967087835    22.046807156    39.926467187    -0.413664322     0.210377068    -0.186073420
   48    21.172002941    23.703657023    30.847569279    -0.407208689     0.228151713    -0.179242517
   49    14.411469379    25.555815631    31.937464107     0.417583742    -0.182705195     0.205530120
   50    17.566229403    29.629901966    37.058518018    -0.401981874     0.217827379    -0.202390232
   51    20.843199506    26.063514345    30.986902903    -0.418366893     0.196508166    -0.190666420
   52    20.550652076    29.825896102    31.688081532    -0.401955763     0.213091741    -0.207421008
   53    19.819878740    24.506057722    39.611094338    -0.406701219     0.224375268    -0.185067171
   54    15.978990972    22.612767010    39.922512077    -0.403572469     0.243591056    -0.166711308
   55    14.425214118    30.281076237    32.823918611    -0.403621101     0.221532575    -0.194970062
   56    17.536355651    24.273697888    39.787971324    -0.414043230     0.212127137    -0.183221947
   57    16.426022169    26.199865592    37.417739980    -0.416379198     0.207705628    -0.182993813
   58    15.298982515    20.487997407    37.208069651    -0.405080968     0.225878231    -0.186784461
   59    16.950712556    21.967027181    37.923183363    -0.411452726     0.218975662    -0.180987055
   60    20.056018475    26.646342341    39.168804612    -0.407427597     0.219142419    -0.189682243
   61    20.220895779    22.019838675    40.072214438    -0.422884997     0.205922920    -0.169599617
   62    20.052664974    27.535749137    32.506376506    -0.420445774     0.198342516    -0.184080410
   63    13.315244278    28.069380655    39.700212464    -0.399636072     0.227066260    -0.196804278
   64    14.655203762    29.391072809    30.767031303    -0.406192931     0.212148790    -0.200000485
   65    15.782149472    24.117696725    33.613983874    -0.375140631     0.269340961    -0.191637559
   66    12.180459047    26.999444175    38.207339821    -0.396232954     0.231700302    -0.198278633
   67    19.011442514    23.028348234    38.319135926    -0.413208934     0.221727095    -0.173480467
   68    12.174483320    22.558834344    35.418503858    -0.471070639     0.151009276    -0.072723116
   21    23.068345721    26.772144402    34.485006603     0.412087670    -0.204677751     0.195680277
   22    30.400651391    22.155766857    36.524933323    -0.457584126     0.168477550    -0.110598745
   23    30.284724973    29.683092568    37.389772954    -0.408506611     0.217840591    -0.188859276
   24    25.231515547    24.570806216    38.217884375    -0.417405023     0.202003913    -0.186995898
   25    26.510174357    20.814656499    31.502900446    -0.402135228     0.222991839    -0.196371837
   26    23.069400314    21.397034382    38.040045653    -0.104174349    -0.382458361     0.304751221
   27    21.734023491    23.397292859    33.328249078    -0.417034081     0.213881205    -0.174176364
   28    28.727184209    25.836106606    31.597527943    -0.423246636     0.198188654    -0.177717592
   29    29.439814030    28.488919509    35.677042769    -0.400665393     0.224672572    -0.197457536
   30    28.209780760    29.402580889    32.374088043    -0.413574539     0.217080724    -0.178415414
   31    26.722149821    30.366331581    39.388479258    -0.406986292     0.227587203    -0.180461141
   32    28.849024710    21.017318818    38.617407761    -0.405805363     0.227116323    -0.183685011
   33    21.912248041    28.391645406    36.019625145    -0.408264385     0.225037073    -0.180771978
   34    31.509552012    23.376411367    38.737857620    -0.483335937    -0.104619679     0.073763775
   35    28.881841224    27.978055632    30.914070120    -0.415910368     0.212822150    -0.178115968
   36    28.395609592    22.964815508    36.248140827    -0.449344765     0.175468182    -0.131530221
   37    28.901168954    25.577695393    38.184852086    -0.410104714     0.214470136    -0.189252964
   38    26.986217143    26.494902164    34.883990832    -0.426819314     0.197197264    -0.170113234
   39    29.172723844    26.190242877    34.309516823    -0.434179474     0.184733572    -0.165413698
   40    23.939134276    29.208998625    36.856481724    -0.407122685     0.223476870    -0.185227449
   41    27.438506319    22.400903189    34.297458836    -0.448425177     0.174563220    -0.135803323
   42    21.722616599    28.842490655    33.746492887    -0.417986513     0.199365697    -0.188522132
   43    25.260427326    27.427181149    35.890883898    -0.423692284     0.200086490    -0.174499986
   44    30.200822534    24.426522538    35.174222731    -0.435900534     0.185320349    -0.160147096
   45    25.540253344    29.943229988    35.350047983    -0.412603949     0.210423863    -0.188360767
   46    28.632279755    21.621733629    32.649789328    -0.446330659     0.181085784    -0.134152455
   47    28.056743785    22.191467368    40.214554057    -0.413667012     0.210366428    -0.186079470
   48    31.261658891    23.848317235    31.135656149    -0.407210769     0.228146537    -0.179244378
   49    24.501125328    25.700475842    32.225550976     0.417583783    -0.182648844     0.205580116
   50    27.655885353    29.774562178    37.346604888    -0.401984940     0.217814779    -0.202397704
   51    30.932855456    26.208174556    31.274989773    -0.418367469     0.196504307    -0.190669133
   52    30.640308026    29.970556314    31.976168401    -0.401959093     0.213087152    -0.207419270
   53    29.909534690    24.650717933    39.899181208    -0.406705337     0.224368192    -0.185066701
   54    26.068646922    22.757427221    40.210598946    -0.403575501     0.243583462    -0.166715062
   55    24.514870068    30.425736449    33.112005480    -0.403623492     0.221529626    -0.194968464
   56    27.626011601    24.418358099    40.076058193    -0.414046750     0.212116539    -0.183226262
   57    26.515678119    26.344525803    37.705826849    -0.416382961     0.207695115    -0.182997183
   58    25.388638464    20.632657619    37.496156521    -0.405083178     0.225865150    -0.186795485
   59    27.040368505    22.111687393    38.211270233    -0.411455983     0.218961529    -0.180996748
   60    30.145674425    26.791002553    39.456891482    -0.407429548     0.219136716    -0.189684643
   61    30.310551729    22.164498887    40.360301308    -0.422887383     0.205910590    -0.169608638
   62    30.142320924    27.680409349    32.794463376    -0.420448396     0.198335848    -0.184081606
   63    23.404900228    28.214040866    39.988299333    -0.399630291     0.227065485    -0.196816909
   64    24.744859712    29.535733020    31.055118173    -0.406194714     0.212147830    -0.199997881
   65    25.871805421    24.262356936    33.902070743    -0.376217800     0.267866186    -0.191592988
   66    22.270114997    27.144104387    38.495426691    -0.396225540     0.231702031    -0.198291428
   67    29.101098464    23.173008446    38.607222795    -0.413213510     0.221715280    -0.173484667
   68    22.264139270    22.703494556    35.706590728    -0.471056869     0.151075021    -0.072675749
   21    33.158001671    26.916804614    34.773093473     0.412087342    -0.204675289     0.195683543
   22    40.490307341    22.300427068    36.813020193    -0.457589899     0.168542938    -0.110475165
   23    40.374380923    29.827752780    37.677859824    -0.408500131     0.217859528    -0.188851446
   24    35.321171496    24.715466428    38.505971244    -0.417399905     0.202015313    -0.186995008
   25    36.599830306    20.959316711    31.790987315    -0.402128172     0.223009889    -0.196365788
   26    33.159056263    21.541694593    38.328132523    -0.104249175    -0.382512471     0.304657708
   27    31.823679441    23.541953071    33.616335948    -0.417044379     0.213875004    -0.174159319
   28    38.816840158    25.980766818    31.885614812    -0.423239828     0.198203166    -0.177717621
   29    39.529469980    28.633579720    35.965129638    -0.400657610     0.224692449    -0.197450711
   30    38.299436709    29.547241101    32.662174913    -0.413567537     0.217095772    -0.178413334
   31    36.811805771    30.510991793    39.676566128    -0.406977929     0.227607111    -0.180454893
   32    38.938680660    21.161979030    38.905494630    -0.405801384     0.227129834    -0.183677096
   33    32.001903991    28.536305617    36.307712015    -0.408263353     0.225037208    -0.180774140
   34    41.599207962    23.521071578    39.025944490    -0.483296558    -0.104528082     0.074150638
   35    38.971497174    28.122715844    31.202156989    -0.415904154     0.212837434    -0.178112215
   36    38.485265542    23.109475720    36.536227697    -0.449349181     0.175513730    -0.131454344
   37    38.990824903    25.722355604    38.472938955    -0.410098021     0.214479040    -0.189257376
   38    37.075873093    26.639562375    35.172077702    -0.426814920     0.197211167    -0.170108141
   39    39.262379794    26.334903089    34.597603692    -0.434174645     0.184751277    -0.165406600
   40    34.028790226    29.353658837    37.144568593    -0.407118005     0.223484378    -0.185228677
   41    37.528162269    22.545563401    34.585545706    -0.448427829     0.174605325    -0.135740424
   42    31.812272549    28.987150867    34.034579756    -0.417987835     0.199360201    -0.188525013
   43    35.350083276    27.571841361    36.178970767    -0.423687713     0.200099594    -0.174496059
   44    40.290478484    24.571182750    35.462309601    -0.435894895     0.185341704    -0.160137732
   45    35.629909294    30.087890199    35.638134852    -0.412598541     0.210436308    -0.188358713
   46    38.721935704    21.766393840    32.937876197    -0.446330532     0.181125305    -0.134099515
   47    38.146399734    22.336127579    40.502640927    -0.413664038     0.210373475    -0.186078114
   48    41.351314841    23.992977447    31.423743018    -0.407202852     0.228160632    -0.179244424
   49    34.590781278    25.845136054    32.513637846     0.417688255    -0.182618342     0.205394894
   50    37.745541302    29.919222390    37.634691757    -0.401976369     0.217834145    -0.202393882
   51    41.022511406    26.352834768    31.563076642    -0.418362167     0.196519682    -0.190664922
   52    40.729963976    30.115216526    32.264255271    -0.401953543     0.213103573    -0.207413154
   53    39.999190640    24.795378145    40.187268077    -0.406695962     0.224373863    -0.185080426
   54    36.158302871    22.902087433    40.498685816    -0.403569916     0.243594033    -0.166713136
   55    34.604526017    30.570396660    33.400092350    -0.403618342     0.221540518    -0.194966749
   56    37.715667550    24.563018311    40.364145063    -0.414041700     0.212125480    -0.183227323
   57    36.605334069    26.489186015    37.993913719    -0.416377444     0.207706836    -0.182996433
   58    35.478294414    20.777317830    37.784243390    -0.405079043     0.225879134    -0.186787542
   59    37.130024455    22.256347604    38.499357102    -0.411451631     0.218978200    -0.180986473
   60    40.235330374    26.935662764    39.744978351    -0.407423643     0.219144976    -0.189687782
   61    40.400207679    22.309159099    40.648388178    -0.422886742     0.205916442    -0.169603133
   62    40.231976874    27.825069560    33.082550245    -0.420442393     0.198351806    -0.184078122
   63    33.494556177    28.358701078    40.276386203    -0.399628711     0.227068333    -0.196816833
   64    34.834515662    29.680393232    31.343205042    -0.406189728     0.212158032    -0.199997185
   65    35.961461371    24.407017148    34.190157613    -0.376238725     0.267657494    -0.191843393
   66    32.359770947    27.288764599    38.783513561    -0.396225412     0.231701144    -0.198292721
   67    39.190754413    23.317668658    38.895309665    -0.413207055     0.221726661    -0.173485495
   68    32.353795220    22.848154768    35.994677597    -0.471065540     0.151014517    -0.072745260
   21     3.024109292    36.507917500    33.939458287     0.412081486    -0.204685467     0.195685227
   22    10.356414963    31.891539954    35.979385008    -0.457585094     0.168488434    -0.110578158
   23    10.240488544    39.418865666    36.844224639    -0.408503906     0.217854071    -0.188849576
   24     5.187279118    34.306579314    37.672336059    -0.417407438     0.202011826    -0.186981959
   25     6.465937928    30.550429597    30.957352130    -0.402130673     0.222991515    -0.196381532
   26     3.025163885    31.132807479    37.494497338    -0.104247215    -0.382405156     0.304793068
   27     1.689787062    33.133065957    32.782700763    -0.417042109     0.213871295    -0.174169309
   28     8.682947780    35.571879704    31.051979627    -0.423242177     0.198197341    -0.177718523
   29     9.395577601    38.224692606    35.131494453    -0.400662072     0.224687478    -0.197447312
   30     8.165544331    39.138353987    31.828539727    -0.413570933     0.217089692    -0.178412861
   31     6.677913393    40.102104679    38.842930943    -0.406984467     0.227595275    -0.180455077
   32     8.804788281    30.753091916    38.071859445    -0.405810013     0.227118473    -0.183672079
   33     1.868011613    38.127418504    35.474076830    -0.408260494     0.225044730    -0.180771233
   34    11.465315584    33.112184464    38.192309305    -0.483338165    -0.104589208     0.073792383
   35     8.837604795    37.713828730    30.368521804    -0.415907287     0.212830174    -0.178113574
   36     8.351373164    32.700588606    35.702592511    -0.449345318     0.175478138    -0.131515049
   37     8.856932525    35.313468491    37.639303770    -0.410108502     0.214476099    -0.189237999
   38     6.941980715    36.230675261    34.338442517    -0.426816857     0.197211448    -0.170102955
   39     9.128487415    35.926015975    33.763968507    -0.434175462     0.184749309    -0.165406654
   40     3.894897847    38.944771723    36.310933408    -0.407118349     0.223487630    -0.185223997
   41     7.394269891    32.136676287    33.751910521    -0.448425656     0.174570227    -0.135792734
   42     1.678380170    38.578263753    33.200944571    -0.417983420     0.199370642    -0.188523759
   43     5.216190898    37.162954247    35.345335582    -0.423689948     0.200099918    -0.174490259
   44    10.156586106    34.162295636    34.628674415    -0.435895099     0.185338884    -0.160140441
   45     5.496016916    39.679003085    34.804499667    -0.412599658     0.210436070    -0.188356531
   46     8.588043326    31.357506726    32.104241012    -0.446330668     0.181091714    -0.134144421
   47     8.012507356    31.927240465    39.669005741    -0.413672246     0.210372898    -0.186060518
   48    11.217422462    33.584090333    30.590107833    -0.407207760     0.228149731    -0.179247149
   49     4.456888900    35.436248940    31.680002661     0.417699875    -0.182545794     0.205435749
   50     7.611648924    39.510335276    36.801056572    -0.401981610     0.217824839    -0.202393490
   51    10.888619028    35.943947654    30.729441457    -0.418364365     0.196514262    -0.190665683
   52    10.596071598    39.706329412    31.430620086    -0.401957703     0.213095471    -0.207413416
   53     9.865298261    34.386491031    39.353632892    -0.406710310     0.224371883    -0.185051295
   54     6.024410493    32.493200319    39.665050631    -0.403581419     0.243589344    -0.166692141
   55     4.470633639    40.161509546    32.566457165    -0.403618330     0.221541033    -0.194966189
   56     7.581775172    34.154131197    39.530509877    -0.414052019     0.212121916    -0.183208129
   57     6.471441691    36.080298901    37.160278534    -0.416384125     0.207704287    -0.182984123
   58     5.344402036    30.368430716    36.950608205    -0.405084524     0.225868594    -0.186788401
   59     6.996132077    31.847460490    37.665721917    -0.411459050     0.218965015    -0.180985560
   60    10.101437996    36.526775650    38.911343166    -0.407433220     0.219141912    -0.189670751
   61    10.266315300    31.900271985    39.814752992    -0.422891430     0.205919737    -0.169587442
   62    10.098084496    37.416182446    32.248915060    -0.420444744     0.198347405    -0.184077496
   63     3.360663799    37.949813964    39.442751018    -0.399630361     0.227068600    -0.196813175
   64     4.700623283    39.271506118    30.509569857    -0.406189424     0.212159041    -0.199996733
   65     5.827568993    33.998130034    33.356522428    -0.376202081     0.267567312    -0.192040953
   66     2.225878569    36.879877485    37.949878375    -0.396223066     0.231706903    -0.198290678
   67     9.056862035    32.908781544    38.061674480    -0.413218056     0.221719926    -0.173467899
   68     2.219902841    32.439267654    35.161042412    -0.471058340     0.151077706    -0.072660629
   21    13.113765242    36.652577711    34.227545157     0.412085375    -0.204692048     0.195670155
   22    20.446070912    32.036200166    36.267471877    -0.457570130     0.168532002    -0.110573689
   23    20.330144494    39.563525878    37.132311508    -0.408501869     0.217848560    -0.188860339
   24    15.276935068    34.451239526    37.960422929    -0.417397568     0.202019603    -0.186995589
   25    16.555593878    30.695089808    31.245439000    -0.402128264     0.222994686    -0.196382863
   26    13.114819835    31.277467691    37.782584207    -0.104242241    -0.382484322     0.304695419
   27    11.779443012    33.277726168    33.070787632    -0.417033027     0.213896520    -0.174160079
   28    18.772603730    35.716539915    31.340066497    -0.423240993     0.198198752    -0.177719770
   29    19.485233551    38.369352818    35.419581323    -0.400658014     0.224683930    -0.197459585
   30    18.255200281    39.283014198    32.116626597    -0.413568366     0.217088781    -0.178419921
   31    16.767569342    40.246764891    39.131017812    -0.406983682     0.227598243    -0.180453101
   32    18.894444231    30.897752128    38.359946314    -0.405799356     0.227129921    -0.183681467
   33    11.957667562    38.272078715    35.762163699    -0.408262799     0.225045737    -0.180764772
   34    21.554971534    33.256844676    38.480396174    -0.483349931    -0.104460347     0.073897770
   35    18.927260745    37.858488942    30.656608674    -0.415905116     0.212831463    -0.178117106
   36    18.441029114    32.845248818    35.990679381    -0.449333834     0.175504888    -0.131518593
   37    18.946588475    35.458128702    37.927390640    -0.410099254     0.214480856    -0.189252648
   38    17.031636665    36.375335473    34.626529386    -0.426813350     0.197213396    -0.170109495
   39    19.218143365    36.070676187    34.052055377    -0.434172798     0.184750744    -0.165412043
   40    13.984553797    39.089431934    36.599020277    -0.407118671     0.223487963    -0.185222888
   41    17.483925841    32.281336498    34.039997390    -0.448414660     0.174593574    -0.135799032
   42    11.768036120    38.722923965    33.489031441    -0.417986015     0.199371742    -0.188516842
   43    15.305846847    37.307614458    35.633422452    -0.423686553     0.200102167    -0.174495924
   44    20.246242056    34.306955847    34.916761285    -0.435891577     0.185341413    -0.160147102
   45    15.585672865    39.823663297    35.092586537    -0.412599475     0.210436526    -0.188356422
   46    18.677699276    31.502166938    32.392327882    -0.446320138     0.181112031    -0.134152027
   47    18.102163306    32.071900677    39.957092611    -0.413662394     0.210382257    -0.186071839
   48    21.307078412    33.728750544    30.878194703    -0.407203434     0.228158475    -0.179245847
   49    14.546544850    35.580909152    31.968089530     0.417733535    -0.182630310     0.205292143
   50    17.701304874    39.654995487    37.089143442    -0.401981470     0.217827714    -0.202390675
   51    20.978274977    36.088607866    31.017528327    -0.418362701     0.196514792    -0.190668788
   52    20.685727547    39.850989623    31.718706955    -0.401955683     0.213095433    -0.207417370
   53    19.954954211    34.531151243    39.641719762    -0.406699129     0.224376099    -0.185070755
   54    16.114066443    32.637860531    39.953137500    -0.403570158     0.243597872    -0.166706940
   55    14.560289589    40.306169758    32.854544034    -0.403617560     0.221539978    -0.194968980
   56    17.671431122    34.298791409    39.818596747    -0.414040353     0.212131600    -0.183223281
   57    16.561097640    36.224959113    37.448365403    -0.416375499     0.207710500    -0.182996699
   58    15.434057986    30.513090928    37.238695074    -0.405076986     0.225877599    -0.186793860
   59    17.085788027    31.992120702    37.953808787    -0.411448885     0.218977314    -0.180993787
   60    20.191093946    36.671435862    39.199430036    -0.407425068     0.219145551    -0.189684056
   61    20.355971250    32.044932196    40.102839862    -0.422882829     0.205930493    -0.169595829
   62    20.187740445    37.560842658    32.537001930    -0.420442529     0.198347641    -0.184082299
   63    13.450319749    38.094474176    39.730837887    -0.399632466     0.227072461    -0.196804446
   64    14.790279233    39.416166330    30.797656726    -0.406189052     0.212157529    -0.199999093
   65    15.917224943    34.142790246    33.644609297    -0.376188505     0.267715454    -0.191861003
   66    12.315534518    37.024537696    38.237965245    -0.396228384     0.231707523    -0.198279328
   67    19.146517985    33.053441755    38.349761349    -0.413206972     0.221727822    -0.173484210
   68    12.309558791    32.583927865    35.449129282    -0.471065361     0.151027688    -0.072719070
   21    23.203421192    36.797237923    34.515632027     0.412081232    -0.204690221     0.195680790
   22    30.535726862    32.180860378    36.555558747    -0.457586545     0.168488434    -0.110572154
   23    30.419800444    39.708186089    37.420398378    -0.408500391     0.217858815    -0.188851707
   24    25.366591018    34.595899737    38.248509798    -0.417400769     0.202014412    -0.186994051
   25    26.645249828    30.839750020    31.533525869    -0.402131390     0.222994795    -0.196376339
   26    23.204475785    31.422127903    38.070671077    -0.104324184    -0.382312797     0.304882583
   27    21.869098962    33.422386380    33.358874502    -0.417034442     0.213883000    -0.174173294
   28    28.862259680    35.861200127    31.628153366    -0.423246632     0.198201680    -0.177703073
   29    29.574889501    38.514013030    35.707668192    -0.400658743     0.224692135    -0.197448768
   30    28.344856231    39.427674410    32.404713467    -0.413573635     0.217091433    -0.178404479
   31    26.857225292    40.391425102    39.419104682    -0.406979543     0.227608822    -0.180449095
   32    28.984100181    31.042412339    38.648033184    -0.405802497     0.227118006    -0.183689260
   33    22.047323512    38.416738927    36.050250569    -0.408259450     0.225046686    -0.180771157
   34    31.644627483    33.401504888    38.768483044    -0.483330292    -0.104627800     0.073789245
   35    29.016916695    38.003149153    30.944695543    -0.415911086     0.212833807    -0.178100364
   36    28.530685063    32.989909029    36.278766251    -0.449345302     0.175482109    -0.131509805
   37    29.036244425    35.602788914    38.215477509    -0.410100632     0.214479734    -0.189250933
   38    27.121292614    36.519995685    34.914616256    -0.426815496     0.197215417    -0.170101769
   39    29.307799315    36.215336398    34.340142246    -0.434177627     0.184752063    -0.165397894
   40    24.074209747    39.234092146    36.887107147    -0.407114409     0.223492591    -0.185226672
   41    27.573581790    32.425996710    34.328084260    -0.448425201     0.174576395    -0.135786306
   42    21.857692070    38.867584176    33.777118310    -0.417982711     0.199371977    -0.188523919
   43    25.395502797    37.452274670    35.921509321    -0.423687592     0.200104461    -0.174490772
   44    30.335898005    34.451616059    35.204848155    -0.435897870     0.185341353    -0.160130041
   45    25.675328815    39.968323509    35.380673406    -0.412597207     0.210441447    -0.188355891
   46    28.767355226    31.646827150    32.680414751    -0.446329865     0.181099306    -0.134136845
   47    28.191819256    32.216560889    40.245179481    -0.413664842     0.210365713    -0.186085103
   48    31.396734362    33.873410756    31.166281572    -0.407211821     0.228160833    -0.179223790
   49    24.636200799    35.725569363    32.256176400     0.417703593    -0.182555460     0.205419602
   50    27.790960824    39.799655699    37.377230311    -0.401976325     0.217838310    -0.202389488
   51    31.067930927    36.233268077    31.305615196    -0.418368238     0.196517744    -0.190653596
   52    30.775383497    39.995649835    32.006793825    -0.401960931     0.213098903    -0.207403634
   53    30.044610161    34.675811454    39.929806631    -0.406700731     0.224376220    -0.185067089
   54    26.203722393    32.782520742    40.241224370    -0.403571706     0.243587306    -0.166718634
   55    24.649945539    40.450829970    33.142630904    -0.403617524     0.221542215    -0.194966514
   56    27.761087072    34.443451620    40.106683617    -0.414042985     0.212121306    -0.183229251
   57    26.650753590    36.369619324    37.736452273    -0.416378062     0.207707959    -0.182993752
   58    25.523713935    30.657751140    37.526781944    -0.405078493     0.225864986    -0.186805841
   59    27.175443976    32.136780914    38.241895656    -0.411451909     0.218965035    -0.181001767
   60    30.280749896    36.816096074    39.487516905    -0.407425267     0.219146268    -0.189682801
   61    30.445627200    32.189592408    40.390926731    -0.422885781     0.205909476    -0.169613985
   62    30.277396395    37.705502870    32.825088799    -0.420446741     0.198350788    -0.184069288
   63    23.539975699    38.239134387    40.018924757    -0.399626829     0.227074808    -0.196813183
   64    24.879935183    39.560826541    31.085743596    -0.406189050     0.212159491    -0.199997015
   65    26.006880893    34.287450457    33.932696167    -0.376131089     0.267490545    -0.192286797
   66    22.405190468    37.169197908    38.526052115    -0.396221870     0.231709374    -0.198290181
   67    29.236173935    33.198101967    38.637848219    -0.413210568     0.221721017    -0.173484342
   68    22.399214741    32.728588077    35.737216151    -0.471047834     0.151092539    -0.072697889
   21    33.293077142    36.941898135    34.803718896     0.412086440    -0.204694731     0.195665105
   22    40.625382812    32.325520589    36.843645616    -0.457579495     0.168526253    -0.110543692
   23    40.509456394    39.852846301    37.708485247    -0.408498738     0.217855409    -0.188859213
   24    35.456246967    34.740559949    38.536596668    -0.417397601     0.202020805    -0.186994217
   25    36.734905777    30.984410232    31.821612739    -0.402126064     0.223005743    -0.196374812
   26    33.294131734    31.566788114    38.358757946    -0.104367840    -0.382593212     0.304515662
   27    31.958754912    33.567046592    33.646961372    -0.417038898     0.213899926    -0.174141836
   28    38.951915629    36.005860339    31.916240236    -0.423241154     0.198198746    -0.177719394
   29    39.664545451    38.658673241    35.995755062    -0.400654776     0.224689693    -0.197459596
   30    38.434512180    39.572334622    32.692800336    -0.413570055     0.217090134    -0.178414359
   31    36.946881242    40.536085314    39.707191551    -0.406980383     0.227598705    -0.180459960
   32    39.073756131    31.187072551    38.936120054    -0.405794644     0.227135775    -0.183684640
   33    32.136979462    38.561399138    36.338337439    -0.408262012     0.225047423    -0.180764452
   34    41.734283433    33.546165099    39.056569913    -0.483331154    -0.104520755     0.073935158
   35    39.106572645    38.147809365    31.232782413    -0.415905392     0.212831422    -0.178116508
   36    38.620341013    33.134569241    36.566853120    -0.449341661     0.175501950    -0.131495769
   37    39.125900374    35.747449126    38.503564379    -0.410096883     0.214483820    -0.189254425
   38    37.210948564    36.664655896    35.202703125    -0.426814845     0.197213911    -0.170105147
   39    39.397455265    36.359996610    34.628229116    -0.434176050     0.184747378    -0.165407266
   40    34.163865697    39.378752358    37.175194017    -0.407118066     0.223489139    -0.185222798
   41    37.663237740    32.570656922    34.616171130    -0.448422164     0.174592474    -0.135775664
   42    31.947348020    39.012244388    34.065205180    -0.417986104     0.199375597    -0.188512569
   43    35.485158747    37.596934882    36.209596191    -0.423687812     0.200102945    -0.174491976
   44    40.425553955    34.596276271    35.492935024    -0.435897079     0.185335579    -0.160138876
   45    35.764984765    40.112983720    35.668760276    -0.412599444     0.210437407    -0.188355505
   46    38.857011175    31.791487361    32.968501621    -0.446326014     0.181113935    -0.134129906
   47    38.281475205    32.361221100    40.533266350    -0.413654893     0.210387819    -0.186082225
   48    41.486390312    34.018070968    31.454368442    -0.407205009     0.228154468    -0.179247370
   49    34.725856749    35.870229575    32.544263269     0.417749841    -0.182658293     0.205234057
   50    37.880616773    39.944315911    37.665317181    -0.401978331     0.217826825    -0.202397864
   51    41.157586877    36.377928289    31.593702066    -0.418362746     0.196514704    -0.190668780
   52    40.865039447    40.140310047    32.294880694    -0.401955853     0.213093677    -0.207418843
   53    40.134266111    34.820471666    40.217893501    -0.406694790     0.224380252    -0.185075255
   54    36.293378342    32.927180954    40.529311239    -0.403561498     0.243606293    -0.166715599
   55    34.739601488    40.595490181    33.430717773    -0.403620545     0.221540520    -0.194962185
   56    37.850743021    34.588111832    40.394770486    -0.414035021     0.212136891    -0.183229203
   57    36.740409540    36.514279536    38.024539142    -0.416375391     0.207712492    -0.182994684
   58    35.613369885    30.802411351    37.814868814    -0.405071121     0.225887912    -0.186794107
   59    37.265099926    32.281441125    38.529982526    -0.411444578     0.218985039    -0.180994231
   60    40.370405845    36.960756285    39.775603775    -0.407423065     0.219147200    -0.189686453
   61    40.535283150    32.334252620    40.679013601    -0.422874899     0.205935297    -0.169609767
   62    40.367052345    37.850163081    33.113175669    -0.420443836     0.198346798    -0.184080225
   63    33.629631649    38.383794599    40.307011627    -0.399626211     0.227074588    -0.196814691
   64    34.969591133    39.705486753    31.373830466    -0.406192723     0.212158251    -0.199990871
   65    36.096536842    34.432110669    34.220783037    -0.376382764     0.267522846    -0.191748642
   66    32.494846418    37.313858120    38.814138984    -0.396221848     0.231709723    -0.198289816
   67    39.325829884    33.342762179    38.925935088    -0.413202973     0.221732497    -0.173487759
   68    32.488870691    32.873248289    36.025303021    -0.471068277     0.151021907    -0.072712190
