CRYSTAL
PRIMVEC
    40.358642790     0.578641119     1.152348021
     0.540302138    40.100392953     0.122501752
     1.147485224     0.128543006    40.047960291
PRIMCOORD
 3072    1
   21     1.758269367     6.336229727     3.811625931     0.022232257     0.002099213    -0.499501071
   22     9.090575037     1.719852182     5.851552651    -0.040814906    -0.170173184     0.468375096
   23     8.974648619     9.247177894     6.716392283    -0.035118225    -0.037191385     0.497376629
   24     3.921439192     4.134891542     7.544503703    -0.021302869    -0.014715796     0.499329183
   25     5.200098002     0.378741824     0.829519774    -0.029622016    -0.018723209     0.498770466
   26     1.759323959     0.961119707     7.366664982     0.056485859    -0.400369921    -0.294131389
   27     0.423947137     2.961378184     2.654868407     0.032686000     0.030677168     0.497986482
   28     7.417107854     5.400191931     0.924147271    -0.005646230    -0.023948199     0.499394237
   29     8.129737675     8.053004834     5.003662097    -0.037715008    -0.040364786     0.496938892
   30     6.899704405     8.966666214     1.700707371    -0.020195687    -0.041286978     0.497883038
   31     5.412073467     9.930416906     8.715098586    -0.016265333    -0.027021318     0.499004296
   32     7.538948355     0.581404143     7.944027089    -0.024807792    -0.026744938     0.498667506
   33     0.602171687     7.955730731     5.346244474    -0.021349222    -0.034448511     0.498354804
   34    10.199475658     2.940496692     8.064476948    -0.024067262    -0.438480513     0.239072388
   35     7.571764870     7.542140958     0.240689448    -0.011707661    -0.028364605     0.499057492
   36     7.085533238     2.528900833     5.574760155    -0.023214454    -0.124745217     0.483631802
   37     7.591092599     5.141780718     7.511471414    -0.025694444    -0.025212007     0.498702467
   38     5.676140789     6.058987489     4.210610160    -0.012811573    -0.039819628     0.498247188
   39     7.862647489     5.754328203     3.636136151     0.002857814    -0.032034047     0.498964581
   40     2.629057922     8.773083950     6.183101052    -0.021587177    -0.023405387     0.498985152
   41     6.128429965     1.964988514     3.624078165    -0.015592317    -0.104495502     0.488710108
   42     0.412540245     8.406575980     3.073112215    -0.013101632    -0.010745147     0.499712807
   43     3.950350972     6.991266474     5.217503226    -0.016639859    -0.035664526     0.498448750
   44     8.890746180     3.990607863     4.500842059     0.006781047    -0.038857521     0.498441682
   45     4.230176990     9.507315313     4.676667311    -0.027008471    -0.023211614     0.498730151
   46     7.322203400     1.185818954     1.976408656    -0.006109549    -0.089653591     0.491858625
   47     6.746667430     1.755552693     9.541173385    -0.026048608    -0.023780008     0.498754430
   48     9.951582536     3.412402560     0.462275477    -0.013772832    -0.021469970     0.499348926
   49     3.191048974     5.264561167     1.552170305     0.000297905     0.002013432    -0.499995857
   50     6.345808998     9.338647503     6.673224216    -0.037339120    -0.009946620     0.498504619
   51     9.622779102     5.772259882     0.601609101    -0.018610508    -0.018775833     0.499300628
   52     9.330231672     9.534641639     1.302787729    -0.046998036    -0.028865041     0.496948683
   53     8.599458335     4.214803259     9.225800536    -0.017748726    -0.019493477     0.499304503
   54     4.758570567     2.321512547     9.537218274    -0.021730745    -0.051659623     0.496849130
   55     3.204793713     9.989821774     2.438624809    -0.029891052    -0.023739716     0.498540822
   56     6.315935246     3.982443425     9.402677521    -0.021014692    -0.020424052     0.499140502
   57     5.205601765     5.908611129     7.032446177    -0.021976807    -0.026079908     0.498835502
   58     4.078562110     0.196742944     6.822775849    -0.023064663    -0.019320187     0.499093931
   59     5.730292151     1.675772718     7.537889561    -0.022073107    -0.032142699     0.498477306
   60     8.835598070     6.355087878     8.783510810    -0.022761343    -0.022427435     0.498977887
   61     9.000475374     1.728584212     9.686920636    -0.023259606    -0.052107401     0.496733137
   62     8.832244570     7.244494674     2.121082704    -0.013748213    -0.023388067     0.499263442
   63     2.094823873     7.778126192     9.314918662    -0.027677851    -0.022040695     0.498746573
   64     3.434783357     9.099818346     0.381737501    -0.030836744    -0.018138271     0.498718456
   65     4.561729067     3.826442261     3.228690072    -0.098704478    -0.028071296     0.489356137
   66     0.960038643     6.708189712     7.822046019    -0.032574160    -0.021208171     0.498486848
   67     7.791022109     2.737093771     7.933842124    -0.010211612    -0.027600893     0.499133162
   68     0.954062916     2.267579881     5.033210056    -0.039868098    -0.232521376     0.440845034
   21    11.847925316     6.480889939     4.099712801     0.026116350     0.006474638    -0.499275490
   22    19.180230987     1.864512394     6.139639521    -0.054705848    -0.147945800     0.474467397
   23    19.064304568     9.391838105     7.004479152    -0.032781170    -0.022843047     0.498401033
   24    14.011095142     4.279551753     7.832590573    -0.016754948     0.001007900     0.499718176
   25    15.289753952     0.523402036     1.117606644    -0.023256757    -0.003095673     0.499449237
   26    11.848979909     1.105779919     7.654751851     0.022055043    -0.402001376    -0.296493623
   27    10.513603086     3.106038396     2.942955276     0.026390388     0.015830160     0.499052055
   28    17.506763804     5.544852143     1.212234141    -0.000093610     0.000003662     0.499999991
   29    18.219393625     8.197665046     5.291748967    -0.034896378    -0.025615933     0.498122542
   30    16.989360355     9.111326426     1.988794241    -0.016686488    -0.024768431     0.499107289
   31    15.501729417    10.075077118     9.003185456    -0.015082536    -0.015989597     0.499516616
   32    17.628604305     0.726064355     8.232113958    -0.019909832    -0.009781186     0.499507685
   33    10.691827637     8.100390943     5.634331343    -0.024558100    -0.036967292     0.498026424
   34    20.289131608     3.085156904     8.352563818    -0.079839315    -0.424410854     0.251994267
   35    17.661420819     7.686801169     0.528776317    -0.006161492    -0.008516526     0.499889493
   36    17.175189188     2.673561045     5.862847025    -0.028251771    -0.103694145     0.488312770
   37    17.680748549     5.286440930     7.799558284    -0.020387185    -0.005635298     0.499552406
   38    15.765796739     6.203647701     4.498697030    -0.009950987    -0.026219781     0.499212881
   39    17.952303439     5.898988414     3.924223021     0.006740140    -0.015208657     0.499723191
   40    12.718713871     8.917744162     6.471187921    -0.022100539    -0.019320352     0.499137546
   41    16.218085915     2.109648726     3.912165034    -0.015988940    -0.083763917     0.492674294
   42    10.502196194     8.551236192     3.361199084    -0.018023024    -0.019414482     0.499297755
   43    14.040006922     7.135926686     5.505590095    -0.014098862    -0.024120750     0.499218801
   44    18.980402130     4.135268075     4.788928929     0.012041108    -0.021191210     0.499405591
   45    14.319832940     9.651975525     4.964754181    -0.026594551    -0.016499530     0.499019534
   46    17.411859350     1.330479165     2.264495525    -0.005717447    -0.068799986     0.495210938
   47    16.836323380     1.900212905     9.829260255    -0.021954904    -0.005101412     0.499491699
   48    20.041238486     3.557062772     0.750362347    -0.001582843     0.001211124     0.499996028
   49    13.280704924     5.409221379     1.840257174     0.051354471    -0.001927489    -0.497351991
   50    16.435464948     9.483307715     6.961311085    -0.035614314     0.001073317     0.498728853
   51    19.712435052     5.916920093     0.889695971    -0.012519405     0.001186016     0.499841833
   52    19.419887622     9.679301851     1.590874599    -0.042930433    -0.012374168     0.497999857
   53    18.689114285     4.359463470     9.513887405    -0.010784546     0.002981192     0.499874790
   54    14.848226517     2.466172758     9.825305144    -0.015657586    -0.033748438     0.498613962
   55    13.294449663    10.134481985     2.726711678    -0.029486890    -0.018908259     0.498771492
   56    16.405591196     4.127103636     9.690764391    -0.015791654    -0.001380153     0.499748656
   57    15.295257715     6.053271340     7.320533047    -0.017454224    -0.010654874     0.499581649
   58    14.168218060     0.341403156     7.110862718    -0.019692990    -0.007154167     0.499560811
   59    15.819948101     1.820432930     7.825976431    -0.018638765    -0.017409128     0.499349095
   60    18.925254020     6.499748089     9.071597680    -0.016701443    -0.002641425     0.499714003
   61    19.090131324     1.873244424     9.975007506    -0.019708729    -0.032048225     0.498582468
   62    18.921900520     7.389154886     2.409169573    -0.008185303    -0.005702869     0.499900468
   63    12.184479823     7.922786403     9.603005531    -0.030798501    -0.024052674     0.498470582
   64    13.524439307     9.244478557     0.669824370    -0.030918500    -0.015188946     0.498811931
   65    14.651385017     3.971102473     3.516776941    -0.095324985     0.007335080     0.490774229
   66    11.049694593     6.852849924     8.110132889    -0.036708701    -0.027328303     0.497901230
   67    17.880678059     2.881753983     8.221928993    -0.006741553    -0.005049408     0.499929050
   68    11.043718865     2.412240093     5.321296926    -0.056260068    -0.245921241     0.431691497
   21    21.937581266     6.625550151     4.387799670     0.017542121    -0.010626708    -0.499579170
   22    29.269886936     2.009172605     6.427726391     0.009116297    -0.138212020     0.480431400
   23    29.153960518     9.536498317     7.292566022    -0.016006982    -0.014997145     0.499518630
   24    24.100751092     4.424211965     8.120677442    -0.003283303     0.010745678     0.499873734
   25    25.379409902     0.668062247     1.405693513    -0.008783499     0.006180260     0.499884641
   26    21.938635859     1.250440130     7.942838721    -0.040528190    -0.393950663    -0.305221790
   27    20.603259036     3.250698608     3.231042146     0.040765103     0.031752549     0.497322815
   28    27.596419754     5.689512354     1.500321010     0.003880248     0.003847174     0.499970142
   29    28.309049575     8.342325257     5.579835836    -0.017549307    -0.016473493     0.499420310
   30    27.079016305     9.255986637     2.276881110    -0.003276697    -0.017155773     0.499694850
   31    25.591385366    10.219737330     9.291272326     0.003425589    -0.000533887     0.499987980
   32    27.718260255     0.870724567     8.520200828    -0.000301894    -0.001512132     0.499997622
   33    20.781483586     8.245051154     5.922418213    -0.015905472    -0.019880953     0.499351343
   34    30.378787558     3.229817115     8.640650688     0.089957935    -0.416025072     0.262356074
   35    27.751076769     7.831461381     0.816863187    -0.000614480    -0.001301526     0.499997928
   36    27.264845138     2.818221257     6.150933894     0.002962709    -0.094013608     0.491072972
   37    27.770404499     5.431101141     8.087645153    -0.008382439    -0.000894061     0.499928930
   38    25.855452689     6.348307912     4.786783900    -0.003182327    -0.016998694     0.499700828
   39    28.041959389     6.043648626     4.212309890     0.005067706    -0.010393158     0.499866283
   40    22.808369821     9.062404373     6.759274791    -0.010497953    -0.002486921     0.499883595
   41    26.307741865     2.254308937     4.200251904     0.004193693    -0.074141146     0.494454754
   42    20.591852144     8.695896404     3.649285954    -0.012102440    -0.000980953     0.499852547
   43    24.129662871     7.280586898     5.793676965    -0.005033539    -0.013129283     0.499802246
   44    29.070058080     4.279928286     5.077015799     0.012637800    -0.014092138     0.499641569
   45    24.409488889     9.796635736     5.252841050    -0.014227359    -0.000486130     0.499797305
   46    27.501515300     1.475139377     2.552582395     0.014171018    -0.059945370     0.496191228
   47    26.925979330     2.044873116    10.117347125    -0.001095576     0.001384196     0.499996884
   48    30.130894436     3.701722983     1.038449216    -0.000760718     0.004042572     0.499983079
   49    23.370360874     5.553881591     2.128344044     0.029509893    -0.008810524    -0.499050640
   50    26.525120898     9.627967926     7.249397955    -0.017424727     0.013346798     0.499518010
   51    29.802091001     6.061580305     1.177782840    -0.005582851     0.007547785     0.499911855
   52    29.509543571     9.823962063     1.878961469    -0.030829867    -0.008130901     0.498982372
   53    28.778770235     4.504123682     9.801974275     0.000468687     0.001070940     0.499998633
   54    24.937882467     2.610832970    10.113392014     0.002516456    -0.030040299     0.499090421
   55    23.384105613    10.279142197     3.014798548    -0.016992611    -0.002597487     0.499704417
   56    26.495247146     4.271763848     9.978851261     0.001227688     0.002805191     0.499990624
   57    25.384913664     6.197931552     7.608619917    -0.005603789    -0.000263801     0.499968527
   58    24.257874010     0.486063367     7.398949588     0.000465247     0.003035572     0.499990569
   59    25.909604051     1.965093141     8.114063300     0.002163509    -0.007620276     0.499937247
   60    29.014909970     6.644408301     9.359684549    -0.005830035    -0.001041406     0.499964925
   61    29.179787274     2.017904635    10.263094375    -0.003778021    -0.029023074     0.499142653
   62    29.011556469     7.533815097     2.697256443    -0.000363222     0.001063807     0.499998736
   63    22.274135773     8.067446615     9.891092401    -0.020398003    -0.009367031     0.499495926
   64    23.614095257     9.389138769     0.957911240    -0.019160750     0.001457144     0.499630606
   65    24.741040967     4.115762685     3.804863811     0.011109960    -0.011253631     0.499749862
   66    21.139350542     6.997510135     8.398219758    -0.027682558    -0.010584362     0.499120874
   67    27.970334009     3.026414194     8.510015863     0.009383899    -0.002693714     0.499904677
   68    21.133374815     2.556900304     5.609383795    -0.079853716    -0.222984177     0.440342413
   21    32.027237216     6.770210362     4.675886540     0.013031568    -0.007434723    -0.499774852
   22    39.359542886     2.153832817     6.715813260    -0.026739624    -0.155163781     0.474562107
   23    39.243616468     9.681158529     7.580652891    -0.029568846    -0.027067701     0.498390432
   24    34.190407042     4.568872177     8.408764312    -0.013880457     0.000227086     0.499807244
   25    35.469065852     0.812722459     1.693780383    -0.019201210    -0.001147037     0.499629861
   26    32.028291809     1.395100342     8.230925590     0.166993863    -0.373580239    -0.287316646
   27    30.692914986     3.395358819     3.519129016     0.020819045     0.034763260     0.498355378
   28    37.686075704     5.834172566     1.788407880    -0.004016868    -0.003100232     0.499974253
   29    38.398705525     8.486985469     5.867922706    -0.030973832    -0.029627934     0.498159419
   30    37.168672255     9.400646849     2.564967980    -0.014909808    -0.026598105     0.499069372
   31    35.681041316    10.364397541     9.579359195    -0.009908111    -0.013399313     0.499722211
   32    37.807916205     1.015384778     8.808287698    -0.014389338    -0.013684054     0.499605538
   33    30.871139536     8.389711366     6.210505082    -0.011615634    -0.022633270     0.499352393
   34    40.468443507     3.374477327     8.928737557    -0.002201650    -0.430074531     0.255011864
   35    37.840732719     7.976121592     1.104950057    -0.007146102    -0.012137915     0.499801565
   36    37.354501087     2.962881468     6.439020764    -0.010493532    -0.108505472     0.487971770
   37    37.860060449     5.575761353     8.375732023    -0.018877606    -0.010058852     0.499542246
   38    35.945108638     6.492968124     5.074870769    -0.004882329    -0.024989449     0.499351269
   39    38.131615339     6.188308837     4.500396760     0.009930755    -0.016366965     0.499633368
   40    32.898025771     9.207064585     7.047361661    -0.012439036    -0.011294492     0.499717625
   41    36.397397814     2.398969149     4.488338774    -0.002761906    -0.087670657     0.492246105
   42    30.681508094     8.840556615     3.937372824    -0.003561993     0.002312035     0.499981966
   43    34.219318821     7.425247109     6.081763835    -0.008579010    -0.021243168     0.499474853
   44    39.159714029     4.424588498     5.365102668     0.014486567    -0.023128354     0.499254663
   45    34.499144839     9.941295948     5.540927920    -0.018798654    -0.009874029     0.499548911
   46    37.591171250     1.619799589     2.840669265     0.007019782    -0.072641950     0.494645196
   47    37.015635280     2.189533328    10.405433994    -0.015811521    -0.009284359     0.499663683
   48    40.220550386     3.846383195     1.326536086    -0.005629510    -0.000968212     0.499967370
   49    33.460016823     5.698541802     2.416430913     0.017592733     0.008383965    -0.499620061
   50    36.614776848     9.772628138     7.537484825    -0.030332249     0.004145097     0.499061893
   51    39.891746951     6.206240517     1.465869710    -0.014025715    -0.003451953     0.499791320
   52    39.599199521     9.968622274     2.167048338    -0.042013957    -0.015331953     0.497995742
   53    38.868426185     4.648783894    10.090061145    -0.011806058    -0.001203842     0.499859148
   54    35.027538417     2.755493182    10.401478883    -0.010711474    -0.036100019     0.498580037
   55    33.473761563    10.423802409     3.302885417    -0.021451211    -0.010523141     0.499428783
   56    36.584903096     4.416424060    10.266938130    -0.012766467    -0.003020783     0.499827863
   57    35.474569614     6.342591764     7.896706786    -0.014717114    -0.010916152     0.499664131
   58    34.347529959     0.630723579     7.687036458    -0.015431791    -0.002776291     0.499754092
   59    35.999260000     2.109753353     8.402150170    -0.014725548    -0.015531984     0.499541706
   60    39.104565920     6.789068513     9.647771419    -0.017135711    -0.008417276     0.499635384
   61    39.269443224     2.162564847    10.551181245    -0.013519827    -0.036253927     0.498500619
   62    39.101212419     7.678475309     2.985343313    -0.008369090    -0.009675310     0.499836320
   63    32.363791723     8.212106827    10.179179270    -0.017688137    -0.012078744     0.499541023
   64    33.703751207     9.533798980     1.245998110    -0.022628657    -0.004985665     0.499462798
   65    34.830696916     4.260422896     4.092950681    -0.067696373     0.012626086     0.495235079
   66    31.229006492     7.142170347     8.686306628    -0.021835951    -0.012432432     0.499368227
   67    38.059989959     3.171074406     8.798102732     0.001457720    -0.011928702     0.499855560
   68    31.223030765     2.701560516     5.897470665     0.015056981    -0.216812118     0.450295229
   21     1.893344838    16.361323248     3.842251355     0.025747896     0.005127555    -0.499310278
   22     9.225650508    11.744945703     5.882178075    -0.040279745    -0.174028612     0.467002767
   23     9.109724090    19.272271415     6.747017706    -0.034200245    -0.034724113     0.497618910
   24     4.056514663    14.159985063     7.575129127    -0.021156698    -0.019238475     0.499181605
   25     5.335173473    10.403835345     0.860145198    -0.031383003    -0.022361849     0.498512843
   26     1.894399430    10.986213228     7.397290405     0.051530422    -0.397289842    -0.299174527
   27     0.559022608    12.986471705     2.685493830     0.028364071     0.021406583     0.498735639
   28     7.552183325    15.425285452     0.954772694    -0.005229244    -0.026825024     0.499252514
   29     8.264813147    18.078098355     5.034287521    -0.037160582    -0.038646386     0.497117238
   30     7.034779876    18.991759735     1.731332795    -0.019698510    -0.042829455     0.497772645
   31     5.547148938    19.955510427     8.745724010    -0.013951046    -0.024023136     0.499227661
   32     7.674023826    10.606497664     7.974652512    -0.026216538    -0.032459066     0.498256061
   33     0.737247158    17.980824252     5.376869897    -0.022816759    -0.036798609     0.498121730
   34    10.334551129    12.965590213     8.095102372    -0.018088669    -0.440914847     0.235089127
   35     7.706840341    17.567234479     0.271314871    -0.011077502    -0.031018683     0.498913951
   36     7.220608709    12.553994354     5.605385579    -0.022176638    -0.128598743     0.482670239
   37     7.726168070    15.166874239     7.542096838    -0.025128924    -0.028333801     0.498563670
   38     5.811216260    16.084081010     4.241235584    -0.011933372    -0.043159109     0.497990849
   39     7.997722960    15.779421724     3.666761575     0.003962408    -0.035133570     0.498748365
   40     2.764133393    18.798177471     6.213726475    -0.022062246    -0.024234848     0.498924773
   41     6.263505436    11.990082035     3.654703588    -0.014467048    -0.108288546     0.487918329
   42     0.547615716    18.431669501     3.103737638    -0.015707336    -0.015187912     0.499522379
   43     4.085426443    17.016359995     5.248128649    -0.016009371    -0.038786735     0.498236178
   44     9.025821651    14.015701384     4.531467483     0.007925346    -0.042043885     0.498166138
   45     4.365252461    19.532408834     4.707292735    -0.026384606    -0.024475605     0.498703115
   46     7.457278871    11.210912475     2.007034079    -0.005148739    -0.093453118     0.491161893
   47     6.881742901    11.780646214     9.571798809    -0.026548597    -0.029185783     0.498440931
   48    10.086658007    13.437496081     0.492900900    -0.014430369    -0.025059434     0.499163089
   49     3.326124445    15.289654688     1.582795728     0.044732802    -0.003711637    -0.497981124
   50     6.480884469    19.363741024     6.703849639    -0.035165077    -0.006664678     0.498717354
   51     9.757854573    15.797353403     0.632234525    -0.018126031    -0.021351946     0.499214925
   52     9.465307143    19.559735160     1.333413153    -0.046329957    -0.029656633     0.496964807
   53     8.734533807    14.239896780     9.256425959    -0.017889437    -0.022859195     0.499156714
   54     4.893646038    12.346606068     9.567843698    -0.022938519    -0.057335651     0.496171792
   55     3.339869184    20.014915295     2.469250232    -0.029888704    -0.026157227     0.498419968
   56     6.451010717    14.007536946     9.433302945    -0.021220545    -0.025771954     0.498884250
   57     5.340677236    15.933704650     7.063071601    -0.021552581    -0.030249890     0.498618522
   58     4.213637581    10.221836465     6.853401272    -0.024641775    -0.025425452     0.498744754
   59     5.865367622    11.700866239     7.568514984    -0.022993824    -0.038114791     0.498014605
   60     8.970673541    16.380181399     8.814136233    -0.021827745    -0.024492046     0.498922528
   61     9.135550845    11.753677733     9.717546060    -0.023178961    -0.057197010     0.496176620
   62     8.967320041    17.269588195     2.151708127    -0.012833881    -0.025613952     0.499178542
   63     2.229899344    17.803219713     9.345544085    -0.028714142    -0.023894666     0.498602590
   64     3.569858828    19.124911867     0.412362924    -0.031140394    -0.021188229     0.498579316
   65     4.696804538    13.851535782     3.259315495    -0.103578123    -0.034685151     0.487922650
   66     1.095114114    16.733283233     7.852671443    -0.034268673    -0.024461317     0.498224148
   67     7.926097580    12.762187292     7.964467547    -0.010483553    -0.032194980     0.498852261
   68     1.089138387    12.292673402     5.063835480    -0.048863432    -0.242255498     0.434654620
   21    11.983000787    16.505983460     4.130338224     0.025999302     0.007574047    -0.499266132
   22    19.315306458    11.889605915     6.170264945    -0.049038802    -0.161792480     0.470551155
   23    19.199380039    19.416931626     7.035104576    -0.028016073    -0.025525052     0.498561502
   24    14.146170613    14.304645274     7.863215996    -0.019817248    -0.006621529     0.499563241
   25    15.424829423    10.548495557     1.148232067    -0.029318473    -0.011889803     0.498998056
   26    11.984055380    11.130873440     7.685377275     0.033863234    -0.396259145    -0.303037904
   27    10.648678557    13.131131917     2.973580700     0.026185943     0.012705635     0.499152144
   28    17.641839275    15.569945664     1.242859564    -0.003072959    -0.013918237     0.499796798
   29    18.354469096    18.222758567     5.322374390    -0.030810799    -0.028441511     0.498238673
   30    17.124435826    19.136419947     2.019419664    -0.017133275    -0.030573067     0.498770226
   31    15.636804888    20.100170639     9.033810880    -0.009656081    -0.016254143     0.499642435
   32    17.763679776    10.751157876     8.262739382    -0.024048164    -0.019796740     0.499028832
   33    10.826903108    18.125484464     5.664956767    -0.022764952    -0.038473088     0.497997569
   34    20.424207079    13.110250425     8.383189242    -0.062199834    -0.432657322     0.242773191
   35    17.796496290    17.711894690     0.559401741    -0.008839572    -0.018311702     0.499586372
   36    17.310264659    12.698654566     5.893472448    -0.027950560    -0.116357683     0.485468491
   37    17.815824020    15.311534451     7.830183707    -0.023493973    -0.015207627     0.499216147
   38    15.900872210    16.228741222     4.529322454    -0.010084244    -0.033690574     0.498761720
   39    18.087378910    15.924081935     3.954848444     0.004949838    -0.024371057     0.499381168
   40    12.853789342    18.942837683     6.501813345    -0.019688547    -0.021438783     0.499152021
   41    16.353161386    12.134742247     3.942790458    -0.019226144    -0.095717757     0.490375842
   42    10.637271665    18.576329713     3.391824508    -0.017127632    -0.020694537     0.499277859
   43    14.175082393    17.161020207     5.536215519    -0.013787680    -0.030472293     0.498880085
   44    19.115477601    14.160361596     4.819554353     0.008638096    -0.031722559     0.498917892
   45    14.454908411    19.677069046     4.995379604    -0.024047934    -0.019284106     0.499048916
   46    17.546934821    11.355572686     2.295120949    -0.008741683    -0.080542866     0.493392774
   47    16.971398851    11.925306426     9.859885678    -0.025650675    -0.015364083     0.499105187
   48    20.176313957    13.582156293     0.780987770    -0.011542072    -0.011435798     0.499735933
   49    13.415780395    15.434314900     1.870882598     0.043410445    -0.004107391    -0.498095034
   50    16.570540419    19.508401236     6.991936509    -0.029829629     0.000269551     0.499109327
   51    19.847510523    15.942013614     0.920321394    -0.015600754    -0.008911649     0.499677095
   52    19.554963093    19.704395372     1.621500023    -0.042733187    -0.017366632     0.497867728
   53    18.824189756    14.384556991     9.544512829    -0.016396537    -0.007551084     0.499674028
   54    14.983301988    12.491266279     9.855930568    -0.020713362    -0.043354618     0.497685979
   55    13.429525134    20.159575507     2.757337102    -0.028003674    -0.021477600     0.498752952
   56    16.540666667    14.152197157     9.721389815    -0.020005426    -0.011832968     0.499459472
   57    15.430333186    16.078364861     7.351158471    -0.019867398    -0.018485456     0.499263031
   58    14.303293531    10.366496677     7.141488142    -0.023872716    -0.016334854     0.499162565
   59    15.955023572    11.845526451     7.856601854    -0.022288356    -0.027061929     0.498769367
   60    19.060329491    16.524841611     9.102223103    -0.019878556    -0.011707056     0.499467504
   61    19.225206795    11.898337945    10.005632929    -0.023607552    -0.042027516     0.497670947
   62    19.056975991    17.414248407     2.439794997    -0.010219172    -0.013846189     0.499703764
   63    12.319555294    17.947879924     9.633630955    -0.028566175    -0.026447843     0.498482181
   64    13.659514778    19.269572078     0.700449794    -0.029866384    -0.017526772     0.498799370
   65    14.786460488    13.996195994     3.547402365    -0.101863362    -0.009534245     0.489421039
   66    11.184770064    16.877943445     8.140758312    -0.035024159    -0.029561613     0.497894988
   67    18.015753530    12.906847504     8.252554417    -0.008527202    -0.018439506     0.499587101
   68    11.178794336    12.437333614     5.351922349    -0.055196977    -0.249510166     0.429765018
   21    22.072656737    16.650643672     4.418425094     0.017423733    -0.002746893    -0.499688771
   22    29.404962407    12.034266126     6.458351814    -0.016676108    -0.151878141     0.476082910
   23    29.289035989    19.561591838     7.323191445    -0.018255461    -0.022205948     0.499172950
   24    24.235826563    14.449305486     8.151302866    -0.004006678     0.002854936     0.499975795
   25    25.514485373    10.693155768     1.436318937    -0.014461942     0.000247272     0.499790747
   26    22.073711330    11.275533651     7.973464144    -0.035689020    -0.401890257    -0.295314265
   27    20.738334507    13.275792129     3.261667569     0.033103199     0.020863878     0.498466525
   28    27.731495225    15.714605876     1.530946434     0.011427676    -0.004347883     0.499850482
   29    28.444125046    18.367418778     5.610461260    -0.019147032    -0.022970254     0.499104957
   30    27.214091776    19.281080158     2.307506534    -0.003526194    -0.025026218     0.499360846
   31    25.726460837    20.244830851     9.321897749    -0.001184067    -0.012979456     0.499830103
   32    27.853335726    10.895818088     8.550826252    -0.004671256    -0.010548002     0.499866901
   33    20.916559057    18.270144675     5.953043636    -0.016086976    -0.029744225     0.498855180
   34    30.513863029    13.254910636     8.671276111     0.000739057    -0.426597494     0.260794999
   35    27.886152240    17.856554902     0.847488611     0.005972388    -0.010372009     0.499856731
   36    27.399920609    12.843314778     6.181559318    -0.000473932    -0.106032430     0.488627567
   37    27.905479970    15.456194662     8.118270577    -0.010016702    -0.007674753     0.499840738
   38    25.990528160    16.373401433     4.817409323     0.003185256    -0.025479278     0.499340225
   39    28.177034860    16.068742147     4.242935314     0.019892405    -0.016566462     0.499329395
   40    22.943445292    19.087497894     6.789900215    -0.011215791    -0.014955720     0.499650410
   41    26.442817336    12.279402459     4.230877327     0.007469091    -0.084884532     0.492685324
   42    20.726927615    18.720989925     3.679911378    -0.012571530    -0.009609820     0.499749545
   43    24.264738342    17.305680419     5.824302389    -0.001138540    -0.022351311     0.499498871
   44    29.205133551    14.305021807     5.107641222     0.024395748    -0.025231858     0.498766680
   45    24.544564360    19.821729257     5.283466474    -0.014683614    -0.012991300     0.499615470
   46    27.636590771    11.500232898     2.583207819     0.015521912    -0.069955830     0.494838612
   47    27.061054801    12.069966637    10.147972548    -0.004067259    -0.007787287     0.499922810
   48    30.265969907    13.726816504     1.069074640     0.004016585     0.001658071     0.499981117
   49    23.505436345    15.578975112     2.158969467     0.015911488    -0.025050416    -0.499118524
   50    26.660196369    19.653061447     7.280023379    -0.021653191     0.003913522     0.499515589
   51    29.937166472    16.086673826     1.208408264    -0.000518886     0.000608540     0.499999360
   52    29.644619042    19.849055584     1.909586892    -0.029908731    -0.012460711     0.498949094
   53    28.913845706    14.529217203     9.832599699    -0.001406959    -0.000169454     0.499997992
   54    25.072957938    12.635926491    10.144017437     0.001020775    -0.032116050     0.498966449
   55    23.519181084    20.304235718     3.045423971    -0.018974789    -0.014906830     0.499417404
   56    26.630322617    14.296857369    10.009476684     0.000154889    -0.000093673     0.499999967
   57    25.519989135    16.223025073     7.639245340    -0.005697586    -0.009356977     0.499879970
   58    24.392949481    10.511156888     7.429575012    -0.006505356    -0.000241725     0.499957620
   59    26.044679522    11.990186662     8.144688724    -0.003936560    -0.012809484     0.499820388
   60    29.149985441    16.669501822     9.390309973    -0.008002724    -0.006091853     0.499898836
   61    29.314862745    12.042998156    10.293719799    -0.004302491    -0.034979919     0.498756347
   62    29.146631940    17.558908618     2.727881867     0.004288573    -0.005517234     0.499951166
   63    22.409211244    18.092540136     9.921717824    -0.023200643    -0.018062708     0.499134720
   64    23.749170728    19.414232290     0.988536664    -0.021436311    -0.010220044     0.499435717
   65    24.876116438    14.140856206     3.835489234    -0.065648951     0.003456806     0.495659425
   66    21.274426013    17.022603656     8.428845182    -0.030490262    -0.019692188     0.498680821
   67    28.105409480    13.051507715     8.540641286     0.008759274    -0.010315782     0.499816826
   68    21.268450286    12.581993825     5.640009219    -0.070083805    -0.237159558     0.434561393
   21    32.162312687    16.795303883     4.706511964     0.010656378    -0.005639923    -0.499854612
   22    39.494618357    12.178926338     6.746438684    -0.034834493    -0.165751135     0.470439283
   23    39.378691939    19.706252050     7.611278315    -0.029104636    -0.028054911     0.498363163
   24    34.325482513    14.593965698     8.439389735    -0.017018318    -0.007194795     0.499658495
   25    35.604141323    10.837815980     1.724405806    -0.024629143    -0.008587434     0.499319198
   26    32.163367280    11.420193863     8.261551014     0.047282811    -0.414165752    -0.276099739
   27    30.827990457    13.420452340     3.549754439     0.045477816     0.020035030     0.497524236
   28    37.821151175    15.859266087     1.819033303    -0.001040549    -0.017042760     0.499708377
   29    38.533780996    18.512078990     5.898548129    -0.032102372    -0.031136684     0.497995928
   30    37.303747726    19.425740370     2.595593404    -0.015705522    -0.033864704     0.498604571
   31    35.816116787    20.389491062     9.609984619    -0.006508090    -0.015043550     0.499731264
   32    37.942991676    11.040478299     8.838913121    -0.020843110    -0.019517776     0.499183955
   33    31.006215007    18.414804887     6.241130506    -0.010681963    -0.026002017     0.499209165
   34    40.603518978    13.399570848     8.959362981    -0.010349994    -0.435475579     0.245466694
   35    37.975808190    18.001215114     1.135575480    -0.008701022    -0.021575276     0.499458506
   36    37.489576558    12.987974989     6.469646188    -0.018543089    -0.119033865     0.485270124
   37    37.995135920    15.600854874     8.406357446    -0.022552410    -0.016788672     0.499208903
   38    36.080184109    16.518061645     5.105496193    -0.008507464    -0.032756987     0.498853288
   39    38.266690810    16.213402359     4.531022183     0.004884970    -0.026034338     0.499297857
   40    33.033101242    19.232158106     7.077987084    -0.012439274    -0.014545689     0.499633553
   41    36.532473285    12.424062670     4.518964197    -0.010270013    -0.098223915     0.490149558
   42    30.816583565    18.865650136     3.967998247     0.000007703    -0.000003516     0.500000000
   43    34.354394292    17.450340630     6.112389258    -0.011161076    -0.028151864     0.499082060
   44    39.294789500    14.449682019     5.395728092     0.008862484    -0.033034959     0.498828776
   45    34.634220310    19.966389469     5.571553343    -0.018294099    -0.014684270     0.499449395
   46    37.726246721    11.644893110     2.871294688    -0.000134826    -0.082873603     0.493084118
   47    37.150710751    12.214626849    10.436059418    -0.021842974    -0.015147619     0.499292934
   48    40.355625857    13.871476716     1.357161509    -0.011431799    -0.013025875     0.499699550
   49    33.595092294    15.723635323     2.447056337     0.009792252    -0.023025776    -0.499373533
   50    36.749852319    19.797721659     7.568110248    -0.027413628     0.001913656     0.499244260
   51    40.026822422    16.231334038     1.496495133    -0.015699025    -0.012847324     0.499588317
   52    39.734274992    19.993715795     2.197673762    -0.041752379    -0.021723324     0.497779907
   53    39.003501656    14.673877415    10.120686568    -0.015271463    -0.009691992     0.499672741
   54    35.162613888    12.780586703    10.432104307    -0.015159704    -0.042570626     0.497953738
   55    33.608837034    20.448895930     3.333510841    -0.020685710    -0.016743483     0.499291255
   56    36.719978567    14.441517581    10.297563554    -0.017138702    -0.011116449     0.499582515
   57    35.609645085    16.367685285     7.927332210    -0.017703704    -0.018592397     0.499340467
   58    34.482605430    10.655817100     7.717661881    -0.017669538    -0.012030402     0.499542848
   59    36.134335471    12.134846874     8.432775593    -0.017763098    -0.024235519     0.499096295
   60    39.239641391    16.814162034     9.678396842    -0.019641589    -0.014470419     0.499404460
   61    39.404518695    12.187658368    10.581806669    -0.018848968    -0.043447577     0.497751971
   62    39.236287890    17.703568830     3.015968736    -0.011173307    -0.017417702     0.499571597
   63    32.498867194    18.237200348    10.209804694    -0.018825227    -0.015107542     0.499417033
   64    33.838826678    19.558892502     1.276623533    -0.021972868    -0.011001009     0.499395806
   65    34.965772388    14.285516417     4.123576104    -0.082308129    -0.017016736     0.492885182
   66    31.364081963    17.167263868     8.716932052    -0.023468572    -0.015933686     0.499194695
   67    38.195065430    13.196167927     8.828728156    -0.007646326    -0.019023025     0.499579481
   68    31.358106236    12.726654037     5.928096088    -0.031597200    -0.228535167     0.443591360
   21     2.028420309    26.386416769     3.872876778     0.017888350     0.000779280    -0.499679297
   22     9.360725979    21.770039224     5.912803499    -0.044746808    -0.171256118     0.467620643
   23     9.244799561    29.297364936     6.777643130    -0.032962057    -0.027667242     0.498144584
   24     4.191590134    24.185078584     7.605754550    -0.018206171    -0.009840236     0.499571522
   25     5.470248944    20.428928866     0.890770621    -0.030444465    -0.023308938     0.498527660
   26     2.029474901    21.011306749     7.427915829     0.006211541    -0.397787777    -0.302863502
   27     0.694098079    23.011565226     2.716119254     0.041994638     0.024972027     0.497607122
   28     7.687258796    25.450378973     0.985398118    -0.002705754    -0.020036901     0.499591034
   29     8.399888618    28.103191876     5.064912944    -0.036450650    -0.031467638     0.497675736
   30     7.169855347    29.016853256     1.761958218    -0.018015494    -0.035995105     0.498377161
   31     5.682224409    29.980603948     8.776349434    -0.014115022    -0.017760299     0.499485073
   32     7.809099297    20.631591185     8.005277936    -0.023896216    -0.028215465     0.498630984
   33     0.872322629    28.005917773     5.407495321    -0.016512179    -0.030872882     0.498772707
   34    10.469626600    22.990683734     8.125727796    -0.043433920    -0.441596787     0.230446897
   35     7.841915812    27.592328000     0.301940295    -0.008471146    -0.023913539     0.499355968
   36     7.355684180    22.579087875     5.636011002    -0.023680136    -0.124799771     0.483595149
   37     7.861243541    25.191967760     7.572722261    -0.020381938    -0.017105100     0.499291490
   38     5.946291731    26.109174531     4.271861008    -0.009678391    -0.035260243     0.498661252
   39     8.132798432    25.804515245     3.697386998     0.006434392    -0.028092931     0.499168695
   40     2.899208864    28.823270992     6.244351899    -0.017614252    -0.018507376     0.499346788
   41     6.398580907    22.015175556     3.685329012    -0.015417181    -0.104826481     0.488644778
   42     0.682691187    28.456763022     3.134363062    -0.008634099    -0.009287918     0.499839161
   43     4.220501914    27.041453516     5.278754073    -0.013595818    -0.030987591     0.498853609
   44     9.160897122    24.040794905     4.562092906     0.010206896    -0.036007033     0.498597345
   45     4.500327932    29.557502355     4.737918158    -0.023929616    -0.018001903     0.499102499
   46     7.592354342    21.236005996     2.037659503    -0.005744577    -0.090270302     0.491750213
   47     7.016818372    21.805739735     9.602424232    -0.024529060    -0.022607192     0.498885999
   48    10.221733479    23.462589602     0.523526324    -0.011511511    -0.020823740     0.499433536
   49     3.461199916    25.314748209     1.613421152     0.032749450     0.009386019    -0.498838026
   50     6.615959940    29.388834545     6.734475063    -0.034636592    -0.001197565     0.498797426
   51     9.892930044    25.822446924     0.662859948    -0.015194499    -0.013924096     0.499575066
   52     9.600382614    29.584828681     1.364038577    -0.044800102    -0.022637525     0.497474113
   53     8.869609278    24.264990301     9.287051383    -0.013564553    -0.009212703     0.499731057
   54     5.028721509    22.371699589     9.598469122    -0.020480731    -0.049821593     0.497089880
   55     3.474944655    30.040008816     2.499875656    -0.027383685    -0.020525334     0.498827470
   56     6.586086188    24.032630467     9.463928369    -0.018690064    -0.017418134     0.499346864
   57     5.475752707    25.958798171     7.093697025    -0.018117743    -0.021093336     0.499226220
   58     4.348713052    20.246929986     6.884026696    -0.022333997    -0.023485725     0.498948508
   59     6.000443093    21.725959760     7.599140408    -0.020997160    -0.034434910     0.498370702
   60     9.105749012    26.405274920     8.844761657    -0.014394423    -0.013646958     0.499606406
   61     9.270626317    21.778771254     9.748171483    -0.021853907    -0.049246304     0.497088733
   62     9.102395512    27.294681716     2.182333551    -0.010032767    -0.017972866     0.499576140
   63     2.364974815    27.828313234     9.376169509    -0.022822320    -0.015452480     0.499239785
   64     3.704934300    29.150005388     0.442988348    -0.028579136    -0.015729650     0.498934676
   65     4.831880009    23.876629303     3.289940919    -0.102554793    -0.031402381     0.488360937
   66     1.230189585    26.758376754     7.883296866    -0.026859513    -0.015899108     0.499024834
   67     8.061173051    22.787280813     7.995092971    -0.006775948    -0.023711440     0.499391484
   68     1.224213858    22.317766923     5.094460903    -0.057897458    -0.242474824     0.433421093
   21    12.118076258    26.531076981     4.160963648     0.017341939    -0.002512722    -0.499692849
   22    19.450381929    21.914699436     6.200890368    -0.046484025    -0.159290688     0.471662710
   23    19.334455510    29.442025147     7.065729999    -0.016557757    -0.016509686     0.499452972
   24    14.281246084    24.329738795     7.893841420    -0.008539851     0.000544471     0.499926769
   25    15.559904894    20.573589078     1.178857491    -0.027193341    -0.013057228     0.499089201
   26    12.119130851    21.155966961     7.716002698    -0.001133563    -0.396819697    -0.304192116
   27    10.783754028    23.156225438     3.004206123     0.032188320     0.017878259     0.498642437
   28    17.776914746    25.595039185     1.273484988     0.009810323    -0.003419753     0.499892051
   29    18.489544567    28.247852088     5.352999814    -0.019174373    -0.019418659     0.499254704
   30    17.259511297    29.161513468     2.050045088    -0.002731220    -0.020819531     0.499558893
   31    15.771880359    30.125264160     9.064436303     0.002052431    -0.005518265     0.499965335
   32    17.898755247    20.776251397     8.293364805    -0.017314819    -0.020134244     0.499294311
   33    10.961978579    28.150577985     5.695582190    -0.014703088    -0.029190638     0.498930582
   34    20.559282550    23.135343946     8.413814665    -0.073013439    -0.431697735     0.241466568
   35    17.931571761    27.736988211     0.590027165     0.005552994    -0.008861637     0.499890624
   36    17.445340130    22.723748087     5.924097872    -0.020563528    -0.112903220     0.486651831
   37    17.950899491    25.336627972     7.860809131    -0.010237973    -0.008615879     0.499820918
   38    16.035947681    26.253834743     4.559947877     0.001911262    -0.024466014     0.499397398
   39    18.222454381    25.949175456     3.985473868     0.018459394    -0.015257204     0.499426139
   40    12.988864813    28.967931204     6.532438768    -0.010843006    -0.010809631     0.499765526
   41    16.488236857    22.159835768     3.973415881    -0.013046430    -0.092117115     0.491267980
   42    10.772347136    28.601423234     3.422449932    -0.013168917    -0.011590974     0.499692134
   43    14.310157864    27.186113728     5.566840943    -0.002461697    -0.020970273     0.499553989
   44    19.250553072    24.185455117     4.850179776     0.021174885    -0.023822201     0.498983093
   45    14.589983882    29.702162567     5.026005028    -0.014202696    -0.008716875     0.499722222
   46    17.682010292    21.380666207     2.325746373    -0.000675229    -0.077383952     0.493974967
   47    17.106474322    21.950399947     9.890511102    -0.017913667    -0.013352715     0.499500556
   48    20.311389428    23.607249814     0.811613194    -0.003346190    -0.005071892     0.499963078
   49    13.550855866    25.459408421     1.901508021     0.024131002    -0.024223910    -0.498829527
   50    16.705615890    29.533494757     7.022561933    -0.020747856     0.008377005     0.499499101
   51    19.982585994    25.967107135     0.950946818    -0.000301263     0.000889009     0.499999119
   52    19.690038564    29.729488893     1.652125446    -0.028401480    -0.007773797     0.499132171
   53    18.959265227    24.409650512     9.575138253    -0.002910960     0.000020175     0.499991526
   54    15.118377459    22.516359800     9.886555991    -0.012449116    -0.040890878     0.498169605
   55    13.564600605    30.184669028     2.787962525    -0.017024402    -0.009990713     0.499610203
   56    16.675742138    24.177290678     9.752015238    -0.010433666    -0.008017015     0.499826836
   57    15.565408657    26.103458382     7.381783894    -0.008438177    -0.010699382     0.499814286
   58    14.438369002    20.391590198     7.172113565    -0.018324067    -0.017019180     0.499374184
   59    16.090099043    21.870619972     7.887227278    -0.015854334    -0.026475154     0.499046798
   60    19.195404962    26.549935132     9.132848527    -0.005118789    -0.004860347     0.499950173
   61    19.360282266    21.923431466    10.036258353    -0.015324169    -0.038609482     0.498271490
   62    19.192051462    27.439341928     2.470420421     0.004645625    -0.004436800     0.499958731
   63    12.454630765    27.972973445     9.664256378    -0.014697843    -0.018341173     0.499447269
   64    13.794590249    29.294665599     0.731075218    -0.019490454    -0.005868606     0.499585510
   65    14.921535959    24.021289515     3.578027788    -0.096223401    -0.012341430     0.490498467
   66    11.319845535    26.903036966     8.171383736    -0.024870765    -0.019005355     0.499019280
   67    18.150829001    22.931941025     8.283179840     0.001468232    -0.014520893     0.499786943
   68    11.313869807    22.462427135     5.382547773    -0.063871957    -0.247233935     0.429878767
   21    22.207732208    26.675737193     4.449050518     0.004662400    -0.006516551    -0.499935792
   22    29.540037878    22.059359647     6.488977238    -0.025089713    -0.160163454     0.472988556
   23    29.424111460    29.586685359     7.353816869    -0.012100129    -0.016190626     0.499591283
   24    24.370902034    24.474399007     8.181928289    -0.000094780    -0.002289926     0.499994747
   25    25.649560844    20.718249289     1.466944360    -0.017105753    -0.009372318     0.499619408
   26    22.208786801    21.300627172     8.004089568    -0.031926977    -0.400292667    -0.297903422
   27    20.873409978    23.300885650     3.292292993     0.047544421     0.029641346     0.496851002
   28    27.866570696    25.739699397     1.561571857     0.012826342    -0.008173393     0.499768627
   29    28.579200517    28.392512299     5.641086683    -0.015323473    -0.019112644     0.499399537
   30    27.349167247    29.306173679     2.338131958    -0.000718837    -0.023758120     0.499434715
   31    25.861536308    30.269924372     9.352523173     0.007906894    -0.004700231     0.499915382
   32    27.988411197    20.920911609     8.581451675    -0.009538575    -0.017801258     0.499591964
   33    21.051634528    28.295238196     5.983669060    -0.003747397    -0.022216307     0.499492135
   34    30.648938500    23.280004157     8.701901535    -0.018937266    -0.433670762     0.248135145
   35    28.021227711    27.881648423     0.878114034     0.007801797    -0.012813899     0.499774885
   36    27.534996080    22.868408299     6.212184742    -0.005947815    -0.112986419     0.487030484
   37    28.040555441    25.481288183     8.148896000    -0.006824008    -0.009963824     0.499854134
   38    26.125603631    26.398494954     4.848034747     0.008962188    -0.024899780     0.499299189
   39    28.312110331    26.093835668     4.273560737     0.023328721    -0.016557016     0.499180965
   40    23.078520763    29.112591416     6.820525638     0.002029665    -0.007752685     0.499935772
   41    26.577892807    22.304495980     4.261502751     0.001674110    -0.092320660     0.491400135
   42    20.862003086    28.746083446     3.710536801     0.000626411    -0.001873199     0.499996099
   43    24.399813813    27.330773940     5.854927812     0.005417765    -0.020763485     0.499539313
   44    29.340209022    24.330115329     5.138266646     0.027320811    -0.024057307     0.498673058
   45    24.679639831    29.846822778     5.314091897    -0.003699326    -0.006527251     0.499943707
   46    27.771666242    21.525326419     2.613833242     0.011278079    -0.077436917     0.493838363
   47    27.196130272    22.095060158    10.178597972    -0.010463688    -0.012709431     0.499728908
   48    30.401045378    23.751910026     1.099700063     0.005048260    -0.008613433     0.499900314
   49    23.640511816    25.604068633     2.189594891     0.024454086    -0.016633318    -0.499124564
   50    26.795271840    29.678154968     7.310648802    -0.011468192     0.012080051     0.499722476
   51    30.072241943    26.111767347     1.239033687     0.000987699    -0.003023608     0.499989882
   52    29.779694513    29.874149105     1.940212316    -0.026887285    -0.011987156     0.499132630
   53    29.048921177    24.554310724     9.863225122     0.000438436    -0.004537995     0.499979214
   54    25.208033409    22.661020012    10.174642861    -0.005448413    -0.041153455     0.498273728
   55    23.654256555    30.329329239     3.076049395    -0.010135920    -0.006796753     0.499851045
   56    26.765398088    24.321950890    10.040102108    -0.004885679    -0.008240199     0.499908221
   57    25.655064606    26.248118594     7.669870764    -0.001000619    -0.012958704     0.499831042
   58    24.528024952    20.536250409     7.460200435    -0.010333036    -0.011811791     0.499753649
   59    26.179754993    22.015280183     8.175314147    -0.007890087    -0.023296060     0.499394674
   60    29.285060912    26.694595343     9.420935396    -0.003728651    -0.005810819     0.499952329
   61    29.449938216    22.068091677    10.324345223    -0.006440937    -0.039846142     0.498368136
   62    29.281707411    27.584002139     2.758507290     0.006843554    -0.007072591     0.499903135
   63    22.544286715    28.117633657     9.952343248    -0.007546357    -0.006785660     0.499896997
   64    23.884246199    29.439325811     1.019162087    -0.012598150    -0.001797562     0.499838029
   65    25.011191909    24.165949727     3.866114658    -0.081258337    -0.026709379     0.492629365
   66    21.409501484    27.047697177     8.459470606    -0.015941036    -0.009569359     0.499654191
   67    28.240484951    23.076601236     8.571266710     0.006650822    -0.015316179     0.499721103
   68    21.403525757    22.607087346     5.670634642    -0.071615818    -0.234817322     0.435582369
   21    32.297388158    26.820397404     4.737137387     0.003784001    -0.006548924    -0.499942790
   22    39.629693828    22.204019859     6.777064107    -0.038603230    -0.165791293     0.470130873
   23    39.513767410    29.731345571     7.641903738    -0.019773235    -0.021453520     0.499148040
   24    34.460557984    24.619059219     8.470015159    -0.008815619    -0.001054962     0.499921166
   25    35.739216794    20.862909501     1.755031230    -0.022849429    -0.014559795     0.499265376
   26    32.298442751    21.445287384     8.292176437     0.021985096    -0.404029747    -0.293728819
   27    30.963065928    23.445545861     3.580379863     0.047931281     0.029328533     0.496832396
   28    37.956226646    25.884359608     1.849658727     0.004330089    -0.013748267     0.499792192
   29    38.668856467    28.537172511     5.929173553    -0.023743445    -0.023719560     0.498872360
   30    37.438823197    29.450833891     2.626218827    -0.008966010    -0.030212343     0.499005837
   31    35.951192258    30.414584583     9.640610042     0.005236160    -0.009070588     0.499890295
   32    38.078067147    21.065571820     8.869538545    -0.016673466    -0.020287257     0.499309947
   33    31.141290478    28.439898408     6.271755930    -0.003415151    -0.023056486     0.499456440
   34    40.738594449    23.424664369     8.989988404    -0.040881988    -0.437535476     0.238519120
   35    38.110883661    28.026308635     1.166200904    -0.001434173    -0.018759490     0.499645899
   36    37.624652029    23.013068510     6.500271611    -0.017436178    -0.118347390     0.485479016
   37    38.130211391    25.625948395     8.436982870    -0.012738143    -0.008829820     0.499759716
   38    36.215259580    26.543155166     5.136121616     0.001690930    -0.027083483     0.499263083
   39    38.401766281    26.238495880     4.561647607     0.015045393    -0.020989688     0.499332624
   40    33.168176713    29.257251627     7.108612508    -0.002799214    -0.009106229     0.499909233
   41    36.667548756    22.449156191     4.549589621    -0.009924086    -0.098161231     0.490169241
   42    30.951659036    28.890743657     3.998623671     0.003385140    -0.001128160     0.499987268
   43    34.489469763    27.475434151     6.143014682    -0.001434241    -0.022348776     0.499498223
   44    39.429864971    24.474775540     5.426353515     0.019588507    -0.028392409     0.498808742
   45    34.769295781    29.991482990     5.602178767    -0.009951901    -0.007312774     0.499847460
   46    37.861322192    21.669986631     2.901920112    -0.000657153    -0.083618599     0.492957907
   47    37.285786222    22.239720370    10.466684841    -0.016106967    -0.014148623     0.499540171
   48    40.490701328    23.896570237     1.387786933    -0.005971624    -0.014723313     0.499747500
   49    33.730167765    25.748728844     2.477681760     0.021235695    -0.008721791    -0.499472698
   50    36.884927790    29.822815180     7.598735672    -0.015430538     0.007915447     0.499699154
   51    40.161897893    26.256427559     1.527120557    -0.009508670    -0.008273745     0.499841105
   52    39.869350463    30.018809316     2.228299185    -0.035921405    -0.018109392     0.498379075
   53    39.138577127    24.698970936    10.151311992     0.000191095    -0.002889006     0.499991617
   54    35.297689359    22.805680224    10.462729730    -0.010993712    -0.041827193     0.498126113
   55    33.743912505    30.473989451     3.364136264    -0.015511594    -0.012285092     0.499608314
   56    36.855054038    24.466611102    10.328188977    -0.009287860    -0.008708297     0.499837875
   57    35.744720556    26.392778806     7.957957633    -0.008940266    -0.012301491     0.499768691
   58    34.617680902    20.680910621     7.748287305    -0.015123495    -0.013915429     0.499577462
   59    36.269410942    22.159940395     8.463401017    -0.013758365    -0.025405147     0.499164588
   60    39.374716862    26.839255555     9.709022266    -0.009780563    -0.004777709     0.499881500
   61    39.539594166    22.212751889    10.612432092    -0.012615567    -0.041845556     0.498086134
   62    39.371363361    27.728662351     3.046594160    -0.003277614    -0.012623773     0.499829869
   63    32.633942665    28.262293869    10.240430118    -0.014215317    -0.008841725     0.499719670
   64    33.973902149    29.583986023     1.307248957    -0.017427694    -0.007818427     0.499635014
   65    35.100847859    24.310609938     4.154201528     0.000954543    -0.001950467     0.499995285
   66    31.499157434    27.192357389     8.747557475    -0.018725269    -0.011727931     0.499511581
   67    38.330140901    23.221261448     8.859353579     0.002523710    -0.016062605     0.499735554
   68    31.493181707    22.751747558     5.958721512    -0.042231665    -0.237467440     0.437979111
   21     2.163495780    36.411510290     3.903502202     0.018967679    -0.004700711    -0.499617985
   22     9.495801450    31.795132745     5.943428922    -0.046766277    -0.165619145     0.469449906
   23     9.379875032    39.322458457     6.808268553    -0.034101715    -0.030846987     0.497881047
   24     4.326665605    34.210172105     7.636379974    -0.020609492    -0.008273396     0.499506556
   25     5.605324415    30.454022387     0.921396045    -0.029759535    -0.017224651     0.498816280
   26     2.164550372    31.036400270     7.458541252     0.049507693    -0.402906252    -0.291917009
   27     0.829173550    33.036658747     2.746744677     0.039254802     0.033435897     0.497333994
   28     7.822334267    35.475472494     1.016023542    -0.002794592    -0.018385296     0.499654051
   29     8.534964089    38.128285397     5.095538368    -0.037101534    -0.033910141     0.497467163
   30     7.304930818    39.041946777     1.792583642    -0.019097025    -0.036172855     0.498324019
   31     5.817299880    40.005697469     8.806974857    -0.014543678    -0.021125208     0.499341774
   32     7.944174769    30.656684706     8.035903359    -0.023952045    -0.022757976     0.498907180
   33     1.007398100    38.031011294     5.438120744    -0.017046777    -0.027148062     0.498971332
   34    10.604702071    33.015777255     8.156353219    -0.051942051    -0.437215383     0.236948796
   35     7.976991283    37.617421521     0.332565719    -0.009349604    -0.022976565     0.499384283
   36     7.490759651    32.604181396     5.666636426    -0.025952505    -0.119917147     0.484712642
   37     7.996319012    35.217061281     7.603347685    -0.025590702    -0.016801230     0.499061955
   38     6.081367202    36.134268052     4.302486431    -0.011119791    -0.034058711     0.498714702
   39     8.267873903    35.829608766     3.728012422     0.003943608    -0.026472243     0.499283154
   40     3.034284335    38.848364513     6.274977322    -0.018576502    -0.017245866     0.499357080
   41     6.533656378    32.040269077     3.715954435    -0.017676455    -0.099602142     0.489660041
   42     0.817766658    38.481856543     3.164988486    -0.008653356    -0.001222692     0.499923619
   43     4.355577385    37.066547037     5.309379497    -0.014493627    -0.029985726     0.498889558
   44     9.295972593    34.065888426     4.592718330     0.008027873    -0.033725414     0.498796702
   45     4.635403403    39.582595876     4.768543582    -0.024370744    -0.018021159     0.499080459
   46     7.727429813    31.261099517     2.068284927    -0.007526612    -0.084869267     0.492687079
   47     7.151893843    31.830833256     9.633049656    -0.025800029    -0.017904849     0.499012800
   48    10.356808950    33.487683123     0.554151748    -0.011079494    -0.016446687     0.499606597
   49     3.596275387    35.339841730     1.644046575     0.037080561    -0.015109588    -0.498394154
   50     6.751035411    39.413928066     6.765100486    -0.035474269    -0.003374050     0.498728575
   51    10.028005515    35.847540445     0.693485372    -0.017372325    -0.012169353     0.499549907
   52     9.735458085    39.609922202     1.394664000    -0.045426166    -0.024129807     0.497347178
   53     9.004684749    34.290083822     9.317676806    -0.018094740    -0.010121386     0.499569953
   54     5.163796980    32.396793110     9.629094545    -0.021107976    -0.046446225     0.497390391
   55     3.610020126    40.065102337     2.530501079    -0.026878066    -0.020734446     0.498846321
   56     6.721161659    34.057723988     9.494553792    -0.020376719    -0.014584152     0.499371697
   57     5.610828178    35.983891692     7.124322448    -0.021059427    -0.019601765     0.499171585
   58     4.483788523    30.272023507     6.914652119    -0.022154831    -0.017556575     0.499200291
   59     6.135518564    31.751053281     7.629765832    -0.021072034    -0.029173613     0.498703188
   60     9.240824483    36.430368441     8.875387081    -0.022774302    -0.013135746     0.499308305
   61     9.405701788    31.803864775     9.778796907    -0.023668703    -0.045355618     0.497375774
   62     9.237470983    37.319775237     2.212958975    -0.012362850    -0.017126297     0.499553651
   63     2.500050287    37.853406755     9.406794932    -0.023875644    -0.015606900     0.499185715
   64     3.840009771    39.175098909     0.473613771    -0.028002138    -0.015270530     0.498981654
   65     4.966955480    33.901722824     3.320566342    -0.109169381    -0.019157757     0.487560280
   66     1.365265056    36.783470275     7.913922290    -0.027819978    -0.014971534     0.499000904
   67     8.196248522    32.812374334     8.025718394    -0.009428226    -0.020965468     0.499471278
   68     1.359289329    32.342860444     5.125086327    -0.037463904    -0.236528730     0.438919828
   21    12.253151729    36.556170502     4.191589072     0.021458424    -0.002579759    -0.499532662
   22    19.585457400    31.939792957     6.231515792    -0.017901794    -0.153175314     0.475622591
   23    19.469530981    39.467118668     7.096355423    -0.027707616    -0.013873974     0.499038877
   24    14.416321555    34.354832316     7.924466843    -0.004977347     0.004837121     0.499951826
   25    15.694980365    30.598682599     1.209482914    -0.011876454    -0.001587655     0.499856409
   26    12.254206322    31.181060482     7.746628122    -0.019699766    -0.400456475    -0.298741578
   27    10.918829499    33.181318959     3.034831547     0.031271171     0.019968895     0.498621457
   28    17.911990217    35.620132706     1.304110411     0.008493296     0.001395514     0.499925911
   29    18.624620038    38.272945609     5.383625237    -0.031146461    -0.016539613     0.498754789
   30    17.394586768    39.186606989     2.080670512    -0.007445130    -0.018234965     0.499611905
   31    15.906955830    40.150357681     9.095061727    -0.011017486    -0.006573613     0.499835376
   32    18.033830718    30.801344918     8.323990229    -0.008888319    -0.011042594     0.499799019
   33    11.097054050    38.175671506     5.726207614    -0.021601414    -0.028983060     0.498691649
   34    20.694358021    33.160437467     8.444440089    -0.006507810    -0.429642035     0.255666522
   35    18.066647233    37.762081732     0.620652588     0.004058395    -0.003387983     0.499972050
   36    17.580415601    32.748841608     5.954723296    -0.001602776    -0.105221878     0.488800356
   37    18.085974962    35.361721493     7.891434554    -0.009064204    -0.003385262     0.499906371
   38    16.171023152    36.278928264     4.590573301     0.000856644    -0.019151713     0.499632343
   39    18.357529852    35.974268977     4.016099291     0.018254811    -0.006914336     0.499618809
   40    13.123940284    38.993024725     6.563064192    -0.017851407    -0.010781288     0.499564902
   41    16.623312328    32.184929289     4.004041305     0.006281120    -0.084236741     0.492813067
   42    10.907422607    38.626516755     3.453075355    -0.016318639    -0.012173415     0.499585338
   43    14.445233335    37.211207249     5.597466366    -0.004959734    -0.016920689     0.499688995
   44    19.385628543    34.210548638     4.880805200     0.022461204    -0.015830286     0.499244325
   45    14.725059353    39.727256088     5.056630451    -0.021557279    -0.007948343     0.499471829
   46    17.817085763    31.405759728     2.356371796     0.016243665    -0.069144554     0.494929464
   47    17.241549793    31.975493468     9.921136526    -0.010328459    -0.003738625     0.499879331
   48    20.446464899    33.632343335     0.842238617     0.003258193     0.001712585     0.499986451
   49    13.685931337    35.484501942     1.932133445     0.016257426    -0.025686333    -0.499075053
   50    16.840691361    39.558588278     7.053187356    -0.031309378     0.009929955     0.498919952
   51    20.117661465    35.992200656     0.981572241    -0.004429827     0.005733866     0.499947497
   52    19.825114035    39.754582414     1.682750870    -0.033973668    -0.004675650     0.498822542
   53    19.094340698    34.434744033     9.605763676    -0.001736046     0.002413364     0.499991162
   54    15.253452930    32.541453321     9.917181415    -0.003643100    -0.031512702     0.498992663
   55    13.699676076    40.209762549     2.818587949    -0.024796639    -0.010599778     0.499272242
   56    16.810817609    34.202384199     9.782640662    -0.001287748     0.001637146     0.499995661
   57    15.700484128    36.128551903     7.412409318    -0.006172870    -0.006396973     0.499920968
   58    14.573444473    30.416683719     7.202738989    -0.008235718    -0.006567346     0.499889031
   59    16.225174514    31.895713493     7.917852701    -0.006625265    -0.016168475     0.499694593
   60    19.330480433    36.575028653     9.163473950    -0.005252511    -0.000222839     0.499972361
   61    19.495357737    31.948524987    10.066883776    -0.008442176    -0.032211641     0.498889908
   62    19.327126933    37.464435449     2.501045844    -0.000009499     0.000740744     0.499999451
   63    12.589706236    37.998066966     9.694881802    -0.027874528    -0.015811584     0.498971948
   64    13.929665720    39.319759120     0.761700641    -0.026848052    -0.006761898     0.499232870
   65    15.056611430    34.046383036     3.608653212    -0.062362161    -0.031660488     0.495084411
   66    11.454921006    36.928130487     8.202009160    -0.034730319    -0.018561178     0.498446875
   67    18.285904472    32.957034546     8.313805264     0.005772730    -0.008260512     0.499898429
   68    11.448945278    32.487520656     5.413173196    -0.066921879    -0.241326687     0.432761935
   21    22.342807679    36.700830714     4.479675941     0.008299004    -0.013112351    -0.499759135
   22    29.675113349    32.084453168     6.519602661    -0.025662524    -0.151526377     0.475795326
   23    29.559186931    39.611778880     7.384442292    -0.005132845    -0.001110540     0.499972420
   24    24.505977505    34.499492528     8.212553713     0.001081059     0.009458834     0.499909354
   25    25.784636315    30.743342810     1.497569784    -0.010559176    -0.002268063     0.499883346
   26    22.343862272    31.325720693     8.034714991     0.018464226    -0.408332471    -0.287964695
   27    21.008485449    33.325979171     3.322918417     0.040856094     0.037299103     0.496930132
   28    28.001646167    35.764792918     1.592197281     0.011665137     0.005225933     0.499836588
   29    28.714275988    38.417605820     5.671712107    -0.006443291     0.002633696     0.499951545
   30    27.484242718    39.331267200     2.368757381     0.002128985    -0.012275801     0.499844748
   31    25.996611779    40.295017893     9.383148596     0.009189900     0.002747393     0.499907989
   32    28.123486668    30.946005130     8.612077099    -0.000867373    -0.009307272     0.499912615
   33    21.186710000    38.320331717     6.014294484    -0.001781154    -0.016225267     0.499733497
   34    30.784013971    33.305097678     8.732526958    -0.035953985    -0.428502137     0.255133748
   35    28.156303182    37.906741944     0.908739458     0.009234666    -0.000221672     0.499914665
   36    27.670071551    32.893501820     6.242810165    -0.006126969    -0.103919354     0.489043176
   37    28.175630912    35.506381704     8.179521424    -0.001636017     0.001112781     0.499996085
   38    26.260679102    36.423588475     4.878660170     0.001325786    -0.012789336     0.499834648
   39    28.447185802    36.118929189     4.304186161     0.019836035    -0.004080100     0.499589716
   40    23.213596234    39.137684937     6.851151062    -0.000264136     0.000506946     0.499999673
   41    26.712968278    32.329589501     4.292128175     0.001364907    -0.083911884     0.492906617
   42    20.997078557    38.771176967     3.741162225    -0.002490104     0.003367252     0.499982461
   43    24.534889284    37.355867461     5.885553236    -0.002454640    -0.008421871     0.499923041
   44    29.475284493    34.355208850     5.168892069     0.024936156    -0.012573335     0.499219490
   45    24.814715302    39.871916299     5.344717321    -0.005189442     0.004585330     0.499952042
   46    27.906741713    31.550419940     2.644458666     0.011078087    -0.069390359     0.495037629
   47    27.331205743    32.120153679    10.209223395    -0.000975039     0.000567013     0.499998728
   48    30.536120849    33.777003547     1.130325487     0.000006872     0.000242619     0.499999941
   49    23.775587287    35.629162154     2.220220314     0.023101555    -0.026818249    -0.498745526
   50    26.930347311    39.703248490     7.341274226    -0.012298078     0.018929404     0.499490175
   51    30.207317415    36.136860868     1.269659111     0.000169848     0.009547967     0.499908799
   52    29.914769984    39.899242626     1.970837739    -0.025139429     0.000353590     0.499367484
   53    29.183996648    34.579404245     9.893850546     0.005081284     0.004670266     0.499952367
   54    25.343108880    32.686113533    10.205268284     0.003300014    -0.030484998     0.499058889
   55    23.789332026    40.354422760     3.106674818    -0.008127291     0.003161060     0.499923949
   56    26.900473559    34.347044411    10.070727531     0.001577331     0.003164714     0.499987496
   57    25.790140077    36.273212115     7.700496187     0.000258386    -0.000920814     0.499999085
   58    24.663100423    30.561343930     7.490825859    -0.000543849    -0.004703257     0.499977583
   59    26.314830464    32.040373704     8.205939571    -0.000024097    -0.015110922     0.499771607
   60    29.420136383    36.719688864     9.451560820     0.000071925     0.001696985     0.499997115
   61    29.585013687    32.093185198    10.354970646    -0.001263067    -0.029560734     0.499123800
   62    29.416782882    37.609095660     2.789132714     0.006279379     0.006153300     0.499922700
   63    22.679362186    38.142727178     9.982968672     0.000054642    -0.002875846     0.499991726
   64    24.019321670    39.464419332     1.049787511    -0.010826153     0.007167954     0.499831386
   65    25.146267380    34.191043248     3.896740082    -0.069727640    -0.027165327     0.494368386
   66    21.544576955    37.072790698     8.490096029    -0.011916945    -0.004947829     0.499833478
   67    28.375560422    33.101694757     8.601892133     0.013680116    -0.005023288     0.499787576
   68    21.538601228    32.632180867     5.701260066    -0.032212612    -0.231366806     0.442076632
   21    32.432463629    36.845490925     4.767762811     0.005234376    -0.014048055    -0.499775203
   22    39.764769299    32.229113380     6.807689531    -0.023385983    -0.158641696     0.473588332
   23    39.648842881    39.756439092     7.672529162    -0.024501585    -0.017407059     0.499095849
   24    34.595633455    34.644152740     8.500640582    -0.004086521     0.006534982     0.499940591
   25    35.874292265    30.888003022     1.785656654    -0.019884848    -0.009765602     0.499508985
   26    32.433518222    31.470380905     8.322801861    -0.017840211    -0.405000819    -0.292670571
   27    31.098141399    33.470639382     3.611005286     0.047946619     0.037238733     0.496300714
   28    38.091302117    35.909453129     1.880284150     0.005490575    -0.004675493     0.499947991
   29    38.803931938    38.562266032     5.959798976    -0.022781277    -0.022140399     0.498989796
   30    37.573898668    39.475927412     2.656844251    -0.009987338    -0.020468211     0.499481036
   31    36.086267729    40.439678104     9.671235466    -0.007124793    -0.005160495     0.499922601
   32    38.213142618    31.090665341     8.900163968    -0.006032888    -0.015166659     0.499733506
   33    31.276365949    38.464991929     6.302381353     0.002616049    -0.012832985     0.499828441
   34    40.873669920    33.449757890     9.020613828    -0.003885587    -0.433790916     0.248616860
   35    38.245959132    38.051402156     1.196826327     0.000226391    -0.009732574     0.499905217
   36    37.759727501    33.038162031     6.530897035    -0.007372924    -0.110837321     0.487504593
   37    38.265286862    35.651041916     8.467608294    -0.012318304    -0.004384413     0.499829007
   38    36.350335051    36.568248687     5.166747040     0.001674040    -0.017912026     0.499676252
   39    38.536841752    36.263589401     4.592273030     0.015292576    -0.010568150     0.499654332
   40    33.303252184    39.282345148     7.139237931    -0.001430084     0.000933757     0.499997083
   41    36.802624227    32.474249712     4.580215044    -0.001310695    -0.090972429     0.491652620
   42    31.086734507    38.915837178     4.029249094     0.004518137     0.009868918     0.499882177
   43    34.624545234    37.500527672     6.173640105    -0.001442664    -0.013521646     0.499815050
   44    39.564940442    34.499869061     5.456978939     0.020630250    -0.018350057     0.499237086
   45    34.904371252    40.016576511     5.632804190    -0.011282839     0.000448854     0.499872480
   46    37.996397663    31.695080152     2.932545535     0.007417739    -0.076713099     0.494024369
   47    37.420861693    32.264813891    10.497310265    -0.008112842    -0.009486409     0.499844166
   48    40.625776799    33.921663758     1.418412356    -0.002196109    -0.007845653     0.499933618
   49    33.865243236    35.773822365     2.508307184     0.023968677    -0.000694257    -0.499424690
   50    37.020003261    39.847908701     7.629361095    -0.026346982     0.008375789     0.499235098
   51    40.296973364    36.281521080     1.557745980    -0.007844694     0.001766594     0.499935336
   52    40.004425934    40.043902837     2.258924609    -0.036922297    -0.006789015     0.498588661
   53    39.273652598    34.724064457    10.181937415    -0.003150250     0.002251621     0.499985006
   54    35.432764830    32.830773745    10.493355154    -0.001099970    -0.035551719     0.498733261
   55    33.878987976    40.499082972     3.394761688    -0.014852842    -0.004068375     0.499762785
   56    36.990129509    34.491704623    10.358814401     0.000562394    -0.000717083     0.499999170
   57    35.879796027    36.417872327     7.988583057    -0.006405658    -0.004203466     0.499941295
   58    34.752756373    30.706004142     7.778912728     0.001338093    -0.006676840     0.499953627
   59    36.404486414    32.185033916     8.494026440    -0.002212164    -0.018357335     0.499657998
   60    39.509792333    36.864349076     9.739647689    -0.011100335    -0.002366808     0.499871164
   61    39.674669637    32.237845410    10.643057516    -0.007690808    -0.036770368     0.498586794
   62    39.506438832    37.753755872     3.077219583    -0.003130444    -0.000972477     0.499989254
   63    32.769018136    38.287387390    10.271055541    -0.013035772    -0.004808748     0.499806907
   64    34.108977620    39.609079544     1.337874380    -0.016116650     0.000062494     0.499740182
   65    35.235923330    34.335703459     4.184826951    -0.063567211    -0.025531498     0.495285122
   66    31.634232905    37.217450910     8.778182899    -0.016328945    -0.004834097     0.499709913
   67    38.465216372    33.246354969     8.889979003     0.004426141    -0.011678296     0.499844002
   68    31.628257178    32.776841079     5.989346936    -0.045489346    -0.228791274     0.442250237
   21     2.045140537     6.368365464    13.823611293     0.022364471     0.001536610    -0.499497216
   22     9.377446208     1.751987918    15.863538013    -0.039373512    -0.168756344     0.469010685
   23     9.261519789     9.279313630    16.728377644    -0.034503438    -0.036393078     0.497478700
   24     4.208310363     4.167027278    17.556489065    -0.021906708    -0.015237496     0.499287407
   25     5.486969173     0.410877561    10.841505136    -0.029655906    -0.015402773     0.498882032
   26     2.046195130     0.993255443    17.378650343     0.053684407    -0.400860063    -0.293988425
   27     0.710818307     2.993513921    12.666853769     0.031821299     0.032338749     0.497937356
   28     7.703979025     5.432327668    10.936132633    -0.004654121    -0.023164106     0.499441451
   29     8.416608846     8.085140570    15.015647459    -0.037233148    -0.039152187     0.497072227
   30     7.186575576     8.998801951    11.712692733    -0.019731186    -0.040723834     0.497948039
   31     5.698944638     9.962552643    18.727083948    -0.015434143    -0.026376696     0.499065183
   32     7.825819526     0.613539880    17.956012451    -0.025841004    -0.027412406     0.498578783
   33     0.889042858     7.987866467    15.358229835    -0.022040881    -0.032523497     0.498454032
   34    10.486346829     2.972632428    18.076462310    -0.020560401    -0.436939341     0.242200913
   35     7.858636041     7.574276694    10.252674810    -0.010891951    -0.027749511     0.499110539
   36     7.372404409     2.561036570    15.586745517    -0.022419891    -0.123402756     0.484013542
   37     7.877963770     5.173916455    17.523456776    -0.026375944    -0.025835418     0.498634977
   38     5.963011960     6.091123225    14.222595522    -0.012433006    -0.039498314     0.498282353
   39     8.149518660     5.786463939    13.648121513     0.003380154    -0.031294616     0.499008238
   40     2.915929093     8.805219687    16.195086414    -0.021508553    -0.022272109     0.499040415
   41     6.415301136     1.997124251    13.636063527    -0.014994864    -0.102768543     0.489094858
   42     0.699411415     8.438711717    13.085097577    -0.013823880    -0.008298429     0.499739969
   43     4.237222143     7.023402211    15.229488588    -0.016340736    -0.035342760     0.498481564
   44     9.177617351     4.022743600    14.512827421     0.006963473    -0.038095470     0.498497989
   45     4.517048161     9.539451049    14.688652673    -0.026542279    -0.022527439     0.498786549
   46     7.609074571     1.217954690    11.988394018    -0.005587817    -0.087766086     0.492205131
   47     7.033538601     1.787688429    19.553158747    -0.026743234    -0.025207985     0.498647528
   48    10.238453707     3.444538297    10.474260839    -0.012970758    -0.020255022     0.499421158
   49     3.477920145     5.296696904    11.564155666     0.041385444    -0.010976813    -0.498163381
   50     6.632680169     9.370783240    16.685209578    -0.036511526    -0.009389629     0.498576718
   51     9.909650273     5.804395618    10.613594463    -0.018418649    -0.017740146     0.499345612
   52     9.617102843     9.566777376    11.314773091    -0.046623137    -0.028713537     0.496992772
   53     8.886329506     4.246938995    19.237785898    -0.018559134    -0.020466212     0.499236109
   54     5.045441738     2.353648283    19.549203636    -0.023339483    -0.052809902     0.496655195
   55     3.491664884    10.021957510    12.450610170    -0.029368439    -0.023513665     0.498582593
   56     6.602806417     4.014579161    19.414662883    -0.021666989    -0.021794951     0.499054628
   57     5.492472936     5.940746865    17.044431539    -0.022345741    -0.026605335     0.498791363
   58     4.365433281     0.228878680    16.834761211    -0.024341708    -0.019727241     0.499017352
   59     6.017163322     1.707908454    17.549874923    -0.023206036    -0.032689750     0.498390269
   60     9.122469241     6.387223614    18.795496172    -0.023428911    -0.022846448     0.498927977
   61     9.287346545     1.760719949    19.698905998    -0.023720364    -0.053466880     0.496566851
   62     9.119115741     7.276630410    12.133068066    -0.013452401    -0.022417468     0.499316022
   63     2.381695044     7.810261928    19.326904024    -0.027539373    -0.021582638     0.498774270
   64     3.721654528     9.131954082    10.393722863    -0.030312012    -0.018160553     0.498749813
   65     4.848600238     3.858577998    13.240675434    -0.102885502    -0.026780623     0.488566650
   66     1.246909814     6.740325449    17.834031381    -0.032719346    -0.020616251     0.498502171
   67     8.077893280     2.769229508    17.945827485    -0.010793785    -0.028417588     0.499075079
   68     1.240934086     2.299715618    15.045195418    -0.039964857    -0.235395935     0.439308051
   21    12.134796487     6.513025675    14.111698163     0.026570706     0.004102418    -0.499276645
   22    19.467102157     1.896648130    16.151624883    -0.052242606    -0.150616443     0.473904418
   23    19.351175739     9.423973842    17.016464514    -0.032593039    -0.022869424     0.498412162
   24    14.297966313     4.311687490    17.844575934    -0.016586731     0.002094633     0.499720415
   25    15.576625123     0.555537772    11.129592005    -0.024352835    -0.002508879     0.499400285
   26    12.135851080     1.137915655    17.666737213     0.023697190    -0.402849628    -0.295212839
   27    10.800474257     3.138174132    12.954940638     0.025963115     0.015895520     0.499072389
   28    17.793634975     5.576987879    11.224219502    -0.000060701     0.000024940     0.499999996
   29    18.506264796     8.229800782    15.303734328    -0.034855350    -0.024816946     0.498165860
   30    17.276231526     9.143462162    12.000779603    -0.016647094    -0.023327697     0.499178017
   31    15.788600587    10.107212855    19.015170818    -0.015559463    -0.015724901     0.499510391
   32    17.915475476     0.758200091    18.244099320    -0.019768805    -0.011742182     0.499471036
   33    10.978698808     8.132526679    15.646316705    -0.024578113    -0.035849823     0.498107124
   34    20.576002779     3.117292640    18.364549180    -0.081350795    -0.426455358     0.248027973
   35    17.948291990     7.718936906    10.540761679    -0.006699116    -0.006961700     0.499906648
   36    17.462060359     2.705696781    15.874832387    -0.028946671    -0.104590154     0.488080926
   37    17.967619720     5.318576666    17.811543646    -0.020688569    -0.005778179     0.499538383
   38    16.052667910     6.235783437    14.510682392    -0.007409211    -0.024094409     0.499364159
   39    18.239174610     5.931124151    13.936208382     0.009783867    -0.011687771     0.499767618
   40    13.005585042     8.949879898    16.483173283    -0.022343398    -0.017829225     0.499182223
   41    16.504957086     2.141784462    13.924150396    -0.018445427    -0.083772714     0.492586945
   42    10.789067365     8.583371928    13.373184446    -0.018248194    -0.017957660     0.499344096
   43    14.326878093     7.168062422    15.517575457    -0.012436053    -0.022207991     0.499351729
   44    19.267273301     4.167403811    14.800914291     0.011263433    -0.020182635     0.499465511
   45    14.606704110     9.684111261    14.976739542    -0.026690709    -0.015045201     0.499060365
   46    17.698730521     1.362614902    12.276480887    -0.006561106    -0.068462062     0.495247310
   47    17.123194551     1.932348641    19.841245617    -0.021767276    -0.006239708     0.499486989
   48    20.328109657     3.589198508    10.762347708    -0.003623846     0.002149745     0.499982246
   49    13.567576095     5.441357116    11.852242536     0.044182488    -0.008695399    -0.497968169
   50    16.722336119     9.515443451    16.973296447    -0.036026496     0.001144841     0.498699089
   51    19.999306223     5.949055830    10.901681332    -0.012786677     0.002355898     0.499830922
   52    19.706758793     9.711437587    11.602859961    -0.043481308    -0.010457443     0.497996002
   53    18.975985456     4.391599207    19.525872767    -0.010643896     0.001434934     0.499884635
   54    15.135097688     2.498308495    19.837290506    -0.017477323    -0.033297202     0.498583834
   55    13.581320834    10.166617722    12.738697040    -0.030055996    -0.017303856     0.498795764
   56    16.692462367     4.159239373    19.702749753    -0.015926614    -0.002567688     0.499739682
   57    15.582128885     6.085407077    17.332518409    -0.017242726    -0.009041168     0.499620802
   58    14.455089231     0.373538892    17.122848080    -0.019816389    -0.008233214     0.499539313
   59    16.106819272     1.852568666    17.837961792    -0.018948493    -0.018368885     0.499303053
   60    19.212125191     6.531883826    19.083583041    -0.017463374    -0.003098493     0.499685331
   61    19.377002495     1.905380160    19.986992868    -0.018661719    -0.033178148     0.498548845
   62    19.208771690     7.421290622    12.421154935    -0.008002306    -0.003657283     0.499922581
   63    12.471350994     7.954922140    19.614990893    -0.031334719    -0.024425821     0.498419015
   64    13.811310478     9.276614294    10.681809732    -0.031710845    -0.013408969     0.498813213
   65    14.938256188     4.003238210    13.528762303    -0.107463433    -0.008280190     0.488244866
   66    11.336565763     6.884985660    18.122118251    -0.037340726    -0.027457237     0.497847136
   67    18.167549230     2.913889719    18.233914355    -0.005814226    -0.008160067     0.499899598
   68    11.330590036     2.444375829    15.333282288    -0.054623061    -0.244233145     0.432858512
   21    22.224452437     6.657685887    14.399785032     0.018008363    -0.008014254    -0.499611320
   22    29.556758107     2.041308342    16.439711752    -0.003217401    -0.148667076     0.477375899
   23    29.440831689     9.568634053    17.304551384    -0.021254513    -0.016380062     0.499279420
   24    24.387622263     4.456347701    18.132662804    -0.006500714     0.006762412     0.499912003
   25    25.666281073     0.700197984    11.417678875    -0.004498630     0.005906339     0.499944874
   26    22.225507030     1.282575867    17.954824083    -0.052991822    -0.401722841    -0.292934508
   27    20.890130207     3.282834344    13.243027508     0.039292079     0.032743660     0.497377106
   28    27.883290925     5.721648091    11.512306372     0.010595957    -0.001227979     0.499886205
   29    28.595920746     8.374460994    15.591821198    -0.021910418    -0.017779883     0.499203174
   30    27.365887476     9.288122374    12.288866472    -0.004414748    -0.018100315     0.499652768
   31    25.878256537    10.251873066    19.303257687    -0.005891370    -0.007907804     0.499902749
   32    28.005131426     0.902860303    18.532186190    -0.006540086    -0.008741042     0.499880807
   33    21.068354757     8.277186891    15.934403575    -0.017423527    -0.022546021     0.499187437
   34    30.665658728     3.261952852    18.652636049     0.056856645    -0.420539333     0.264412540
   35    28.037947940     7.863597117    10.828848549     0.005561583    -0.005564032     0.499938107
   36    27.551716309     2.850356993    16.162919256     0.006164459    -0.101610239     0.489527689
   37    28.057275670     5.463236878    18.099630515    -0.013146969    -0.003546050     0.499814548
   38    26.142323859     6.380443649    14.798769261     0.001317761    -0.019997962     0.499598184
   39    28.328830560     6.075784362    14.224295252     0.018749605    -0.011116971     0.499524639
   40    23.095240992     9.094540110    16.771260153    -0.013524579    -0.007507742     0.499760662
   41    26.594613035     2.286444674    14.212237266     0.012421648    -0.080285890     0.493355732
   42    20.878723315     8.728032140    13.661271316    -0.012465236    -0.001288035     0.499842934
   43    24.416534042     7.312722634    15.805662327    -0.003237567    -0.016683294     0.499711102
   44    29.356929250     4.312064023    15.089001160     0.023875898    -0.018507464     0.499086581
   45    24.696360060     9.828771473    15.264826412    -0.016824414    -0.005782544     0.499683401
   46    27.788386471     1.507275113    12.564567757     0.020820161    -0.065021639     0.495316775
   47    27.212850501     2.077008853    20.129332486    -0.009670074    -0.003854871     0.499891618
   48    30.417765607     3.733858720    11.050434578     0.000166049     0.000061490     0.499999969
   49    23.657232044     5.586017327    12.140329406     0.035369765    -0.006841543    -0.498700484
   50    26.811992069     9.660103663    17.261383317    -0.025943578     0.007955752     0.499263094
   51    30.088962172     6.093716041    11.189768202    -0.001853073     0.004096626     0.499979783
   52    29.796414742     9.856097799    11.890946830    -0.029892874    -0.005896728     0.499070781
   53    29.065641406     4.536259418    19.813959637    -0.005694344     0.002520541     0.499961220
   54    25.224753638     2.642968706    20.125377375    -0.005678744    -0.030551689     0.499033412
   55    23.670976784    10.311277934    13.026783910    -0.017812580    -0.005728630     0.499649772
   56    26.782118317     4.303899584    19.990836622    -0.005128261     0.001587084     0.499971181
   57    25.671784835     6.230067288    17.620605278    -0.008017567    -0.004687710     0.499913737
   58    24.544745181     0.518199104    17.410934950    -0.004154622     0.001513538     0.499980448
   59    26.196475222     1.997228878    18.126048662    -0.003747285    -0.011838379     0.499845787
   60    29.301781141     6.676544038    19.371669911    -0.011536893    -0.002165856     0.499862190
   61    29.466658445     2.050040372    20.275079737    -0.004475131    -0.032533154     0.498920402
   62    29.298427640     7.565950834    12.709241805     0.002749673    -0.001007337     0.499991424
   63    22.561006944     8.099582351    19.903077763    -0.023385558    -0.009843040     0.499355815
   64    23.900966428     9.421274505    10.969896602    -0.019715403    -0.000737362     0.499610608
   65    25.027912138     4.147898421    13.816849173    -0.057423352    -0.011092384     0.496567737
   66    21.426221713     7.029645872    18.410205120    -0.029784404    -0.011198640     0.498986452
   67    28.257205180     3.058549931    18.522001224     0.006434652    -0.005639611     0.499926785
   68    21.420245986     2.589036041    15.621369157    -0.076382947    -0.226450241     0.439187812
   21    32.314108387     6.802346099    14.687871902     0.013462510    -0.008022917    -0.499754333
   22    39.646414057     2.185968553    16.727798622    -0.026446885    -0.157748995     0.473725466
   23    39.530487639     9.713294265    17.592638253    -0.029077047    -0.024487008     0.498552817
   24    34.477278212     4.601007913    18.420749674    -0.014576275     0.000069115     0.499787482
   25    35.755937022     0.844858196    11.705765745    -0.019577677    -0.004174091     0.499599131
   26    32.315162980     1.427236078    18.242910952     0.130661337    -0.397498138    -0.273720377
   27    30.979786157     3.427494556    13.531114377     0.037218387     0.029172727     0.497758720
   28    37.972946874     5.866308303    11.800393242    -0.003528741    -0.002358003     0.499981987
   29    38.685576696     8.519121205    15.879908068    -0.031628546    -0.025266901     0.498358524
   30    37.455543426     9.432782586    12.576953342    -0.015135195    -0.025429918     0.499123477
   31    35.967912487    10.396533278    19.591344557    -0.009172621    -0.011502275     0.499783514
   32    38.094787376     1.047520515    18.820273059    -0.018081930    -0.015513259     0.499432060
   33    31.158010707     8.421847102    16.222490444    -0.012862867    -0.023416884     0.499285686
   34    40.755314678     3.406613063    18.940722919    -0.003665046    -0.432658713     0.250585326
   35    38.127603890     8.008257329    11.116935418    -0.006372005    -0.011753575     0.499821219
   36    37.641372258     2.995017205    16.451006126    -0.010554340    -0.110305640     0.487566684
   37    38.146931619     5.607897089    18.387717385    -0.020229523    -0.010651998     0.499477028
   38    36.231979809     6.525103860    15.086856131    -0.004834774    -0.026098384     0.499295002
   39    38.418486510     6.220444574    14.512382122     0.009493534    -0.016880563     0.499624779
   40    33.184896942     9.239200322    17.059347022    -0.013347453    -0.011371840     0.499692432
   41    36.684268985     2.431104886    14.500324135    -0.002638160    -0.089065478     0.491996322
   42    30.968379265     8.872692352    13.949358185    -0.003662226     0.000575516     0.499986257
   43    34.506189992     7.457382846    16.093749196    -0.008038559    -0.022590523     0.499424719
   44    39.446585200     4.456724235    15.377088030     0.015044090    -0.022901075     0.499248652
   45    34.786016010     9.973431684    15.552913282    -0.018640572    -0.010892077     0.499533674
   46    37.878042420     1.651935325    12.852654626     0.006336126    -0.073596047     0.494513372
   47    37.302506451     2.221669064    20.417419356    -0.020013723    -0.010672980     0.499485273
   48    40.507421557     3.878518932    11.338521447    -0.006590741    -0.000960779     0.499955637
   49    33.746887994     5.730677539    12.428416275     0.002236070    -0.019437627    -0.499617032
   50    36.901648019     9.804763875    17.549470186    -0.029474414     0.003777884     0.499116205
   51    40.178618122     6.238376253    11.477855072    -0.013834549    -0.001491214     0.499806344
   52    39.886070692    10.000758011    12.179033700    -0.042071977    -0.013587784     0.498041485
   53    39.155297356     4.680919630    20.102046506    -0.013827673    -0.002493805     0.499802537
   54    35.314409587     2.787628918    20.413464245    -0.013756375    -0.039266022     0.498265935
   55    33.760632733    10.455938145    13.314870779    -0.021246004    -0.011423712     0.499417767
   56    36.871774267     4.448559796    20.278923492    -0.015086736    -0.006621732     0.499728469
   57    35.761440785     6.374727500    17.908692148    -0.014979619    -0.011991705     0.499631674
   58    34.634401130     0.662859315    17.699021819    -0.018407058    -0.008392364     0.499590581
   59    36.286131171     2.141889089    18.414135532    -0.016322249    -0.020475418     0.499313871
   60    39.391437091     6.821204249    19.659756781    -0.017807174    -0.008165426     0.499616083
   61    39.556314395     2.194700584    20.563166607    -0.017741691    -0.038168905     0.498225217
   62    39.388083590     7.710611045    12.997328674    -0.008014459    -0.008752555     0.499859141
   63    32.650662894     8.244242563    20.191164632    -0.020676907    -0.011773352     0.499433533
   64    33.990622378     9.565934717    11.257983471    -0.022155983    -0.006023762     0.499472549
   65    35.117568087     4.292558633    14.104936042    -0.083721063    -0.016354328     0.492669585
   66    31.515877663     7.174306084    18.698291990    -0.025846335    -0.012242890     0.499181409
   67    38.346861130     3.203210143    18.810088094    -0.003593437    -0.013703123     0.499799271
   68    31.509901936     2.733696253    15.909456027    -0.007967842    -0.226498605     0.445684749
   21     2.180216008    16.393458985    13.854236717     0.023877862     0.003026536    -0.499420352
   22     9.512521679    11.777081439    15.894163437    -0.038556858    -0.173095866     0.467494588
   23     9.396595261    19.304407151    16.759003068    -0.033657751    -0.033672826     0.497728135
   24     4.343385834    14.192120799    17.587114488    -0.021505693    -0.017671924     0.499224607
   25     5.622044644    10.435971082    10.872130559    -0.030613365    -0.022189639     0.498568392
   26     2.181270601    11.018348964    17.409275767     0.025674734    -0.398974530    -0.300266769
   27     0.845893778    13.018607442    12.697479192     0.030074024     0.025774499     0.498428759
   28     7.839054496    15.457421189    10.966758056    -0.004007457    -0.024729877     0.499371979
   29     8.551684317    18.110234091    15.046272882    -0.036323341    -0.036860409     0.497314714
   30     7.321651047    19.023895472    11.743318157    -0.018433990    -0.039656014     0.498083917
   31     5.834020109    19.987646164    18.757709372    -0.015155530    -0.023327650     0.499225531
   32     7.960894997    10.638633401    17.986637874    -0.025957110    -0.031677023     0.498319972
   33     1.024118329    18.012959989    15.388855259    -0.021763963    -0.033913501     0.498373559
   34    10.621422300    12.997725949    18.107087734    -0.013295399    -0.440694897     0.235820356
   35     7.993711512    17.599370215    10.283300233    -0.009918650    -0.028733689     0.499075140
   36     7.507479880    12.586130091    15.617370941    -0.021209788    -0.127355148     0.483043281
   37     8.013039241    15.199009976    17.554082199    -0.026138240    -0.028036472     0.498528584
   38     6.098087431    16.116216746    14.253220946    -0.011386776    -0.041173621     0.498171732
   39     8.284594131    15.811557460    13.678746936     0.005075166    -0.033076161     0.498878954
   40     3.051004564    18.830313208    16.225711837    -0.021098081    -0.021977661     0.499070990
   41     6.550376607    12.022217772    13.666688950    -0.013445150    -0.107062337     0.488218070
   42     0.834486886    18.463805238    13.115723000    -0.014314742    -0.012162002     0.499647049
   43     4.372297614    17.048495732    15.260114011    -0.015611132    -0.036698218     0.498406996
   44     9.312692822    14.047837121    14.543452845     0.008805095    -0.040148265     0.498307723
   45     4.652123632    19.564544570    14.719278096    -0.026173538    -0.021993763     0.498829851
   46     7.744150042    11.243048211    12.019019441    -0.004054189    -0.092374296     0.491376183
   47     7.168614072    11.812781950    19.583784171    -0.026611868    -0.029183514     0.498437690
   48    10.373529178    13.469631818    10.504886262    -0.013370000    -0.024104215     0.499239652
   49     3.612995616    15.321790425    11.594781090     0.042095215    -0.003397129    -0.498213260
   50     6.767755640    19.395876761    16.715835001    -0.035662933    -0.007326268     0.498672719
   51    10.044725744    15.829489139    10.644219886    -0.016860379    -0.019469988     0.499336207
   52     9.752178314    19.591870897    11.345398515    -0.045196341    -0.026191829     0.497263792
   53     9.021404977    14.272032516    19.268411321    -0.018803823    -0.022828758     0.499124498
   54     5.180517209    12.378741804    19.579829060    -0.022560229    -0.056146893     0.496325057
   55     3.626740355    20.047051031    12.481235594    -0.029021843    -0.022887970     0.498632002
   56     6.737881888    14.039672682    19.445288307    -0.021337877    -0.025185407     0.498909200
   57     5.627548407    15.965840386    17.075056963    -0.021808662    -0.028814317     0.498692408
   58     4.500508752    10.253972201    16.865386634    -0.023596750    -0.024324895     0.498850171
   59     6.152238793    11.733001975    17.580500346    -0.022460501    -0.036954923     0.498126349
   60     9.257544712    16.412317135    18.826121595    -0.022881982    -0.024451550     0.498877276
   61     9.422422016    11.785813470    19.729531422    -0.023958932    -0.057370096     0.496119584
   62     9.254191212    17.301723931    12.163693489    -0.011813476    -0.023511469     0.499307173
   63     2.516770515    17.835355449    19.357529447    -0.027859833    -0.019956947     0.498824167
   64     3.856729999    19.157047603    10.424348286    -0.030224683    -0.017895917     0.498764679
   65     4.983675709    13.883671519    13.271300857    -0.098593351    -0.015621236     0.489934004
   66     1.381985285    16.765418970    17.864656805    -0.032925728    -0.019491200     0.498533840
   67     8.212968751    12.794323029    17.976452909    -0.010600539    -0.031792441     0.498875605
   68     1.376009558    12.324809139    15.075820841    -0.056227762    -0.239645031     0.435211096
   21    12.269871958    16.538119196    14.142323586     0.025105340     0.005585516    -0.499338086
   22    19.602177629    11.921741651    16.182250306    -0.042687664    -0.160392932     0.471648037
   23    19.486251210    19.449067363    17.047089938    -0.030973164    -0.023540574     0.498484207
   24    14.433041784    14.336781011    17.875201358    -0.020171565    -0.006210558     0.499554338
   25    15.711700594    10.580631293    11.160217429    -0.029493156    -0.010310873     0.499022885
   26    12.270926551    11.163009176    17.697362637     0.039056667    -0.397763805    -0.300430578
   27    10.935549728    13.163267653    12.985566062     0.026873604     0.014499212     0.499066711
   28    17.928710446    15.602081400    11.254844926    -0.005667369    -0.010025632     0.499867350
   29    18.641340267    18.254894303    15.334359752    -0.034240453    -0.025845651     0.498156194
   30    17.411306997    19.168555683    12.031405026    -0.016040936    -0.028819994     0.498910910
   31    15.923676059    20.132306376    19.045796241    -0.012871501    -0.015501970     0.499593848
   32    18.050550947    10.783293613    18.274724744    -0.024497857    -0.019870037     0.499004045
   33    11.113774279    18.157620200    15.676942129    -0.023115191    -0.036833160     0.498105417
   34    20.711078250    13.142386161    18.395174603    -0.039397704    -0.433577456     0.245882920
   35    18.083367461    17.744030427    10.571387103    -0.009243407    -0.015801111     0.499664772
   36    17.597135830    12.730790302    15.905457810    -0.023086958    -0.114586261     0.486145021
   37    18.102695191    15.343670187    17.842169069    -0.024371956    -0.015577271     0.499162655
   38    16.187743381    16.260876958    14.541307815    -0.010181435    -0.031739177     0.498887726
   39    18.374250081    15.956217672    13.966833806     0.005993507    -0.021902504     0.499484092
   40    13.140660513    18.974973419    16.513798707    -0.020479985    -0.019911497     0.499183436
   41    16.640032557    12.166877983    13.954775820    -0.015686830    -0.093551582     0.490919571
   42    10.924142836    18.608465450    13.403809870    -0.016473326    -0.018751901     0.499376607
   43    14.461953564    17.193155943    15.548200881    -0.014266029    -0.028580258     0.498978606
   44    19.402348772    14.192497332    14.831539714     0.010148132    -0.028810752     0.499066084
   45    14.741779581    19.709204782    15.007364966    -0.024735118    -0.017708268     0.499073733
   46    17.833805992    11.387708423    12.307106311    -0.005426408    -0.078307864     0.493799992
   47    17.258270022    11.957442162    19.871871040    -0.025839133    -0.016388842     0.499062867
   48    20.463185128    13.614292029    10.792973132    -0.011009832    -0.008323032     0.499809474
   49    13.702651566    15.466450637    11.882867960     0.041811052    -0.010755914    -0.498132659
   50    16.857411590    19.540536972    17.003921871    -0.033249370     0.001526222     0.498890920
   51    20.134381694    15.974149351    10.932306756    -0.016146218    -0.005904173     0.499704353
   52    19.841834264    19.736531108    11.633485384    -0.041909730    -0.015700088     0.497993054
   53    19.111060927    14.416692728    19.556498191    -0.017066802    -0.009293261     0.499622217
   54    15.270173159    12.523402016    19.867915929    -0.021428439    -0.043803263     0.497616415
   55    13.716396305    20.191711243    12.769322464    -0.027146921    -0.019446721     0.498883623
   56    16.827537838    14.184332894    19.733375176    -0.020420956    -0.012522061     0.499425853
   57    15.717204356    16.110500598    17.363143832    -0.020499070    -0.017584141     0.499270053
   58    14.590164702    10.398632413    17.153473504    -0.024309688    -0.015473063     0.499168933
   59    16.241894743    11.877662187    17.868587216    -0.022616295    -0.026459978     0.498786901
   60    19.347200662    16.556977347    19.114208465    -0.021093154    -0.012415691     0.499400570
   61    19.512077966    11.930473681    20.017618291    -0.023442360    -0.043487586     0.497553299
   62    19.343847161    17.446384143    12.451780359    -0.009953207    -0.011981763     0.499757312
   63    12.606426465    17.980015661    19.645616317    -0.030647035    -0.026483591     0.498356678
   64    13.946385949    19.301707815    10.712435156    -0.028747909    -0.015526971     0.498931329
   65    15.073331659    14.028331731    13.559387727    -0.095396190    -0.020139622     0.490401838
   66    11.471641234    16.910079181    18.152743674    -0.036686912    -0.029418823     0.497783691
   67    18.302624701    12.938983240    18.264539778    -0.008696629    -0.019109466     0.499559002
   68    11.465665507    12.469469350    15.363907711    -0.052510283    -0.248943216     0.430429954
   21    22.359527908    16.682779408    14.430410456     0.019770233    -0.002213058    -0.499604084
   22    29.691833578    12.066401863    16.470337176    -0.013253948    -0.156186195     0.474794909
   23    29.575907160    19.593727574    17.335176807    -0.020988868    -0.022875351     0.499035255
   24    24.522697734    14.481441222    18.163288228    -0.011413781     0.000416716     0.499869535
   25    25.801356544    10.725291505    11.448304299    -0.012692943     0.000979111     0.499837904
   26    22.360582501    11.307669388    17.985449506     0.002378833    -0.404497284    -0.293898432
   27    21.025205678    13.307927865    13.273652931     0.032064386     0.025361950     0.498325844
   28    28.018366396    15.746741612    11.542931795     0.008656655    -0.004480279     0.499904980
   29    28.730996217    18.399554515    15.622446622    -0.022461283    -0.025292802     0.498854453
   30    27.500962947    19.313215895    12.319491896    -0.005600201    -0.024639115     0.499361144
   31    26.013332008    20.276966587    19.333883111    -0.003353550    -0.012997893     0.499819776
   32    28.140206897    10.927953824    18.562811613    -0.013914450    -0.013228987     0.499631246
   33    21.203430228    18.302280412    15.965028998    -0.017945189    -0.028831263     0.498845395
   34    30.800734199    13.287046373    18.683261473     0.018409175    -0.430478844     0.253671179
   35    28.173023411    17.888690638    10.859473972     0.003271643    -0.010785086     0.499872962
   36    27.686791780    12.875450514    16.193544680    -0.002446813    -0.108827305     0.488006794
   37    28.192351141    15.488330399    18.130255939    -0.017032841    -0.008919360     0.499630191
   38    26.277399330    16.405537170    14.829394685     0.000144500    -0.024653310     0.499391824
   39    28.463906031    16.100877883    14.254920676     0.016646907    -0.014427009     0.499514506
   40    23.230316463    19.119633631    16.801885576    -0.013730046    -0.013744814     0.499622423
   41    26.729688506    12.311538195    14.242862689     0.003596907    -0.088046567     0.492173612
   42    21.013798786    18.753125661    13.691896739    -0.013354623    -0.008850455     0.499743258
   43    24.551609513    17.337816155    15.836287750    -0.005059869    -0.021742612     0.499501408
   44    29.492004722    14.337157544    15.119626584     0.021522200    -0.021583862     0.499070067
   45    24.831435531    19.853864994    15.295451836    -0.017251879    -0.011976816     0.499558734
   46    27.923461942    11.532368635    12.595193180     0.010778155    -0.073000979     0.494524710
   47    27.347925972    12.102102374    20.159957910    -0.015825067    -0.008852919     0.499671085
   48    30.552841078    13.758952241    11.081060001     0.003042700     0.000369106     0.499990606
   49    23.792307516    15.611110848    12.170954829     0.031899560     0.006090629    -0.498944208
   50    26.947067540    19.685197184    17.292008740    -0.024423173     0.003674470     0.499389634
   51    30.224037643    16.118809562    11.220393626    -0.005288489    -0.000126130     0.499972015
   52    29.931490213    19.881191320    11.921572254    -0.032607240    -0.012003677     0.498791218
   53    29.200716877    14.561352939    19.844585060    -0.011056653    -0.001456719     0.499875613
   54    25.359829109    12.668062227    20.156002799    -0.010119835    -0.037652203     0.498477583
   55    23.806052255    20.336371455    13.057409333    -0.019953410    -0.014150643     0.499401262
   56    26.917193788    14.328993105    20.021462046    -0.011253295    -0.005443791     0.499843704
   57    25.806860306    16.255160809    17.651230702    -0.012037215    -0.010639190     0.499741846
   58    24.679820652    10.543292625    17.441560373    -0.014356347    -0.006330544     0.499753759
   59    26.331550693    12.022322399    18.156674085    -0.012963715    -0.018040112     0.499506253
   60    29.436856612    16.701637559    19.402295334    -0.014709928    -0.006246883     0.499744529
   61    29.601733916    12.075133893    20.305705161    -0.011935686    -0.036381698     0.498531756
   62    29.433503111    17.591044355    12.739867228    -0.001284129    -0.005929972     0.499963185
   63    22.696082415    18.124675872    19.933703186    -0.024910669    -0.017527184     0.499071394
   64    24.036041899    19.446368026    11.000522025    -0.022083986    -0.009506944     0.499421581
   65    25.162987609    14.172991942    13.847474596    -0.068139787    -0.027433749     0.494574927
   66    21.561297184    17.054739393    18.440830544    -0.032019014    -0.019375542     0.498597404
   67    28.392280651    13.083643452    18.552626648     0.001110415    -0.011770414     0.499860205
   68    21.555321457    12.614129562    15.651994581    -0.060809571    -0.236476055     0.436327023
   21    32.449183858    16.827439620    14.718497325     0.014952224    -0.004381535    -0.499757174
   22    39.781489528    12.211062074    16.758424046    -0.038126767    -0.162749165     0.471231428
   23    39.665563110    19.738387786    17.623263677    -0.028464666    -0.025361899     0.498544418
   24    34.612353683    14.626101434    18.451375097    -0.015199703    -0.002354474     0.499763369
   25    35.891012493    10.869951717    11.736391168    -0.024487730    -0.008099793     0.499334301
   26    32.450238451    11.452329599    18.273536376     0.033484986    -0.412450872    -0.280647525
   27    31.114861628    13.452588077    13.561739801     0.039210443     0.031483668     0.497464893
   28    38.108022345    15.891401824    11.831018665    -0.001447608    -0.013545339     0.499814394
   29    38.820652167    18.544214726    15.910533491    -0.031271318    -0.027776184     0.498247517
   30    37.590618897    19.457876107    12.607578765    -0.014139664    -0.029994857     0.498899167
   31    36.102987958    20.421626799    19.621969981    -0.008871146    -0.013122272     0.499749046
   32    38.229862847    11.072614036    18.850898483    -0.018572975    -0.017987609     0.499331043
   33    31.293086178    18.446940623    16.253115868    -0.014914913    -0.026550685     0.499071745
   34    40.890390149    13.431706584    18.971348343    -0.034892719    -0.436811749     0.240786201
   35    38.262679361    18.033350850    11.147560842    -0.007633903    -0.018336259     0.499605349
   36    37.776447729    13.020110726    16.481631549    -0.018459759    -0.115747272     0.486067697
   37    38.282007090    15.632990610    18.418342808    -0.020318687    -0.010452546     0.499477622
   38    36.367055280    16.550197381    15.117481555    -0.006675603    -0.029597801     0.499078557
   39    38.553561981    16.245538095    14.543007545     0.006301443    -0.022687682     0.499445253
   40    33.319972413    19.264293843    17.089972446    -0.014286840    -0.013590144     0.499611043
   41    36.819344456    12.456198407    14.530949559    -0.011225294    -0.094802013     0.490801967
   42    31.103454736    18.897785873    13.979983609    -0.007111634    -0.003613418     0.499936364
   43    34.641265463    17.482476367    16.124374620    -0.010023916    -0.025300371     0.499258863
   44    39.581660671    14.481817756    15.407713454     0.010431249    -0.029511472     0.499019300
   45    34.921091481    19.998525205    15.583538705    -0.019558495    -0.012551008     0.499459645
   46    38.013117892    11.677028846    12.883280050    -0.000073159    -0.079613011     0.493621072
   47    37.437581922    12.246762585    20.448044779    -0.019273300    -0.011659221     0.499492345
   48    40.642497028    13.903612453    11.369146871    -0.010633227    -0.010198789     0.499782872
   49    33.881963465    15.755771060    12.459041699     0.000130223    -0.010687420    -0.499885749
   50    37.036723490    19.829857396    17.580095610    -0.029451300     0.003403203     0.499120265
   51    40.313693593    16.263469774    11.508480495    -0.015083213    -0.009247728     0.499686878
   52    40.021146163    20.025851532    12.209659124    -0.040541795    -0.017919032     0.498031396
   53    39.290372827    14.706013151    20.132671930    -0.011837361    -0.001648328     0.499857139
   54    35.449485059    12.812722439    20.444089669    -0.013876880    -0.039659363     0.498231439
   55    33.895708204    20.481031666    13.345496203    -0.021189703    -0.013645247     0.499364400
   56    37.006849738    14.473653317    20.309548916    -0.014854640    -0.007023431     0.499729938
   57    35.896516256    16.399821021    17.939317572    -0.015782270    -0.013987439     0.499555074
   58    34.769476601    10.687952836    17.729647243    -0.017404333    -0.010634710     0.499583819
   59    36.421206642    12.166982610    18.444760955    -0.017028444    -0.022207783     0.499216232
   60    39.526512562    16.846297770    19.690382204    -0.017867114    -0.007223701     0.499628446
   61    39.691389866    12.219794105    20.593792030    -0.014852777    -0.039170267     0.498241995
   62    39.523159061    17.735704566    13.027954098    -0.009855996    -0.014099582     0.499703973
   63    32.785738365    18.269336084    20.221790056    -0.023334434    -0.014437945     0.499246482
   64    34.125697849    19.591028238    11.288608895    -0.022082681    -0.008553882     0.499438871
   65    35.252643558    14.317652154    14.135561466    -0.093313424    -0.018401126     0.490870659
   66    31.650953134    17.199399605    18.728917413    -0.028622574    -0.015575596     0.498937019
   67    38.481936601    13.228303664    18.840713518    -0.003346502    -0.014782556     0.499770224
   68    31.644977407    12.758789774    15.940081450    -0.023267182    -0.234397449     0.441040218
   21     2.315291480    26.418552506    13.884862140     0.015092042    -0.004982042    -0.499747346
   22     9.647597150    21.802174960    15.924788860    -0.038831752    -0.168933724     0.468991996
   23     9.531670732    29.329500672    16.789628491    -0.032850780    -0.026187127     0.498231935
   24     4.478461305    24.217214320    17.617739912    -0.019142946    -0.009795332     0.499537385
   25     5.757120115    20.461064603    10.902755983    -0.029164553    -0.019044894     0.498785245
   26     2.316346072    21.043442485    17.439901190     0.044403431    -0.398573375    -0.298609444
   27     0.980969250    23.043700963    12.728104616     0.042596688     0.032807179     0.497100806
   28     7.974129967    25.482514710    10.997383480     0.003621401    -0.007753304     0.499926766
   29     8.686759788    28.135327612    15.076898306    -0.035023742    -0.028937094     0.497931704
   30     7.456726518    29.048988993    11.773943580    -0.015925480    -0.028775922     0.498917153
   31     5.969095580    30.012739685    18.788334795    -0.014796336    -0.018272162     0.499446891
   32     8.095970468    20.663726922    18.017263298    -0.024906061    -0.028274919     0.498578196
   33     1.159193800    28.038053510    15.419480683    -0.016563464    -0.026344078     0.499030702
   34    10.756497771    23.022819470    18.137713157    -0.022964565    -0.439481564     0.237336435
   35     8.128786983    27.624463736    10.313925657    -0.005343828    -0.015404483     0.499734075
   36     7.642555351    22.611223612    15.647996364    -0.020469375    -0.121569062     0.484563688
   37     8.148114712    25.224103497    17.584707623    -0.024068371    -0.019936741     0.499022284
   38     6.233162902    26.141310267    14.283846369    -0.008219234    -0.031113456     0.498963322
   39     8.419669602    25.836650981    13.709372360     0.008816275    -0.021215246     0.499471908
   40     3.186080035    28.855406729    16.256337261    -0.017754781    -0.015042486     0.499458198
   41     6.685452078    22.047311293    13.697314374    -0.013313274    -0.101017914     0.489508057
   42     0.969562358    28.488898759    13.146348424    -0.005754212    -0.000757898     0.499966313
   43     4.507373085    27.073589253    15.290739435    -0.012383180    -0.027369531     0.499096750
   44     9.447768293    24.072930642    14.574078268     0.012620215    -0.029060026     0.498995235
   45     4.787199103    29.589638091    14.749903520    -0.023891872    -0.014316583     0.499223611
   46     7.879225513    21.268141732    12.049644865    -0.003560948    -0.086096901     0.492518673
   47     7.303689543    21.837875471    19.614409594    -0.025589471    -0.024358220     0.498750294
   48    10.508604649    23.494725339    10.535511686    -0.010087403    -0.011645269     0.499762576
   49     3.748071087    25.346883946    11.625406514     0.007795522     0.009214462    -0.499854302
   50     6.902831111    29.420970282    16.746460425    -0.035344904    -0.000172549     0.498749143
   51    10.179801215    25.854582660    10.674845310    -0.011850413    -0.002835331     0.499851507
   52     9.887253785    29.616964418    11.376023938    -0.043159848    -0.015087703     0.497905201
   53     9.156480448    24.297126037    19.299036745    -0.017025007    -0.015565524     0.499467580
   54     5.315592680    22.403835325    19.610454483    -0.021282417    -0.049840211     0.497054335
   55     3.761815826    30.072144552    12.511861017    -0.026030262    -0.015180689     0.499091146
   56     6.872957359    24.064766203    19.475913730    -0.019939993    -0.019018464     0.499240117
   57     5.762623878    25.990933907    17.105682386    -0.019477890    -0.020238062     0.499210409
   58     4.635584223    20.279065722    16.896012058    -0.023628191    -0.022063141     0.498953832
   59     6.287314264    21.758095496    17.611125770    -0.022015172    -0.033409376     0.498396575
   60     9.392620183    26.437410656    18.856747019    -0.020939171    -0.016302321     0.499295289
   61     9.557497487    21.810906991    19.760156845    -0.022863510    -0.052146552     0.496747418
   62     9.389266683    27.326817452    12.194318913    -0.007331584    -0.010535621     0.499835221
   63     2.651845986    27.860448970    19.388154871    -0.025743155    -0.016801379     0.499054109
   64     3.991805470    29.182141124    10.454973710    -0.026801422    -0.009929435     0.499182422
   65     5.118751180    23.908765040    13.301926281    -0.092651861    -0.022424206     0.490828674
   66     1.517060756    26.790512491    17.895282228    -0.030151983    -0.016892271     0.498804079
   67     8.348044222    22.819416550    18.007078332    -0.009817196    -0.025714268     0.499241824
   68     1.511085029    22.349902660    15.106446265    -0.043667111    -0.240090897     0.436405253
   21    12.404947429    26.563212718    14.172949010     0.016062477    -0.006814462    -0.499695467
   22    19.737253100    21.946835172    16.212875730    -0.038739668    -0.158768564     0.472537598
   23    19.621326681    29.474160884    17.077715361    -0.020242042    -0.015098784     0.499361879
   24    14.568117255    24.361874532    17.905826782    -0.011593645     0.000862397     0.499864825
   25    15.846776065    20.605724814    11.190842853    -0.025121778    -0.011652419     0.499232528
   26    12.406002022    21.188102697    17.727988060     0.025654583    -0.400932877    -0.297648568
   27    11.070625199    23.188361175    13.016191485     0.032265801     0.026943524     0.498229831
   28    18.063785917    25.627174921    11.285470349     0.010041819    -0.001196357     0.499897720
   29    18.776415738    28.279987824    15.364985175    -0.021622454    -0.020243616     0.499121894
   30    17.546382468    29.193649204    12.062030450    -0.003764844    -0.019261212     0.499614683
   31    16.058751530    30.157399897    19.076421665     0.000272597    -0.000215783     0.499999879
   32    18.185626418    20.808387134    18.305350167    -0.021915817    -0.018589435     0.499173447
   33    11.248849750    28.182713721    15.707567552    -0.016886328    -0.024938289     0.499092109
   34    20.846153721    23.167479682    18.425800027    -0.040608084    -0.434172651     0.244632566
   35    18.218442932    27.769123948    10.602012526     0.005230510    -0.007704767     0.499913271
   36    17.732211301    22.755883824    15.936083234    -0.016715743    -0.111338349     0.487159477
   37    18.237770662    25.368763708    17.872794493    -0.017618306    -0.006559273     0.499646446
   38    16.322818852    26.285970479    14.571933239     0.001580082    -0.020887389     0.499561028
   39    18.509325552    25.981311193    13.997459230     0.018228617    -0.010686293     0.499553321
   40    13.275735984    29.000066940    16.544424130    -0.011683159    -0.007931327     0.499800558
   41    16.775108028    22.191971504    13.985401243    -0.007672371    -0.090622995     0.491659036
   42    11.059218307    28.633558971    13.434435293    -0.012271085    -0.005528862     0.499818819
   43    14.597029035    27.218249464    15.578826304    -0.004545807    -0.017419529     0.499675791
   44    19.537424243    24.217590853    14.862165138     0.021230502    -0.020075084     0.499145527
   45    14.876855053    29.734298303    15.037990389    -0.014967074    -0.005085194     0.499750065
   46    17.968881463    21.412801944    12.337731734     0.001856335    -0.075660996     0.494238776
   47    17.393345493    21.982535683    19.902496464    -0.023727375    -0.013085297     0.499265247
   48    20.598260599    23.639385550    10.823598555     0.001169648     0.000120032     0.499998618
   49    13.837727037    25.491544158    11.913493383     0.001048473    -0.015556585    -0.499756834
   50    16.992487061    29.565630493    17.034547294    -0.022335504     0.013236553     0.499325464
   51    20.269457165    25.999242872    10.962932180    -0.002572119     0.002167278     0.499988687
   52    19.976909735    29.761624629    11.664110808    -0.030979356    -0.004287187     0.499020941
   53    19.246136398    24.441786249    19.587123614    -0.011659715    -0.000029774     0.499864032
   54    15.405248630    22.548495537    19.898541353    -0.018201521    -0.040437583     0.498029624
   55    13.851471776    30.216804764    12.799947887    -0.014061144    -0.010385541     0.499694331
   56    16.962613309    24.209426415    19.764000600    -0.016218906    -0.007810370     0.499675840
   57    15.852279828    26.135594119    17.393769256    -0.011164044    -0.010040955     0.499774492
   58    14.725240173    20.423725934    17.184098927    -0.021329725    -0.015758222     0.499296226
   59    16.376970214    21.902755708    17.899212639    -0.019113733    -0.025429416     0.498986984
   60    19.482276133    26.582070868    19.144833888    -0.014325805    -0.001577622     0.499792239
   61    19.647153437    21.955567202    20.048243715    -0.021357206    -0.039150093     0.498007169
   62    19.478922633    27.471477664    12.482405782     0.000963485    -0.003088390     0.499989533
   63    12.741501936    28.005109182    19.676241740    -0.025225457    -0.015555956     0.499120916
   64    14.081461420    29.326801336    10.743060579    -0.015908079    -0.005960346     0.499711324
   65    15.208407130    24.053425252    13.590013150     0.000342419    -0.001369174     0.499998008
   66    11.606716706    26.935172702    18.183369098    -0.031993615    -0.019271684     0.498603059
   67    18.437700172    22.964076761    18.295165202    -0.004637759    -0.013726256     0.499790037
   68    11.600740978    22.494562871    15.394533135    -0.054882657    -0.245582430     0.432061528
   21    22.494603379    26.707872929    14.461035879     0.007365974    -0.008365481    -0.499875746
   22    29.826909049    22.091495384    16.500962600    -0.023576137    -0.157810231     0.473856621
   23    29.710982631    29.618821095    17.365802231    -0.011716506    -0.017956467     0.499540077
   24    24.657773205    24.506534743    18.193913651    -0.000288084     0.001158423     0.499998575
   25    25.936432015    20.750385026    11.478929722    -0.016935969    -0.008565314     0.499639679
   26    22.495657972    21.332762909    18.016074930    -0.001127308    -0.402402693    -0.296767251
   27    21.160281149    23.333021386    13.304278355     0.046707816     0.033188414     0.496706059
   28    28.153441867    25.771835133    11.573557219     0.012488543    -0.004990666     0.499819097
   29    28.866071688    28.424648036    15.653072045    -0.012987950    -0.021387437     0.499373498
   30    27.636038418    29.338309416    12.350117319    -0.001222525    -0.018884369     0.499641758
   31    26.148407479    30.302060108    19.364508535     0.003857467    -0.002189719     0.499980325
   32    28.275282368    20.953047345    18.593437037    -0.012535854    -0.017469467     0.499537456
   33    21.338505699    28.327373933    15.995654422    -0.006508355    -0.019987475     0.499557947
   34    30.935809670    23.312139894    18.713886897    -0.010706654    -0.433483528     0.248952602
   35    28.308098882    27.913784159    10.890099396     0.008066800    -0.008659240     0.499859925
   36    27.821867251    22.900544035    16.224170103    -0.006083017    -0.110176804     0.487672091
   37    28.327426612    25.513423920    18.160881362    -0.010150470    -0.006418664     0.499855748
   38    26.412474801    26.430630691    14.860020109     0.007492043    -0.021774262     0.499469469
   39    28.598981502    26.125971404    14.285546099     0.021377594    -0.013875144     0.499350056
   40    23.365391934    29.144727152    16.832511000    -0.003230387    -0.005269689     0.499961794
   41    26.864763978    22.336631716    14.273488113     0.002276566    -0.089144261     0.491983860
   42    21.148874257    28.778219182    13.722522163    -0.000923830     0.000889209     0.499998356
   43    24.686684984    27.362909676    15.866913174     0.003984295    -0.017489664     0.499678133
   44    29.627080193    24.362251065    15.150252007     0.025141069    -0.021845284     0.498889477
   45    24.966511002    29.878958515    15.326077259    -0.006634490    -0.002522577     0.499949618
   46    28.058537413    21.557462156    12.625818604     0.012738887    -0.074244068     0.494292969
   47    27.483001443    22.127195895    20.190583333    -0.013738861    -0.011704579     0.499674140
   48    30.687916549    23.784045762    11.111685425     0.005408859    -0.005532032     0.499940137
   49    23.927382987    25.636204369    12.201580253     0.003999182    -0.022416431    -0.499481241
   50    27.082143011    29.710290705    17.322634164    -0.017867634     0.012270381     0.499529964
   51    30.359113114    26.143903083    11.251019049     0.000052726     0.000563250     0.499999680
   52    30.066565684    29.906284841    11.952197678    -0.027554461    -0.004988440     0.499215251
   53    29.335792348    24.586446460    19.875210484    -0.004528299    -0.001134535     0.499978207
   54    25.494904580    22.693155748    20.186628223    -0.007615446    -0.039877741     0.498349045
   55    23.941127726    30.361464976    13.088034757    -0.003324307    -0.003733896     0.499975006
   56    27.052269259    24.354086626    20.052087469    -0.006883824    -0.006813764     0.499906177
   57    25.941935777    26.280254330    17.681856126    -0.001298487    -0.009578266     0.499906562
   58    24.814896123    20.568386146    17.472185797    -0.011694531    -0.012555438     0.499705512
   59    26.466626164    22.047415920    18.187299509    -0.009098780    -0.023290077     0.499374393
   60    29.571932083    26.726731080    19.432920758    -0.007173156    -0.002782760     0.499940799
   61    29.736809387    22.100227414    20.336330584    -0.010623474    -0.038271345     0.498419949
   62    29.568578582    27.616137876    12.770492652     0.005819986    -0.003447196     0.499954243
   63    22.831157886    28.149769393    19.964328610    -0.016933441    -0.007238049     0.499660754
   64    24.171117370    29.471461547    11.031147449    -0.004893770     0.003565137     0.499963339
   65    25.298063080    24.198085463    13.878100020    -0.068458160    -0.002865048     0.495283022
   66    21.696372655    27.079832914    18.471455967    -0.024010756    -0.009144734     0.499339421
   67    28.527356122    23.108736973    18.583252072     0.002560806    -0.013313734     0.499816153
   68    21.690396928    22.639223083    15.682620004    -0.058351245    -0.235703368     0.437080146
   21    32.584259329    26.852533141    14.749122749     0.002881515    -0.007300333    -0.499938398
   22    39.916564999    22.236155595    16.789049469    -0.028973224    -0.162098738     0.472106504
   23    39.800638581    29.763481307    17.653889100    -0.020669392    -0.023575419     0.499016008
   24    34.747429155    24.651194955    18.482000521    -0.011434231    -0.000290174     0.499869157
   25    36.026087965    20.895045238    11.767016592    -0.021900388    -0.009998683     0.499420063
   26    32.585313922    21.477423120    18.304161799     0.049955737    -0.400880796    -0.294616720
   27    31.249937099    23.477681598    13.592365224     0.045697922     0.030638399     0.496963770
   28    38.243097817    25.916495345    11.861644089     0.008858404     0.000345458     0.499921403
   29    38.955727638    28.569308247    15.941158915    -0.021899458    -0.024232424     0.498932063
   30    37.725694368    29.482969628    12.638204189    -0.005461564    -0.021736111     0.499497460
   31    36.238063429    30.446720320    19.652595404    -0.006465486    -0.011988732     0.499814433
   32    38.364938318    21.097707557    18.881523906    -0.018493133    -0.018501983     0.499315212
   33    31.428161649    28.472034144    16.283741291    -0.004790996    -0.024234490     0.499389363
   34    41.025465620    23.456800105    19.001973766    -0.010119692    -0.436762397     0.243179358
   35    38.397754832    28.058444371    11.178186266     0.002216940    -0.008174133     0.499928264
   36    37.911523200    23.045204247    16.512256973    -0.011339813    -0.113783429     0.486749155
   37    38.417082561    25.658084132    18.448968232    -0.017315065    -0.009919121     0.499601641
   38    36.502130751    26.575290902    15.148106978     0.001023386    -0.023401368     0.499451027
   39    38.688637452    26.270631616    14.573632969     0.017835775    -0.013205255     0.499507264
   40    33.455047884    29.289387364    17.120597869    -0.006986954    -0.010593083     0.499838943
   41    36.954419927    22.481291928    14.561574982    -0.004701191    -0.093042519     0.491244327
   42    31.238530207    28.922879394    14.010609033    -0.000356282    -0.000781768     0.499999262
   43    34.776340934    27.507569888    16.155000044    -0.002912940    -0.020066780     0.499588670
   44    39.716736142    24.506911277    15.438338877     0.021764497    -0.021537090     0.499061580
   45    35.056166952    30.023618726    15.614164129    -0.013804111    -0.007873301     0.499747394
   46    38.148193363    21.702122367    12.913905474     0.005027227    -0.078096877     0.493837630
   47    37.572657393    22.271856106    20.478670203    -0.019068613    -0.011998873     0.499492157
   48    40.777572499    23.928705974    11.399772295     0.001961768    -0.006062104     0.499959401
   49    34.017038936    25.780864581    12.489667122     0.014121196     0.005169232    -0.499773820
   50    37.171798961    29.854950917    17.610721034    -0.026435023     0.002823311     0.499292718
   51    40.448769064    26.288563295    11.539105919    -0.003853031     0.002089968     0.499980786
   52    40.156221634    30.050945053    12.240284547    -0.032111197    -0.009583211     0.498875769
   53    39.425448298    24.731106672    20.163297354    -0.010244832    -0.002495132     0.499888805
   54    35.584560530    22.837815960    20.474715092    -0.014256581    -0.040047972     0.498189632
   55    34.030783676    30.506125187    13.376121626    -0.015571836    -0.005329865     0.499729037
   56    37.141925209    24.498746838    20.340174339    -0.013594282    -0.007682444     0.499756116
   57    36.031591727    26.424914542    17.969942995    -0.011523351    -0.011246516     0.499740661
   58    34.904552072    20.713046357    17.760272666    -0.017297231    -0.012804661     0.499536632
   59    36.556282113    22.192076131    18.475386379    -0.015450382    -0.023948578     0.499187090
   60    39.661588033    26.871391291    19.721007628    -0.014698013    -0.007101163     0.499733471
   61    39.826465337    22.244887626    20.624417454    -0.015529179    -0.038634043     0.498263239
   62    39.658234532    27.760798087    13.058579522     0.002121374    -0.003385249     0.499984040
   63    32.920813836    28.294429605    20.252415479    -0.016653602    -0.013010411     0.499553187
   64    34.260773320    29.616121759    11.319234319    -0.016434246    -0.001079789     0.499728676
   65    35.387719029    24.342745675    14.166186889    -0.083328696    -0.022520596     0.492492793
   66    31.786028605    27.224493126    18.759542837    -0.021229501    -0.013375472     0.499370008
   67    38.617012072    23.253397185    18.871338941    -0.001859913    -0.014852913     0.499775881
   68    31.780052878    22.783883295    15.970706874    -0.039626070    -0.235316130     0.439381490
   21     2.450366951    36.443646027    13.915487564     0.018664746    -0.004545496    -0.499630829
   22     9.782672621    31.827268481    15.955414284    -0.043712258    -0.164297517     0.470208001
   23     9.666746203    39.354594193    16.820253915    -0.034627373    -0.030557063     0.497862643
   24     4.613536776    34.242307841    17.648365336    -0.021210064    -0.008066144     0.499484805
   25     5.892195586    30.486158124    10.933381407    -0.028035003    -0.011887965     0.499071853
   26     2.451421543    31.068536007    17.470526614     0.089218493    -0.398357637    -0.288706171
   27     1.116044721    33.068794484    12.758730039     0.035346248     0.035840469     0.497459650
   28     8.109205438    35.507608231    11.028008903    -0.007199332    -0.013078156     0.499777082
   29     8.821835260    38.160421133    15.107523729    -0.037360894    -0.033166208     0.497497906
   30     7.591801989    39.074082514    11.804569004    -0.020133692    -0.032589041     0.498530429
   31     6.104171051    40.037833206    18.818960219    -0.016011155    -0.021864794     0.499265033
   32     8.231045939    30.688820443    18.047888721    -0.024694238    -0.022627655     0.498876923
   33     1.294269271    38.063147031    15.450106106    -0.018518821    -0.028020394     0.498870635
   34    10.891573242    33.047912991    18.168338581    -0.037181802    -0.435570908     0.242683946
   35     8.263862454    37.649557257    10.344551080    -0.012177466    -0.018248520     0.499518469
   36     7.777630822    32.636317133    15.678621788    -0.023175592    -0.118514386     0.485198137
   37     8.283190183    35.249197018    17.615333047    -0.025591401    -0.019060855     0.498980725
   38     6.368238373    36.166403788    14.314471793    -0.011017231    -0.032764353     0.498803687
   39     8.554745073    35.861744502    13.739997784     0.004739753    -0.023548655     0.499422662
   40     3.321155506    38.880500250    16.286962684    -0.019731572    -0.017656511     0.499298420
   41     6.820527549    32.072404814    13.727939797    -0.015270349    -0.097739290     0.490116157
   42     1.104637829    38.513992280    13.176973847    -0.009673163    -0.001141264     0.499905118
   43     4.642448556    37.098682774    15.321364858    -0.014855045    -0.029016682     0.498936228
   44     9.582843764    34.098024163    14.604703692     0.009475560    -0.030647218     0.498969901
   45     4.922274574    39.614731612    14.780528943    -0.025507976    -0.017213713     0.499052133
   46     8.014300984    31.293235253    12.080270288    -0.005819948    -0.082417684     0.493126205
   47     7.438765014    31.862968992    19.645035018    -0.026582699    -0.019903170     0.498896005
   48    10.643680120    33.519818860    10.566137109    -0.012391864    -0.011343428     0.499717689
   49     3.883146558    35.371977467    11.656031937     0.022622389     0.011858228    -0.499347184
   50     7.037906582    39.446063803    16.777085848    -0.036714477    -0.004968737     0.498625470
   51    10.314876686    35.879676181    10.705470734    -0.018928774    -0.007947566     0.499578360
   52    10.022329256    39.642057939    11.406649362    -0.047102683    -0.020306658     0.497362018
   53     9.291555919    34.322219558    19.329662168    -0.017726228    -0.013659596     0.499498945
   54     5.450668151    32.428928846    19.641079907    -0.021925336    -0.046996203     0.497303365
   55     3.896891297    40.097238073    12.542486441    -0.027622116    -0.017284954     0.498937119
   56     7.008032830    34.089859724    19.506539154    -0.021314223    -0.015490877     0.499305254
   57     5.897699349    36.016027428    17.136307810    -0.021476568    -0.019573501     0.499154921
   58     4.770659694    30.304159243    16.926637481    -0.023669827    -0.016418800     0.499169473
   59     6.422389735    31.783189017    17.641751193    -0.022357754    -0.028477544     0.498687438
   60     9.527695654    36.462504177    18.887372442    -0.022513075    -0.016091773     0.499233629
   61     9.692572958    31.836000512    19.790782269    -0.024158728    -0.048230170     0.497081690
   62     9.524342154    37.351910974    12.224944336    -0.012937460    -0.014080933     0.499634216
   63     2.786921457    37.885542491    19.418780294    -0.027048658    -0.019049361     0.498904291
   64     4.126880941    39.207234645    10.485599133    -0.028348414    -0.011445192     0.499064500
   65     5.253826651    33.933858561    13.332551704    -0.092823969    -0.015801934     0.491053978
   66     1.652136227    36.815606012    17.925907652    -0.031817577    -0.018642403     0.498638248
   67     8.483119693    32.844510071    18.037703756    -0.009555115    -0.022794368     0.499388743
   68     1.646160500    32.374996181    15.137071689    -0.029411207    -0.235710918     0.439971981
   21    12.540022900    36.588306239    14.203574433     0.021773815    -0.002945892    -0.499516989
   22    19.872328571    31.971928693    16.243501154    -0.027920319    -0.150795385     0.475900418
   23    19.756402152    39.499254405    17.108340785    -0.027670653    -0.016263475     0.498968771
   24    14.703192726    34.386968053    17.936452205    -0.007424981     0.004618987     0.499923529
   25    15.981851536    30.630818335    11.221468276    -0.013612287     0.000419665     0.499814495
   26    12.541077493    31.213196218    17.758613484    -0.003742662    -0.404958335    -0.293248596
   27    11.205700670    33.213454696    13.046816909     0.030071702     0.023878757     0.498523317
   28    18.198861388    35.652268442    11.316095773     0.008317749     0.000988963     0.499929832
   29    18.911491209    38.305081345    15.395610599    -0.028397283    -0.020834866     0.498757960
   30    17.681457939    39.218742725    12.092655873    -0.008913395    -0.018733299     0.499569429
   31    16.193827001    40.182493418    19.107047089    -0.011213560    -0.008020298     0.499809895
   32    18.320701889    30.833480655    18.335975591    -0.011693316    -0.008990686     0.499782387
   33    11.383925221    38.207807242    15.738192976    -0.021570530    -0.029214831     0.498679462
   34    20.981229192    33.192573203    18.456425451    -0.031690730    -0.428180709     0.256236177
   35    18.353518403    37.794217469    10.632637950     0.003666145    -0.004766466     0.499963839
   36    17.867286772    32.780977345    15.966708657    -0.010065036    -0.103754967     0.489012885
   37    18.372846133    35.393857229    17.903419916    -0.013825522    -0.002670714     0.499801683
   38    16.457894323    36.311064000    14.602558662    -0.000440782    -0.021092339     0.499554721
   39    18.644401023    36.006404714    14.028084653     0.017099492    -0.009199945     0.499622826
   40    13.410811455    39.025160461    16.575049554    -0.017878320    -0.011790895     0.499541130
   41    16.910183499    32.217065025    14.016026667    -0.004192370    -0.082972161     0.493049738
   42    11.194293778    38.658652492    13.465060717    -0.016667564    -0.010600956     0.499609660
   43    14.732104506    37.243342985    15.609451728    -0.004281917    -0.018933672     0.499623039
   44    19.672499714    34.242684374    14.892790561     0.021338014    -0.016595528     0.499268743
   45    15.011930524    39.759391824    15.068615813    -0.021508441    -0.009347614     0.499449706
   46    18.103956934    31.437895465    12.368357158     0.005341861    -0.068094524     0.495312629
   47    17.528420964    32.007629204    19.933121887    -0.015630107    -0.005271037     0.499727842
   48    20.733336070    33.664479071    10.854223979     0.001565076     0.001144658     0.499996240
   49    13.972802508    35.516637679    11.944118807     0.014508992    -0.017777926    -0.499473157
   50    17.127562532    39.590724014    17.065172718    -0.031442020     0.007866149     0.498948417
   51    20.404532636    36.024336393    10.993557603    -0.003936593     0.004577894     0.499963545
   52    20.111985206    39.786718150    11.694736231    -0.035062985    -0.006132934     0.498731365
   53    19.381211869    34.466879770    19.617749038    -0.006699602     0.003716903     0.499941297
   54    15.540324101    32.573589058    19.929166776    -0.011507550    -0.030451404     0.498939163
   55    13.986547247    40.241898285    12.830573311    -0.025325021    -0.010391331     0.499250101
   56    17.097688780    34.234519936    19.794626023    -0.009138808     0.000298327     0.499916386
   57    15.987355299    36.160687640    17.424394680    -0.008158678    -0.007286023     0.499880336
   58    14.860315644    30.448819455    17.214724351    -0.010432780    -0.002998606     0.499882152
   59    16.512045685    31.927849229    17.929838063    -0.009509658    -0.012847309     0.499744448
   60    19.617351604    36.607164389    19.175459312    -0.011520514     0.001268614     0.499865650
   61    19.782228908    31.980660723    20.078869138    -0.015871197    -0.031253369     0.498769819
   62    19.613998104    37.496571185    12.513031206     0.000165550    -0.001039957     0.499998891
   63    12.876577407    38.030202703    19.706867164    -0.028545304    -0.017703837     0.498870464
   64    14.216536891    39.351894857    10.773686003    -0.027483791    -0.005997905     0.499208039
   65    15.343482601    34.078518773    13.620638574    -0.070991697    -0.012250969     0.494782874
   66    11.741792177    36.960266223    18.213994521    -0.035070292    -0.020697835     0.498338915
   67    18.572775643    32.989170282    18.325790626     0.002575348    -0.006720233     0.499948203
   68    11.735816449    32.519656392    15.425158558    -0.061716366    -0.240226848     0.434145312
   21    22.629678850    36.732966450    14.491661303     0.008428880    -0.011385434    -0.499799286
   22    29.961984520    32.116588905    16.531588023    -0.011515233    -0.151044237     0.476500827
   23    29.846058102    39.643914616    17.396427654    -0.014069713    -0.014251763     0.499598769
   24    24.792848676    34.531628264    18.224539075    -0.000823971     0.010597216     0.499887007
   25    26.071507486    30.775478547    11.509555146    -0.005799231     0.002789168     0.499958588
   26    22.630733443    31.357856430    18.046700353    -0.001149190    -0.407367320    -0.289914722
   27    21.295356620    33.358114907    13.334903778     0.042829573     0.035772790     0.496876177
   28    28.288517338    35.796928654    11.604182643     0.015610921     0.001596694     0.499753689
   29    29.001147159    38.449741557    15.683697469    -0.015705627    -0.016711613     0.499473778
   30    27.771113889    39.363402937    12.380742743     0.003549591    -0.015277075     0.499753951
   31    26.283482950    40.327153629    19.395133958    -0.000309387    -0.001016944     0.499998870
   32    28.410357839    30.978140866    18.624062460    -0.006952264    -0.009349817     0.499864229
   33    21.473581170    38.352467454    16.026279845    -0.007646978    -0.016482239     0.499669750
   34    31.070885142    33.337233415    18.744512320     0.031131453    -0.426289750     0.259437627
   35    28.443174353    37.938877680    10.920724820     0.010916870    -0.003576479     0.499868013
   36    27.956942722    32.925637556    16.254795527     0.001874448    -0.102759544     0.489322963
   37    28.462502083    35.538517441    18.191506786    -0.009335630    -0.001718069     0.499909886
   38    26.547550273    36.455724212    14.890645532     0.007868216    -0.014905207     0.499715845
   39    28.734056973    36.151064925    14.316171523     0.022871277    -0.008246079     0.499408557
   40    23.500467405    39.169820673    16.863136423    -0.003255085     0.000886674     0.499988618
   41    26.999839449    32.361725237    14.304113536     0.009315528    -0.081317265     0.493255231
   42    21.283949728    38.803312703    13.753147587    -0.003184408     0.002624058     0.499982974
   43    24.821760455    37.388003197    15.897538598     0.004276409    -0.010577721     0.499869807
   44    29.762155664    34.387344586    15.180877431     0.027373566    -0.015357205     0.499013872
   45    25.101586473    39.904052036    15.356702683    -0.006220107     0.002779768     0.499953581
   46    28.193612884    31.582555677    12.656444028     0.018550841    -0.065965790     0.495282123
   47    27.618076914    32.152289416    20.221208757    -0.007990552    -0.004552151     0.499915422
   48    30.822992020    33.809139283    11.142310849     0.010072751     0.002454032     0.499892506
   49    24.062458458    35.661297890    12.232205676     0.025881078     0.001169637    -0.499328351
   50    27.217218482    39.735384226    17.353259587    -0.018681134     0.014281606     0.499446745
   51    30.494188585    36.168996604    11.281644473     0.002431842     0.006435042     0.499952674
   52    30.201641155    39.931378362    11.982823101    -0.025928886    -0.003327338     0.499316154
   53    29.470867819    34.611539981    19.905835907    -0.002318643     0.003405107     0.499983029
   54    25.629980051    32.718249269    20.217253646    -0.001167480    -0.032530682     0.498939267
   55    24.076203197    40.386558497    13.118660180    -0.003749172     0.001913431     0.499982282
   56    27.187344730    34.379180147    20.082712893    -0.000733512     0.001295551     0.499997784
   57    26.077011248    36.305347851    17.712481549    -0.001230270     0.000441178     0.499998292
   58    24.949971594    30.593479667    17.502811220    -0.004740636    -0.002309984     0.499972190
   59    26.601701635    32.072509441    18.217924933    -0.004052236    -0.013020160     0.499814020
   60    29.707007554    36.751824601    19.463546182    -0.008382983    -0.000020669     0.499929720
   61    29.871884858    32.125320935    20.366956008    -0.005002107    -0.033064617     0.498880457
   62    29.703654053    37.641231397    12.801118076     0.006691580     0.001102795     0.499954004
   63    22.966233357    38.174862914    19.994954033    -0.015486162    -0.004589306     0.499739049
   64    24.306192841    39.496555068    11.061772872    -0.004429537     0.006318519     0.499940452
   65    25.433138551    34.223178984    13.908725443    -0.050183278    -0.002445181     0.497469255
   66    21.831448126    37.104926435    18.502081391    -0.022171164    -0.006349877     0.499467835
   67    28.662431593    33.133830494    18.613877495     0.006652152    -0.007082265     0.499905581
   68    21.825472399    32.664316604    15.713245428    -0.044925863    -0.228280982     0.442571418
   21    32.719334800    36.877626662    14.779748173     0.008777353    -0.009029021    -0.499841410
   22    40.051640470    32.261249116    16.819674893    -0.018870491    -0.157808127     0.474068033
   23    39.935714052    39.788574828    17.684514524    -0.026346210    -0.020654450     0.498878012
   24    34.882504626    34.676288476    18.512625944    -0.009775989     0.000678063     0.499903961
   25    36.161163436    30.920138759    11.797642015    -0.012428306    -0.005141449     0.499819070
   26    32.720389393    31.502516641    18.334787223     0.099480663    -0.394340115    -0.290859883
   27    31.385012570    33.502775119    13.622990648     0.044335177     0.037887315     0.496587297
   28    38.378173288    35.941588866    11.892269512     0.003929303     0.001868594     0.499981069
   29    39.090803109    38.594401768    15.971784338    -0.027795112    -0.021411488     0.498767461
   30    37.860769839    39.508063149    12.668829613    -0.010235243    -0.019647486     0.499508975
   31    36.373138900    40.471813841    19.683220828    -0.009384540    -0.009589098     0.499819947
   32    38.500013789    31.122801078    18.912149330    -0.014812765    -0.017814301     0.499462944
   33    31.563237120    38.497127665    16.314366715    -0.009125426    -0.021328460     0.499461533
   34    41.160541091    33.481893626    19.032599190     0.019508304    -0.430980199     0.252736017
   35    38.532830303    38.083537892    11.208811689    -0.000679298    -0.005776673     0.499966167
   36    38.046598671    33.070297768    16.542882397    -0.004080142    -0.109712526     0.487797616
   37    38.552158033    35.683177653    18.479593655    -0.017782319    -0.010880747     0.499565209
   38    36.637206222    36.600384423    15.178732402     0.000091784    -0.021248791     0.499548276
   39    38.823712923    36.295725137    14.604258392     0.015310106    -0.009033293     0.499683900
   40    33.590123355    39.314480885    17.151223293    -0.010110994    -0.008409929     0.499827011
   41    37.089495398    32.506385449    14.592200406     0.002659412    -0.088751761     0.492052896
   42    31.373605678    38.947972915    14.041234456    -0.000146907     0.001675841     0.499997170
   43    34.911416405    37.532663409    16.185625467    -0.003810163    -0.018413453     0.499646302
   44    39.851811613    34.532004798    15.468964301     0.018644007    -0.018523021     0.499308821
   45    35.191242423    40.048712247    15.644789552    -0.016142538    -0.007052670     0.499689582
   46    38.283268834    31.727215888    12.944530897     0.011789910    -0.073426059     0.494438684
   47    37.707732864    32.296949627    20.509295627    -0.016969608    -0.012524813     0.499554963
   48    40.912647970    33.953799495    11.430397718    -0.000130787    -0.001332874     0.499998206
   49    34.152114407    35.805958102    12.520292546     0.022340016    -0.023469435    -0.498949005
   50    37.306874432    39.880044438    17.641346457    -0.028806975     0.007895460     0.499107023
   51    40.583844535    36.313656816    11.569731342    -0.007840084     0.004496464     0.499918308
   52    40.291297105    40.076038574    12.270909971    -0.036855464    -0.007971241     0.498576107
   53    39.560523769    34.756200193    20.193922777    -0.012601213    -0.004144057     0.499824005
   54    35.719636001    32.862909481    20.505340516    -0.012578528    -0.040288805     0.498215408
   55    34.165859147    40.531218708    13.406747050    -0.016937208    -0.008194166     0.499645861
   56    37.277000680    34.523840359    20.370799763    -0.011609055    -0.008925529     0.499785519
   57    36.166667198    36.450008063    18.000568419    -0.010190290    -0.011056924     0.499773851
   58    35.039627543    30.738139878    17.790898090    -0.014509463    -0.010638692     0.499676189
   59    36.691357584    32.217169652    18.506011802    -0.012291935    -0.022551448     0.499339905
   60    39.796663504    36.896484812    19.751633051    -0.016513997    -0.008153684     0.499660690
   61    39.961540808    32.269981147    20.655042877    -0.013027533    -0.040425893     0.498192764
   62    39.793310003    37.785891608    13.089204945    -0.003060501    -0.000329364     0.499990525
   63    33.055889307    38.319523126    20.283040903    -0.018288949    -0.009173738     0.499581181
   64    34.395848791    39.641215280    11.349859742    -0.017715914    -0.002102287     0.499681625
   65    35.522794500    34.367839196    14.196812313    -0.068191108    -0.024748443     0.494709498
   66    31.921104076    37.249586647    18.790168261    -0.022895165    -0.010069416     0.499374026
   67    38.752087543    33.278490706    18.901964365    -0.000317283    -0.015058430     0.499773092
   68    31.915128349    32.808976816    16.001332297    -0.020799030    -0.229510319     0.443725606
   21     2.332011708     6.400501200    23.835596655     0.023545392     0.002074849    -0.499440997
   22     9.664317379     1.784123655    25.875523375    -0.039743453    -0.171515305     0.467977519
   23     9.548390960     9.311449367    26.740363006    -0.035922012    -0.036363011     0.497380479
   24     4.495181534     4.199163015    27.568474427    -0.021861648    -0.017069119     0.499230121
   25     5.773840344     0.443013297    20.853490498    -0.030601607    -0.017388330     0.498759649
   26     2.333066301     1.025391180    27.390635705     0.037372857    -0.399933957    -0.297751741
   27     0.997689478     3.025649657    22.678839130     0.032990844     0.029348888     0.498046431
   28     7.990850196     5.464463404    20.948117995    -0.005324246    -0.023867109     0.499401656
   29     8.703480017     8.117276307    25.027632821    -0.037679005    -0.039888195     0.496980105
   30     7.473446747     9.030937687    21.724678095    -0.020048482    -0.041157855     0.497899678
   31     5.985815809     9.994688379    28.739069310    -0.017094150    -0.027299608     0.498961443
   32     8.112690697     0.645675616    27.967997812    -0.025757097    -0.029185426     0.498482480
   33     1.175914029     8.020002204    25.370215197    -0.021618087    -0.033319440     0.498419977
   34    10.773218000     3.004768165    28.088447672    -0.018295897    -0.439475279     0.237753527
   35     8.145507211     7.606412431    20.264660171    -0.011738478    -0.028335528     0.499058419
   36     7.659275580     2.593172306    25.598730879    -0.022088416    -0.125814617     0.483407472
   37     8.164834941     5.206052191    27.535442138    -0.026277485    -0.026846431     0.498586766
   38     6.249883131     6.123258962    24.234580884    -0.012699980    -0.040799581     0.498170759
   39     8.436389831     5.818599676    23.660106875     0.003234618    -0.032406832     0.498938207
   40     3.202800263     8.837355423    26.207071775    -0.021769513    -0.022872616     0.499001936
   41     6.702172307     2.029259987    23.648048888    -0.014811791    -0.105150512     0.488593881
   42     0.986282586     8.470847453    23.097082939    -0.013961076    -0.008277100     0.499736509
   43     4.524093314     7.055537947    25.241473950    -0.016678037    -0.036596486     0.498379916
   44     9.464488522     4.054879336    24.524812783     0.007210498    -0.039169473     0.498411237
   45     4.803919332     9.571586786    24.700638035    -0.027120366    -0.023217480     0.498723806
   46     7.895945742     1.250090427    22.000379380    -0.005388545    -0.089967385     0.491809753
   47     7.320409772     1.819824166    29.565144109    -0.026901746    -0.026879431     0.498551695
   48    10.525324878     3.476674033    20.486246201    -0.014294048    -0.020961821     0.499355867
   49     3.764791316     5.328832640    21.576141028     0.041380978    -0.013031667    -0.498114234
   50     6.919551340     9.402918976    26.697194939    -0.037883089    -0.009948794     0.498463532
   51    10.196521444     5.836531355    20.625579825    -0.018951067    -0.018502375     0.499298026
   52     9.903974014     9.598913112    21.326758453    -0.047374597    -0.028700671     0.496922448
   53     9.173200677     4.279074732    29.249771259    -0.018958125    -0.021229767     0.499189229
   54     5.332312909     2.385784020    29.561188998    -0.022844183    -0.053850517     0.496566476
   55     3.778536055    10.054093247    22.462595532    -0.029325786    -0.023466935     0.498587306
   56     6.889677588     4.046714898    29.426648245    -0.021638767    -0.023267896     0.498989347
   57     5.779344107     5.972882602    27.056416901    -0.022332007    -0.028268145     0.498700505
   58     4.652304452     0.261014417    26.846746572    -0.023942261    -0.022039333     0.498939912
   59     6.304034493     1.740044191    27.561860285    -0.022424494    -0.035063617     0.498264673
   60     9.409340412     6.419359351    28.807481534    -0.023716808    -0.023866317     0.498866627
   61     9.574217716     1.792855685    29.710891360    -0.024414047    -0.054915753     0.496375074
   62     9.405986912     7.308766147    22.145053428    -0.013762266    -0.023193486     0.499272132
   63     2.668566215     7.842397665    29.338889385    -0.028270625    -0.020848678     0.498764578
   64     4.008525699     9.164089819    20.405708224    -0.030218311    -0.017766031     0.498769708
   65     5.135471409     3.890713734    23.252660795    -0.108762282    -0.033557949     0.486872293
   66     1.533780985     6.772461185    27.846016743    -0.033040616    -0.019565002     0.498523348
   67     8.364764451     2.801365244    27.957812847    -0.010930398    -0.029839625     0.498989101
   68     1.527805257     2.331851354    25.057180780    -0.053254270    -0.234753795     0.438240389
   21    12.421667658     6.545161412    24.123683524     0.026408430     0.005082975    -0.499276234
   22    19.753973328     1.928783866    26.163610245    -0.044911842    -0.151553988     0.474356738
   23    19.638046910     9.456109578    27.028449876    -0.033472098    -0.023222581     0.498337567
   24    14.584837484     4.343823226    27.856561296    -0.017165808     0.000328630     0.499705140
   25    15.863496294     0.587673509    21.141577367    -0.025621663    -0.003239614     0.499332590
   26    12.422722251     1.170051392    27.678722575     0.029798258    -0.399920344    -0.298623144
   27    11.087345428     3.170309869    22.966926000     0.025710289     0.016135380     0.499077780
   28    18.080506146     5.609123616    21.236204864     0.000515202    -0.000390142     0.499999582
   29    18.793135967     8.261936519    25.315719690    -0.035685657    -0.024309605     0.498132088
   30    17.563102697     9.175597899    22.012764964    -0.017360436    -0.024242397     0.499110130
   31    16.075471758    10.139348591    29.027156180    -0.015489984    -0.017397179     0.499457104
   32    18.202346647     0.790335828    28.256084682    -0.019921394    -0.013316774     0.499425471
   33    11.265569978     8.164662416    25.658302067    -0.024819347    -0.036994597     0.498011445
   34    20.862873950     3.149428376    28.376534542    -0.064103960    -0.425362478     0.254867504
   35    18.235163161     7.751072642    20.552747041    -0.006884250    -0.008081524     0.499887283
   36    17.748931530     2.737832518    25.886817749    -0.022004765    -0.106452682     0.488040589
   37    18.254490891     5.350712403    27.823529007    -0.020267356    -0.007980309     0.499525324
   38    16.339539081     6.267919174    24.522667754    -0.011379249    -0.027343849     0.499122056
   39    18.526045781     5.963259887    23.948193744     0.001990955    -0.015675907     0.499750240
   40    13.292456213     8.982015635    26.495158645    -0.022626021    -0.019741317     0.499097529
   41    16.791828257     2.173920199    23.936135758    -0.012890559    -0.085358300     0.492491415
   42    11.075938536     8.615507665    23.385169808    -0.018361062    -0.019004581     0.499301209
   43    14.613749263     7.200198159    25.529560819    -0.014271667    -0.025537447     0.499143425
   44    19.554144472     4.199539548    24.812899653     0.009365152    -0.022148703     0.499421394
   45    14.893575281     9.716246998    24.988724904    -0.027000812    -0.017292055     0.498970882
   46    17.985601692     1.394750638    22.288466249    -0.003267529    -0.069885217     0.495081185
   47    17.410065722     1.964484377    29.853230979    -0.021481877    -0.008136687     0.499472045
   48    20.614980828     3.621334245    20.774333070    -0.003121447     0.001568701     0.499987796
   49    13.854447266     5.473492852    21.864227898     0.041348992    -0.011803395    -0.498147509
   50    17.009207290     9.547579188    26.985281809    -0.036273462    -0.000564488     0.498682181
   51    20.286177393     5.981191566    20.913666694    -0.014108376     0.002834085     0.499792879
   52    19.993629963     9.743573324    21.614845323    -0.044598955    -0.011629172     0.497871164
   53    19.262856627     4.423734943    29.537858129    -0.011205511     0.000283398     0.499874340
   54    15.421968859     2.530444231    29.849275868    -0.015746306    -0.036687880     0.498403504
   55    13.868192005    10.198753458    22.750682402    -0.030329305    -0.018526802     0.498735291
   56    16.979333538     4.191375109    29.714735115    -0.015775749    -0.004922494     0.499726820
   57    15.869000056     6.117542813    27.344503771    -0.018003535    -0.011575525     0.499541670
   58    14.741960402     0.405674629    27.134833442    -0.020582402    -0.009447892     0.499486839
   59    16.393690443     1.884704402    27.849947154    -0.018791487    -0.020056106     0.499244061
   60    19.498996362     6.564019562    29.095568403    -0.016516776    -0.005016243     0.499701945
   61    19.663873666     1.937515897    29.998978229    -0.018390052    -0.035065966     0.498429718
   62    19.495642861     7.453426359    22.433140297    -0.010960386    -0.004759014     0.499857201
   63    12.758222165     7.987057876    29.626976255    -0.030700224    -0.025151185     0.498422425
   64    14.098181649     9.308750030    20.693795094    -0.031986336    -0.014312440     0.498770517
   65    15.225127359     4.035373946    23.540747665    -0.065667989     0.022715289     0.495148191
   66    11.623436934     6.917121397    28.134103612    -0.036906282    -0.028206870     0.497837623
   67    18.454420401     2.946025456    28.245899717    -0.005133233    -0.010493708     0.499863513
   68    11.617461207     2.476511566    25.345267649    -0.054808534    -0.247310355     0.431084229
   21    22.511323608     6.689821624    24.411770394     0.018726367    -0.008665404    -0.499574053
   22    29.843629278     2.073444078    26.451697114    -0.025282457    -0.148920054     0.476637824
   23    29.727702860     9.600769790    27.316536745    -0.024248961    -0.019896426     0.499015150
   24    24.674493434     4.488483438    28.144648166    -0.006923327     0.006981337     0.499903319
   25    25.953152244     0.732333720    21.429664237    -0.015178843     0.001512830     0.499767260
   26    22.512378201     1.314711603    27.966809444    -0.020617154    -0.403861449    -0.294059285
   27    21.177001378     3.314970081    23.255012870     0.036530994     0.029960654     0.497762841
   28    28.170162096     5.753783827    21.524291734     0.003978877    -0.000977778     0.499983212
   29    28.882791917     8.406596730    25.603806560    -0.025279119    -0.022656584     0.498846314
   30    27.652758647     9.320258110    22.300851834    -0.010736248    -0.020065038     0.499481859
   31    26.165127708    10.284008803    29.315243049    -0.007710252    -0.007490145     0.499884436
   32    28.292002597     0.934996040    28.544171552    -0.008418950    -0.008519717     0.499856515
   33    21.355225928     8.309322627    25.946388936    -0.018802084    -0.022755975     0.499127887
   34    30.952529899     3.294088588    28.664621411    -0.004760447    -0.426386569     0.261097361
   35    28.324819111     7.895732854    20.840833911    -0.001552568    -0.006500042     0.499955337
   36    27.838587479     2.882492730    26.174904618    -0.008198769    -0.102210562     0.489372845
   37    28.344146841     5.495372614    28.111615877    -0.013005897    -0.003045903     0.499821537
   38    26.429195030     6.412579385    24.810754623    -0.001257393    -0.018967245     0.499638532
   39    28.615701731     6.107920099    24.236280614     0.014005024    -0.009078134     0.499721369
   40    23.382112163     9.126675846    26.783245515    -0.014998184    -0.008359452     0.499705087
   41    26.881484206     2.318580410    24.224222628     0.000779888    -0.081758815     0.493269589
   42    21.165594486     8.760167877    23.673256678    -0.014456323    -0.001028717     0.499789912
   43    24.703405213     7.344858371    25.817647689    -0.006000350    -0.015977537     0.499708629
   44    29.643800421     4.344199759    25.100986522     0.018829010    -0.015681766     0.499399190
   45    24.983231231     9.860907209    25.276811774    -0.019223543    -0.006333306     0.499590177
   46    28.075257642     1.539410850    22.576553119     0.008548741    -0.067212533     0.495388125
   47    27.499721672     2.109144589    30.141317848    -0.008293878    -0.003150858     0.499921277
   48    30.704636778     3.765994456    21.062419940    -0.000339087     0.000526400     0.499999608
   49    23.944103215     5.618153064    22.152314767     0.010914205    -0.024865170    -0.499262059
   50    27.098863240     9.692239399    27.273368679    -0.028172970     0.007762622     0.499145295
   51    30.375833343     6.125851778    21.201753564    -0.008139226     0.003628826     0.499920578
   52    30.083285913     9.888233536    21.902932192    -0.036459194    -0.008082606     0.498603448
   53    29.352512577     4.568395155    29.825944999    -0.004519853     0.003120384     0.499969833
   54    25.511624809     2.675104443    30.137362737    -0.001444165    -0.031549379     0.499001554
   55    23.957847955    10.343413670    23.038769271    -0.022009958    -0.007618468     0.499457226
   56    27.068989488     4.336035321    30.002821984    -0.002568561     0.002257530     0.499988306
   57    25.958656006     6.262203025    27.632590640    -0.008662725    -0.004495585     0.499904738
   58    24.831616351     0.550334840    27.422920312    -0.006330975     0.001590566     0.499957387
   59    26.483346392     2.029364614    28.138034024    -0.005309153    -0.012102758     0.499825306
   60    29.588652312     6.708679774    29.383655273    -0.011295538    -0.000882593     0.499871615
   61    29.753529616     2.082176108    30.287065099    -0.006588779    -0.030005767     0.499055350
   62    29.585298811     7.598086570    22.721227167    -0.003193783    -0.000665712     0.499989356
   63    22.847878115     8.131718088    29.915063125    -0.022413998    -0.010044937     0.499396348
   64    24.187837599     9.453410242    20.981881964    -0.023824446    -0.002834430     0.499424030
   65    25.314783308     4.180034158    23.828834535    -0.013427426    -0.034853863     0.498602961
   66    21.713092884     7.061781608    28.422190482    -0.028992954    -0.012193493     0.499009747
   67    28.544076351     3.090685667    28.533986586     0.005166448    -0.006347586     0.499933011
   68    21.707117157     2.621171777    25.633354519    -0.067483557    -0.226750815     0.440488408
   21    32.600979558     6.834481835    24.699857264     0.015952046    -0.007103094    -0.499694985
   22    39.933285228     2.218104290    26.739783984    -0.036310845    -0.157728457     0.473078489
   23    39.817358810     9.745430001    27.604623615    -0.028367410    -0.025871655     0.498523768
   24    34.764149383     4.633143649    28.432735035    -0.014216058     0.000786443     0.499797244
   25    36.042808193     0.876993932    21.717751106    -0.023332067    -0.005533341     0.499424666
   26    32.602034150     1.459371815    28.254896314     0.028111248    -0.409686072    -0.285249154
   27    31.266657328     3.459630292    23.543099739     0.035901582     0.035025209     0.497477950
   28    38.259818045     5.898444039    21.812378603    -0.003319469    -0.001384058     0.499987065
   29    38.972447867     8.551256942    25.891893429    -0.029304649    -0.028593970     0.498320803
   30    37.742414596     9.464918322    22.588938704    -0.013935793    -0.024276958     0.499215808
   31    36.254783658    10.428669014    29.603329919    -0.011129358    -0.010865620     0.499758017
   32    38.381658547     1.079656251    28.832258421    -0.018690426    -0.014563741     0.499438250
   33    31.444881878     8.453982839    26.234475806    -0.014964021    -0.023416082     0.499227168
   34    41.042185849     3.438748800    28.952708281    -0.028210888    -0.433967801     0.246730811
   35    38.414475061     8.040393065    21.128920780    -0.006268777    -0.011059254     0.499838369
   36    37.928243429     3.027152941    26.462991488    -0.017393104    -0.110663533     0.487289506
   37    38.433802790     5.640032826    28.399702747    -0.019542042    -0.008713746     0.499541969
   38    36.518850980     6.557239597    25.098841493    -0.004856348    -0.025283924     0.499336699
   39    38.705357681     6.252580310    24.524367483     0.009427377    -0.016211760     0.499648180
   40    33.471768113     9.271336058    27.071332384    -0.014810462    -0.010692279     0.499666214
   41    36.971140156     2.463240622    24.512309497    -0.008195791    -0.089976526     0.491769310
   42    31.255250436     8.904828088    23.961343547    -0.007902326     0.000349009     0.499937428
   43    34.793061163     7.489518582    26.105734558    -0.008437567    -0.021760562     0.499454988
   44    39.733456371     4.488859971    25.389073392     0.012911845    -0.023981294     0.499257631
   45    35.072887181    10.005567421    25.564898643    -0.019983976    -0.009972671     0.499500937
   46    38.164913591     1.684071062    22.864639988     0.001746108    -0.074743497     0.494378762
   47    37.589377621     2.253804801    30.429404718    -0.018557980    -0.009833226     0.499558714
   48    40.794292728     3.910654668    21.350506809    -0.009434264    -0.003602015     0.499898010
   49    34.033759165     5.762813275    22.440401637     0.034619317    -0.015770348    -0.498550699
   50    37.188519189     9.836899611    27.561455548    -0.031245449     0.004392873     0.499003431
   51    40.465489293     6.270511990    21.489840433    -0.014101693    -0.001352903     0.499799272
   52    40.172941863    10.032893747    22.191019062    -0.040250082    -0.011908336     0.498235007
   53    39.442168527     4.713055366    30.114031868    -0.011215991    -0.000133617     0.499874168
   54    35.601280758     2.819764655    30.425449607    -0.016526637    -0.035623389     0.498455459
   55    34.047503904    10.488073882    23.326856141    -0.022019672    -0.010998008     0.499393810
   56    37.158645437     4.480695532    30.290908854    -0.014721725    -0.003783927     0.499768899
   57    36.048311956     6.406863237    27.920677510    -0.014747427    -0.010874366     0.499664149
   58    34.921272301     0.694995052    27.711007181    -0.016670452    -0.006907506     0.499674276
   59    36.573002342     2.174024826    28.426120893    -0.016085994    -0.018951167     0.499381712
   60    39.678308261     6.853339986    29.671742142    -0.017472661    -0.006426625     0.499653284
   61    39.843185566     2.226836320    30.575151969    -0.019490975    -0.034233689     0.498445741
   62    39.674954761     7.742746782    23.009314036    -0.008303530    -0.008165259     0.499864362
   63    32.937534065     8.276378300    30.203149994    -0.020914704    -0.010481231     0.499452419
   64    34.277493549     9.598070453    21.269968833    -0.023320129    -0.005675825     0.499423624
   65    35.404439258     4.324694369    24.116921404    -0.097300445    -0.021365913     0.489975633
   66    31.802748834     7.206441820    28.710277352    -0.026003486    -0.011106031     0.499199835
   67    38.633732300     3.235345879    28.822073456    -0.001842746    -0.012364503     0.499843699
   68    31.796773107     2.765831989    25.921441389    -0.036991160    -0.226719342     0.444105837
   21     2.467087179    16.425594721    23.866222078     0.024352875    -0.001389414    -0.499404653
   22     9.799392850    11.809217176    25.906148799    -0.038632344    -0.174267370     0.467052916
   23     9.683466431    19.336542888    26.770988430    -0.035038005    -0.036620174     0.497424669
   24     4.630257005    14.224256536    27.599099850    -0.022499274    -0.018955905     0.499133706
   25     5.908915815    10.468106818    20.884115921    -0.030318555    -0.022093316     0.498590684
   26     2.468141772    11.050484701    27.421261129     0.106239343    -0.392010228    -0.291618214
   27     1.132764949    13.050743178    22.709464554     0.028078654     0.024114094     0.498628218
   28     8.125925667    15.489556925    20.978743418    -0.004868960    -0.025137004     0.499343994
   29     8.838555488    18.142369828    25.058258244    -0.038327080    -0.039477247     0.496963361
   30     7.608522218    19.056031208    21.755303518    -0.019487829    -0.040367928     0.497986601
   31     6.120891280    20.019781900    28.769694734    -0.017032097    -0.025437441     0.499061964
   32     8.247766168    10.670769137    27.998623236    -0.026513913    -0.032877194     0.498212909
   33     1.310989500    18.045095725    25.400840621    -0.023534881    -0.031755075     0.498435276
   34    10.908293471    13.029861686    28.119073096    -0.011076972    -0.439895043     0.237422938
   35     8.280582682    17.631505952    20.295285595    -0.011162152    -0.029487563     0.499004900
   36     7.794351051    12.618265827    25.629356302    -0.021375179    -0.128734520     0.482670203
   37     8.299910412    15.231145712    27.566067561    -0.026948404    -0.029624510     0.498393591
   38     6.384958602    16.148352483    24.265206308    -0.012692405    -0.041716504     0.498095007
   39     8.571465302    15.843693197    23.690732298     0.003668779    -0.033782946     0.498843916
   40     3.337875734    18.862448944    26.237697199    -0.022423169    -0.022121495     0.499006855
   41     6.837247778    12.054353508    23.678674312    -0.013702453    -0.108494628     0.487894618
   42     1.121358057    18.495940974    23.127708362    -0.016034961    -0.005642566     0.499710958
   43     4.659168785    17.080631468    25.272099373    -0.016730370    -0.037152640     0.498337011
   44     9.599563993    14.079972857    24.555438207     0.007586855    -0.040726115     0.498280868
   45     4.938994803    19.596680307    24.731263458    -0.027334895    -0.022256685     0.498755896
   46     8.031021213    11.275183948    22.031004803    -0.004698256    -0.093600700     0.491138306
   47     7.455485243    11.844917687    29.595769533    -0.027510571    -0.029373658     0.498377725
   48    10.660400349    13.501767554    20.516871624    -0.014292691    -0.024522314     0.499193725
   49     3.899866787    15.353926161    21.606766452     0.043354196    -0.011736026    -0.497978593
   50     7.054626811    19.428012497    26.727820363    -0.037659040    -0.008946646     0.498499503
   51    10.331596915    15.861624876    20.656205248    -0.018587585    -0.019985037     0.499254544
   52    10.039049485    19.624006633    21.357383877    -0.046244483    -0.027573113     0.497092719
   53     9.308276148    14.304168253    29.280396683    -0.019733251    -0.024228103     0.499022643
   54     5.467388380    12.410877541    29.591814422    -0.022760755    -0.056508853     0.496274821
   55     3.913611526    20.079186768    22.493220956    -0.029348814    -0.021665147     0.498667493
   56     7.024753059    14.071808419    29.457273669    -0.022295254    -0.025799092     0.498835974
   57     5.914419578    15.997976123    27.087042325    -0.022816050    -0.029946153     0.498580641
   58     4.787379923    10.286107938    26.877371996    -0.026545659    -0.025507163     0.498642871
   59     6.439109964    11.765137712    27.592485708    -0.024339859    -0.038006513     0.497958910
   60     9.544415883    16.444452872    28.838106957    -0.023432310    -0.025780779     0.498784802
   61     9.709293187    11.817949206    29.741516783    -0.024067296    -0.057860960     0.496057330
   62     9.541062383    17.333859668    22.175678851    -0.013279740    -0.024240351     0.499235469
   63     2.803641686    17.867491186    29.369514809    -0.028969975    -0.024313758     0.498567530
   64     4.143601170    19.189183340    20.436333648    -0.030194728    -0.016079651     0.498828350
   65     5.270546880    13.915807255    23.283286219    -0.096290004    -0.031106394     0.489653579
   66     1.668856456    16.797554706    27.876642166    -0.034553830    -0.023579456     0.498246969
   67     8.499839922    12.826458765    27.988438271    -0.011665582    -0.032815108     0.498785608
   68     1.662880728    12.356944875    25.087806203    -0.043722909    -0.235783169     0.438742070
   21    12.556743129    16.570254933    24.154308948     0.026740300     0.006913470    -0.499236577
   22    19.889048799    11.953877388    26.194235668    -0.043180333    -0.162091681     0.471022023
   23    19.773122381    19.481203099    27.059075299    -0.034011386    -0.024500160     0.498239870
   24    14.719912955    14.368916747    27.887186720    -0.020926606    -0.007695689     0.499502606
   25    15.998571765    10.612767030    21.172202791    -0.029905161    -0.010980206     0.498984084
   26    12.557797722    11.195144913    27.709347998     0.044268602    -0.399900769    -0.296849568
   27    11.222420899    13.195403390    22.997551424     0.024423953     0.014745073     0.499185390
   28    18.215581617    15.634217137    21.266830288    -0.005310751    -0.012264272     0.499821352
   29    18.928211438    18.287030040    25.346345114    -0.036722282    -0.027424305     0.497894950
   30    17.698178168    19.200691420    22.043390388    -0.018985635    -0.029273824     0.498781103
   31    16.210547229    20.164442112    29.057781603    -0.014641260    -0.016560735     0.499511137
   32    18.337422118    10.815429349    28.286710106    -0.024852760    -0.021136656     0.498934447
   33    11.400645449    18.189755937    25.688927490    -0.024860368    -0.038247152     0.497914769
   34    20.997949421    13.174521897    28.407159965    -0.038582360    -0.434170447     0.244964129
   35    18.370238632    17.776166163    20.583372465    -0.010532062    -0.016807878     0.499606416
   36    17.884007001    12.762926039    25.917443172    -0.023885481    -0.116251330     0.485710935
   37    18.389566362    15.375805924    27.854154431    -0.024234243    -0.017693738     0.499098821
   38    16.474614552    16.293012695    24.553293177    -0.011613974    -0.032913017     0.498780361
   39    18.661121252    15.988353408    23.978819168     0.005061037    -0.022896545     0.499449831
   40    13.427531684    19.007109156    26.525784069    -0.022677023    -0.020944997     0.499046150
   41    16.926903728    12.199013720    23.966761181    -0.015252552    -0.095448697     0.490567942
   42    11.211014007    18.640601186    23.415795232    -0.018339614    -0.019992733     0.499263407
   43    14.748824734    17.225291680    25.560186243    -0.015929275    -0.029720934     0.498861628
   44    19.689219943    14.224633069    24.843525076     0.009080697    -0.029834382     0.499026503
   45    15.028650752    19.741340519    25.019350328    -0.027217084    -0.018524465     0.498914897
   46    18.120677163    11.419844159    22.319091673    -0.005663002    -0.080127072     0.493505403
   47    17.545141193    11.989577899    29.883856402    -0.025915415    -0.017759172     0.499012027
   48    20.750056299    13.646427766    20.804958494    -0.012409998    -0.009940446     0.499747116
   49    13.989522737    15.498586373    21.894853321     0.041470244    -0.004562971    -0.498256358
   50    17.144282761    19.572672709    27.015907233    -0.035130827    -0.000132957     0.498764280
   51    20.421252864    16.006285087    20.944292118    -0.017282805    -0.007329895     0.499647453
   52    20.128705434    19.768666845    21.645470746    -0.044308349    -0.015958171     0.497777166
   53    19.397932098    14.448828464    29.568483553    -0.016512735    -0.011822283     0.499587393
   54    15.557044330    12.555537752    29.879901291    -0.021786789    -0.045590525     0.497440288
   55    14.003267476    20.223846979    22.781307825    -0.029952316    -0.020037093     0.498699683
   56    17.114409009    14.216468630    29.745360538    -0.020608882    -0.014358392     0.499368712
   57    16.004075527    16.142636334    27.375129194    -0.021219644    -0.019151470     0.499182279
   58    14.877035873    10.430768150    27.165458866    -0.024669508    -0.017168105     0.499095854
   59    16.528765914    11.909797924    27.880572578    -0.022924333    -0.028134274     0.498681198
   60    19.634071833    16.589113083    29.126193827    -0.020677434    -0.014640076     0.499357699
   61    19.798949137    11.962609418    30.029603653    -0.023209234    -0.045071000     0.497423297
   62    19.630718332    17.478519880    22.463765721    -0.011754983    -0.012768373     0.499698698
   63    12.893297636    18.012151397    29.657601678    -0.030994630    -0.027728420     0.498267466
   64    14.233257120    19.333843551    20.724420518    -0.031490877    -0.015990121     0.498751081
   65    15.360202830    14.060467467    23.571373089    -0.056899887    -0.014925878     0.496527563
   66    11.758512405    16.942214918    28.164729036    -0.037526921    -0.030766036     0.497639610
   67    18.589495872    12.971118977    28.276525140    -0.008962708    -0.020845214     0.499484882
   68    11.752536678    12.501605087    25.375893073    -0.052210899    -0.249818675     0.429958895
   21    22.646399079    16.714915145    24.442395818     0.021967212    -0.001686627    -0.499514361
   22    29.978704749    12.098537599    26.482322538    -0.029491104    -0.156669591     0.473903908
   23    29.862778331    19.625863311    27.347162169    -0.024855289    -0.021933174     0.498899940
   24    24.809568905    14.513576959    28.175273589    -0.013266097    -0.000031483     0.499823979
   25    26.088227715    10.757427241    21.460289660    -0.020869381    -0.004307301     0.499545710
   26    22.647453672    11.339805124    27.997434868     0.005135430    -0.402881535    -0.296074477
   27    21.312076849    13.340063602    23.285638293     0.030088957     0.024831770     0.498475714
   28    28.305237567    15.778877348    21.554917157    -0.001981206    -0.001707526     0.499993159
   29    29.017867388    18.431690251    25.634431983    -0.026505944    -0.023991673     0.498720197
   30    27.787834118    19.345351631    22.331477258    -0.010873750    -0.024107986     0.499300077
   31    26.300203179    20.309102324    29.345868473    -0.006603580    -0.013166146     0.499782998
   32    28.427078068    10.960089561    28.574796975    -0.016306059    -0.014200096     0.499532251
   33    21.490301399    18.334416148    25.977014360    -0.020389623    -0.029243382     0.498727469
   34    31.087605370    13.319182109    28.695246835    -0.016936606    -0.433598039     0.248406707
   35    28.459894582    17.920826375    20.871459334    -0.003760719    -0.010082278     0.499884191
   36    27.973662950    12.907586251    26.205530042    -0.012288209    -0.109184384     0.487778403
   37    28.479222312    15.520466135    28.142241300    -0.017549540    -0.009467061     0.499602230
   38    26.564270501    16.437672906    24.841380047    -0.005211958    -0.025772752     0.499308122
   39    28.750777202    16.133013620    24.266906037     0.010299795    -0.015614670     0.499649974
   40    23.517187634    19.151769367    26.813870938    -0.016379465    -0.014342244     0.499525788
   41    27.016559677    12.343673931    24.254848051    -0.003577822    -0.087853817     0.492208194
   42    21.300669957    18.785261398    23.703882101    -0.015479925    -0.009446508     0.499671027
   43    24.838480684    17.369951892    25.848273112    -0.009166485    -0.022822391     0.499394748
   44    29.778875892    14.369293280    25.131611946     0.014953105    -0.022676034     0.499261657
   45    25.118306702    19.886000730    25.307437197    -0.019664766    -0.012938610     0.499445582
   46    28.210333113    11.564504371    22.607178542     0.006741049    -0.072517954     0.494667266
   47    27.634797143    12.134238110    30.171943272    -0.017090394    -0.009331719     0.499620694
   48    30.839712249    13.791087977    21.093045363    -0.006344072    -0.001213340     0.499958279
   49    24.079178686    15.643246585    22.182940191     0.038414828    -0.006691266    -0.498477209
   50    27.233938711    19.717332920    27.303994102    -0.027180562     0.002590262     0.499253951
   51    30.510908814    16.150945299    21.232378987    -0.011658711     0.000237040     0.499864000
   52    30.218361384    19.913327057    21.933557616    -0.037434282    -0.011826268     0.498456431
   53    29.487588048    14.593488676    29.856570422    -0.010577373    -0.001418669     0.499886094
   54    25.646700280    12.700197964    30.167988161    -0.011777731    -0.037334430     0.498465069
   55    24.092923426    20.368507191    23.069394695    -0.022119808    -0.014207594     0.499308380
   56    27.204064959    14.361128842    30.033447408    -0.012594795    -0.005086273     0.499815467
   57    26.093731477    16.287296546    27.663216064    -0.013916914    -0.011632234     0.499670902
   58    24.966691823    10.575428361    27.453545735    -0.016083549    -0.006987805     0.499692395
   59    26.618421863    12.054458135    28.168659447    -0.014655902    -0.018825758     0.499430471
   60    29.723727783    16.733773295    29.414280696    -0.014581714    -0.006511405     0.499744910
   61    29.888605087    12.107269629    30.317690523    -0.014319443    -0.036230836     0.498479970
   62    29.720374282    17.623180091    22.751852590    -0.005966395    -0.006164582     0.499926395
   63    22.982953586    18.156811609    29.945688548    -0.025375586    -0.019204963     0.498986221
   64    24.322913070    19.478503763    21.012507387    -0.024055834    -0.009547142     0.499329720
   65    25.449858780    14.205127679    23.859459958    -0.074446631     0.000728497     0.494426100
   66    21.848168355    17.086875129    28.452815906    -0.032460253    -0.021142729     0.498497058
   67    28.679151822    13.115779188    28.564612010    -0.001617244    -0.012177490     0.499849070
   68    21.842192628    12.646265298    25.663979942    -0.060855050    -0.238239766     0.435360169
   21    32.736055029    16.859575356    24.730482687     0.018163199    -0.005367108    -0.499641164
   22    40.068360699    12.243197811    26.770409407    -0.033483584    -0.158790109     0.472931867
   23    39.952434281    19.770523523    27.635249039    -0.028886336    -0.023712041     0.498601363
   24    34.899224854    14.658237170    28.463360459    -0.017215752    -0.001733480     0.499700523
   25    36.177883664    10.902087453    21.748376530    -0.023773386    -0.005181413     0.499407628
   26    32.737109622    11.484465336    28.285521738     0.028189101    -0.409752205    -0.285146463
   27    31.401732799    13.484723813    23.573725163     0.033946660     0.030686164     0.497901580
   28    38.394893516    15.923537560    21.843004027    -0.000006995     0.000001652     0.500000000
   29    39.107523338    18.576350463    25.922518853    -0.031874495    -0.022653617     0.498468485
   30    37.877490067    19.490011843    22.619564127    -0.014362259    -0.023918043     0.499221046
   31    36.389859129    20.453762535    29.633955342    -0.010179807    -0.013670211     0.499709412
   32    38.516734018    11.104749772    28.862883845    -0.020326594    -0.018504557     0.499243839
   33    31.579957349    18.479076360    26.265101230    -0.017829656    -0.026185602     0.498995408
   34    41.177261320    13.463842321    28.983333704     0.007500170    -0.433104429     0.249728454
   35    38.549550532    18.065486586    21.159546204    -0.006142793    -0.009972309     0.499862800
   36    38.063318900    13.052246462    26.493616911    -0.016224485    -0.112913745     0.486813365
   37    38.568878261    15.665126347    28.430328170    -0.022785580    -0.014513762     0.499269635
   38    36.653926451    16.582333118    25.129466916    -0.008794866    -0.028449917     0.499112465
   39    38.840433152    16.277673831    24.554992907     0.003620815    -0.019053097     0.499623728
   40    33.606843584    19.296429579    27.101957808    -0.016581532    -0.013079646     0.499553777
   41    37.106215627    12.488334143    24.542934921    -0.008986558    -0.091983841     0.491383979
   42    31.390325907    18.929921609    23.991968971    -0.010559715    -0.004136782     0.499871363
   43    34.928136634    17.514612103    26.136359982    -0.010923080    -0.025111645     0.499249528
   44    39.868531842    14.513953492    25.419698815     0.007231009    -0.027240245     0.499205050
   45    35.207962652    20.030660942    25.595524067    -0.021504390    -0.012343649     0.499384817
   46    38.299989062    11.709164583    22.895265412     0.001082652    -0.076768001     0.494070341
   47    37.724453093    12.278898322    30.460030141    -0.021474375    -0.013190108     0.499364468
   48    40.929368199    13.935748189    21.381132233    -0.006344260    -0.000715182     0.499959237
   49    34.168834636    15.787906796    22.471027061     0.035294791    -0.009347875    -0.498665113
   50    37.323594660    19.861993132    27.592080972    -0.030369174     0.003252989     0.499066259
   51    40.600564764    16.295605511    21.520465857    -0.014309351     0.000305787     0.499795107
   52    40.308017334    20.057987268    22.221644485    -0.041589624    -0.011552966     0.498133348
   53    39.577243998    14.738148888    30.144657292    -0.017188441    -0.006350150     0.499664120
   54    35.736356229    12.844858176    30.456075030    -0.016886080    -0.040633504     0.498060015
   55    34.182579375    20.513167403    23.357481564    -0.024053429    -0.012423992     0.499266539
   56    37.293720908    14.505789054    30.321534277    -0.017434513    -0.008682532     0.499620507
   57    36.183387427    16.431956758    27.951302933    -0.017650114    -0.014464037     0.499478994
   58    35.056347772    10.720088573    27.741632605    -0.018878292    -0.009808855     0.499547191
   59    36.708077813    12.199118347    28.456746317    -0.017696095    -0.022424319     0.499183331
   60    39.813383732    16.878433507    29.702367566    -0.020308273    -0.012334257     0.499435121
   61    39.978261037    12.251929841    30.605777392    -0.017801477    -0.041067667     0.497992524
   62    39.810030232    17.767840303    23.039939460    -0.010325943    -0.007851441     0.499831701
   63    33.072609536    18.301471821    30.233775418    -0.022635204    -0.015921382     0.499233570
   64    34.412569020    19.623163974    21.300594257    -0.025398761    -0.007331215     0.499300667
   65    35.539514729    14.349787890    24.147546828    -0.061258924    -0.001694081     0.496230263
   66    31.937824305    17.231535341    28.740902775    -0.028363894    -0.016322716     0.498927909
   67    38.768807772    13.260439400    28.852698879    -0.006943964    -0.016999197     0.499662695
   68    31.931848578    12.790925510    25.952066812    -0.045092753    -0.234390896     0.439349009
   21     2.602162650    26.450688242    23.896847502     0.022198440    -0.003376790    -0.499495572
   22     9.934468321    21.834310697    25.936774222    -0.039703764    -0.171826576     0.467866689
   23     9.818541902    29.361636409    26.801613853    -0.035276132    -0.029794288     0.497863330
   24     4.765332476    24.249350057    27.629725274    -0.021614304    -0.013629170     0.499346641
   25     6.043991286    20.493200339    20.914741345    -0.029630032    -0.019435533     0.498742741
   26     2.603217243    21.075578222    27.451886552     0.054407531    -0.401522606    -0.292949514
   27     1.267840420    23.075836699    22.740089977     0.029806218     0.029786582     0.498221185
   28     8.261001138    25.514650446    21.009368842    -0.003922950    -0.017688991     0.499671602
   29     8.973630959    28.167463349    25.088883668    -0.037996265    -0.032942492     0.497464648
   30     7.743597689    29.081124729    21.785928942    -0.019127006    -0.033702063     0.498496067
   31     6.255966751    30.044875421    28.800320157    -0.016462654    -0.021022026     0.499286546
   32     8.382841639    20.695862658    28.029248660    -0.026760007    -0.030768578     0.498334423
   33     1.446064971    28.070189246    25.431466044    -0.021165000    -0.029313910     0.498691024
   34    11.043368942    23.054955207    28.149698519    -0.020605643    -0.440628341     0.235418930
   35     8.415658154    27.656599473    20.325911019    -0.009937331    -0.021522083     0.499437733
   36     7.929426522    22.643359348    25.659981726    -0.022052861    -0.124838346     0.483662133
   37     8.434985883    25.256239233    27.596692985    -0.025208083    -0.023156489     0.498826954
   38     6.520034073    26.173446004    24.295831731    -0.012462316    -0.035704161     0.498567852
   39     8.706540773    25.868786718    23.721357722     0.003533417    -0.027268202     0.499243388
   40     3.472951205    28.887542465    26.268322623    -0.021443154    -0.017924787     0.499218282
   41     6.972323249    22.079447029    23.709299735    -0.014401277    -0.104034592     0.488844972
   42     1.256433528    28.521034495    23.158333786    -0.012875336    -0.004602016     0.499813012
   43     4.794244256    27.105724989    25.302724797    -0.016268064    -0.031500900     0.498741459
   44     9.734639464    24.105066378    24.586063630     0.007939050    -0.034925519     0.498715530
   45     5.074070274    29.621773828    24.761888882    -0.026629529    -0.017627552     0.498979095
   46     8.166096684    21.300277469    22.061630227    -0.004999548    -0.088918044     0.492004661
   47     7.590560714    21.870011208    29.626394956    -0.027029424    -0.027414130     0.498515673
   48    10.795475820    23.526861075    20.547497048    -0.013053068    -0.017284873     0.499530630
   49     4.034942258    25.379019682    21.637391875     0.041093778    -0.007573865    -0.498250879
   50     7.189702282    29.453106018    26.758445787    -0.036985562    -0.004175858     0.498612706
   51    10.466672386    25.886718397    20.686830672    -0.017285402    -0.011869408     0.499560139
   52    10.174124956    29.649100154    21.388009300    -0.046019328    -0.020775068     0.497444085
   53     9.443351619    24.329261774    29.311022107    -0.017890058    -0.018866850     0.499323530
   54     5.602463851    22.435971062    29.622439845    -0.023396826    -0.053301861     0.496599940
   55     4.048686997    30.104280289    22.523846379    -0.028457933    -0.017319692     0.498888940
   56     7.159828530    24.096901940    29.487899092    -0.021837059    -0.022237987     0.499027669
   57     6.049495049    26.023069644    27.117667748    -0.022099100    -0.024054993     0.498931846
   58     4.922455394    20.311201459    26.907997420    -0.025538858    -0.023524995     0.498792884
   59     6.574185435    21.790231233    27.623111132    -0.023870472    -0.035690435     0.498152982
   60     9.679491354    26.469546393    28.868732381    -0.021584524    -0.018833356     0.499178739
   61     9.844368658    21.843042727    29.772142207    -0.024353140    -0.055029714     0.496365445
   62     9.676137854    27.358953189    22.206304275    -0.012421622    -0.016919006     0.499559256
   63     2.938717157    27.892584707    29.400140232    -0.027793441    -0.020577862     0.498802643
   64     4.278676641    29.214276861    20.466959072    -0.029251382    -0.011863129     0.499002628
   65     5.405622351    23.940900776    23.313911642    -0.100872742    -0.030799438     0.488749511
   66     1.803931927    26.822648227    27.907267590    -0.032660840    -0.020255247     0.498520807
   67     8.634915393    22.851552286    28.019063694    -0.010987660    -0.028874278     0.499044635
   68     1.797956199    22.382038396    25.118431627    -0.046991380    -0.235833866     0.438376776
   21    12.691818600    26.595348454    24.184934372     0.023879409    -0.001728166    -0.499426458
   22    20.024124270    21.978970909    26.224861092    -0.051285678    -0.158825379     0.471321842
   23    19.908197852    29.506296620    27.089700723    -0.024410357    -0.014232863     0.499200922
   24    14.854988426    24.394010268    27.917812143    -0.016880373     0.000410186     0.499714803
   25    16.133647236    20.637860551    21.202828214    -0.028687892    -0.011605611     0.499041396
   26    12.692873193    21.220238434    27.739973422     0.031019910    -0.401354008    -0.296568247
   27    11.357496370    23.220496911    23.028176847     0.027191875     0.019998791     0.498859349
   28    18.350657088    25.659310658    21.297455711     0.000238075    -0.000499217     0.499999694
   29    19.063286909    28.312123561    25.376970537    -0.027180228    -0.016584236     0.498985168
   30    17.833253639    29.225784941    22.074015812    -0.010735207    -0.018524960     0.499541371
   31    16.345622700    30.189535633    29.088407027    -0.007024237    -0.000957170     0.499949741
   32    18.472497589    20.840522870    28.317335529    -0.023322591    -0.019732901     0.499065797
   33    11.535720921    28.214849458    25.719552914    -0.021646018    -0.028446627     0.498720602
   34    21.133024892    23.199615419    28.437785389    -0.065700178    -0.432725359     0.241727637
   35    18.505314103    27.801259684    20.613997888    -0.004560483    -0.004662099     0.499957465
   36    18.019082472    22.788019560    25.948068596    -0.029120073    -0.111858869     0.486456180
   37    18.524641833    25.400899445    27.884779854    -0.018217475    -0.007003582     0.499618928
   38    16.609690023    26.318106216    24.583918601    -0.008592280    -0.021100593     0.499480668
   39    18.796196723    26.013446929    24.009444591     0.007572560    -0.010374205     0.499835005
   40    13.562607155    29.032202677    26.556409492    -0.017450129    -0.009582137     0.499603518
   41    17.061979199    22.224107241    23.997386605    -0.019626089    -0.091383877     0.491186119
   42    11.346089478    28.665694707    23.446420655    -0.016736918    -0.011718331     0.499582382
   43    14.883900205    27.250385201    25.590811666    -0.012681630    -0.017967506     0.499516111
   44    19.824295414    24.249726590    24.874150500     0.004770111    -0.020890736     0.499540612
   45    15.163726223    29.766434040    25.049975751    -0.021500273    -0.006674576     0.499492931
   46    18.255752634    21.444937680    22.349717096    -0.008547200    -0.076258017     0.494076573
   47    17.680216664    22.014671420    29.914481826    -0.023165999    -0.013540774     0.499279465
   48    20.885131770    23.671521287    20.835583917    -0.008279173    -0.000616040     0.499931071
   49    14.124598208    25.523679894    21.925478745     0.041510534    -0.015284773    -0.498039407
   50    17.279358232    29.597766230    27.046532656    -0.026575867     0.014033428     0.499095969
   51    20.556328336    26.031378608    20.974917541    -0.010932875     0.004328046     0.499861721
   52    20.263780905    29.793760366    21.676096170    -0.037840018    -0.006090566     0.498528874
   53    19.533007569    24.473921985    29.599108976    -0.010423459    -0.001275964     0.499889711
   54    15.692119801    22.580631273    29.910526715    -0.019353555    -0.041463070     0.497901852
   55    14.138342947    30.248940500    22.811933249    -0.023008588    -0.008303540     0.499401298
   56    17.249484480    24.241562151    29.775985962    -0.017122910    -0.008344433     0.499637045
   57    16.139150998    26.167729855    27.405754618    -0.017064203    -0.009617349     0.499616172
   58    15.012111344    20.455861671    27.196084289    -0.023744743    -0.016824925     0.499152391
   59    16.663841385    21.934891445    27.911198001    -0.022032418    -0.026362720     0.498818183
   60    19.769147304    26.614206605    29.156819250    -0.012769107    -0.002434604     0.499830994
   61    19.934024608    21.987702939    30.060229077    -0.019556396    -0.039218966     0.498075717
   62    19.765793803    27.503613401    22.494391144    -0.005736668    -0.000328713     0.499966981
   63    13.028373107    28.037244918    29.688227102    -0.025258192    -0.016981616     0.499072789
   64    14.368332591    29.358937072    20.755045941    -0.024840645    -0.004455290     0.499362687
   65    15.495278301    24.085560988    23.601998512    -0.105766957    -0.021589437     0.488208201
   66    11.893587876    26.967308439    28.195354460    -0.033022195    -0.021257633     0.498455261
   67    18.724571343    22.996212498    28.307150564    -0.005802789    -0.014268513     0.499762681
   68    11.887612149    22.526698608    25.406518496    -0.054801364    -0.248097510     0.430632600
   21    22.781474550    26.740008666    24.473021241     0.012576385    -0.011210911    -0.499716069
   22    30.113780220    22.123631120    26.512947961    -0.025965353    -0.158649671     0.473451246
   23    29.997853802    29.650956832    27.377787592    -0.014326931    -0.013026689     0.499624904
   24    24.944644376    24.538670480    28.205899013    -0.008032223     0.001206669     0.499934023
   25    26.223303186    20.782520762    21.490915084    -0.019928135    -0.008086326     0.499537267
   26    22.782529143    21.364898645    28.028060291    -0.033978684    -0.399075581    -0.299306081
   27    21.447152320    23.365157123    23.316263717     0.031744523     0.032577461     0.497926696
   28    28.440313038    25.803970869    21.585542581     0.008934208    -0.001758935     0.499917079
   29    29.152942859    28.456783772    25.665057407    -0.016272607    -0.015046530     0.499508563
   30    27.922909589    29.370445152    22.362102681    -0.003854043    -0.018652654     0.499637093
   31    26.435278650    30.334195845    29.376493896     0.006734212    -0.000079341     0.499954642
   32    28.562153539    20.985183082    28.605422399    -0.015753639    -0.017853901     0.499432739
   33    21.625376870    28.359509669    26.007639784    -0.009682079    -0.017762539     0.499590582
   34    31.222680841    23.344275630    28.725872258    -0.005203533    -0.435035682     0.246407951
   35    28.594970053    27.945919896    20.902084758     0.004467363    -0.006711639     0.499934992
   36    28.108738421    22.932679772    26.236155465    -0.008592109    -0.110337886     0.487597915
   37    28.614297783    25.545559656    28.172866724    -0.013727188    -0.009858506     0.499714293
   38    26.699345972    26.462766427    24.872005470     0.002622768    -0.019719793     0.499604094
   39    28.885852673    26.158107141    24.297531461     0.018395005    -0.010287731     0.499555589
   40    23.652263105    29.176862888    26.844496362    -0.005881430    -0.001289427     0.499963745
   41    27.151635148    22.368767453    24.285473475    -0.000700702    -0.089492945     0.491925321
   42    21.435745428    28.810354919    23.734507525    -0.007181020     0.003077430     0.499938959
   43    24.973556155    27.395045413    25.878898536    -0.001366280    -0.015640770     0.499753439
   44    29.913951363    24.394386801    25.162237369     0.022607534    -0.017292791     0.499189201
   45    25.253382173    29.911094251    25.338062621    -0.010109818    -0.000361948     0.499897650
   46    28.345408584    21.589597892    22.637803966     0.008722970    -0.074458720     0.494347862
   47    27.769872614    22.159331631    30.202568695    -0.016655746    -0.013270304     0.499546279
   48    30.974787720    23.816181498    21.123670787    -0.001688055    -0.001481625     0.499994955
   49    24.214254157    25.668340106    22.213565615    -0.001305152    -0.002421912    -0.499992431
   50    27.369014182    29.742426441    27.334619526    -0.014167841     0.014847639     0.499578642
   51    30.645984285    26.176038820    21.263004411    -0.001737128     0.004053082     0.499980555
   52    30.353436855    29.938420578    21.964183039    -0.029703383    -0.006363939     0.499076356
   53    29.622663519    24.618582197    29.887195846    -0.007995401    -0.004305643     0.499917528
   54    25.781775751    22.725291485    30.198613584    -0.011703078    -0.040606257     0.498210969
   55    24.227998897    30.393600712    23.100020118    -0.013804345    -0.003529451     0.499796942
   56    27.339140430    24.386222363    30.064072831    -0.011072928    -0.008027385     0.499812916
   57    26.228806948    26.312390067    27.693841487    -0.008121464    -0.009820279     0.499837578
   58    25.101767294    20.600521882    27.484171159    -0.014519585    -0.012612384     0.499629973
   59    26.753497335    22.079551656    28.199284871    -0.013048902    -0.023182017     0.499291819
   60    29.858803254    26.758866816    29.444906120    -0.010145376    -0.007125527     0.499846275
   61    30.023680558    22.132363150    30.348315946    -0.013545377    -0.040269877     0.498191589
   62    29.855449753    27.648273612    22.782478014     0.003305315    -0.000124548     0.499989059
   63    23.118029057    28.181905130    29.976313972    -0.015685515    -0.005111422     0.499727764
   64    24.457988541    29.503597284    21.043132811    -0.016246244     0.001001472     0.499734986
   65    25.584934251    24.230221200    23.890085382    -0.069573820    -0.019211323     0.494762982
   66    21.983243826    27.111968650    28.483441329    -0.023058571    -0.007975757     0.499404335
   67    28.814227293    23.140872709    28.595237433    -0.000266058    -0.014958882     0.499776111
   68    21.977268099    22.671358819    25.694605366    -0.072785624    -0.234961360     0.435310708
   21    32.871130500    26.884668877    24.761108111     0.010315541    -0.007956014    -0.499830263
   22    40.203436170    22.268291332    26.801034831    -0.033012329    -0.158313989     0.473124579
   23    40.087509752    29.795617044    27.665874462    -0.028226769    -0.022211091     0.498708248
   24    35.034300325    24.683330692    28.493985883    -0.014476241    -0.002619469     0.499783530
   25    36.312959135    20.927180974    21.779001954    -0.023971274    -0.007642439     0.499366570
   26    32.872185093    21.509558857    28.316147161     0.045027425    -0.400389283    -0.296075924
   27    31.536808270    23.509817334    23.604350586     0.040635370     0.037894458     0.496903186
   28    38.529968987    25.948631081    21.873629450     0.003977437    -0.002669246     0.499977055
   29    39.242598809    28.601443984    25.953144276    -0.030238778    -0.023163108     0.498546975
   30    38.012565538    29.515105364    22.650189551    -0.011284851    -0.024570488     0.499268408
   31    36.524934600    30.478856056    29.664580766    -0.008023880    -0.012364504     0.499782689
   32    38.651809489    21.129843293    28.893509268    -0.018665567    -0.019218658     0.499281724
   33    31.715032820    28.504169881    26.295726653    -0.010354789    -0.023312503     0.499348882
   34    41.312336791    23.488935842    29.013959128    -0.009009017    -0.434995185     0.246369694
   35    38.684626003    28.090580107    21.190171627    -0.002477803    -0.010835499     0.499876437
   36    38.198394371    23.077339983    26.524242335    -0.015937413    -0.111301663     0.487193944
   37    38.703953732    25.690219868    28.460953594    -0.019609815    -0.012676204     0.499454471
   38    36.789001922    26.607426639    25.160092340    -0.004532919    -0.025626804     0.499322260
   39    38.975508623    26.302767353    24.585618331     0.010188915    -0.016007788     0.499639807
   40    33.741919055    29.321523100    27.132583231    -0.011773611    -0.011323155     0.499733097
   41    37.241291098    22.513427664    24.573560344    -0.007079383    -0.090143697     0.491756033
   42    31.525401378    28.955015130    24.022594394    -0.000909592     0.001244438     0.499997624
   43    35.063212105    27.539705624    26.166985405    -0.008958813    -0.021768897     0.499445547
   44    40.003607313    24.539047013    25.450324239     0.010054951    -0.024860504     0.499280335
   45    35.343038123    30.055754463    25.626149490    -0.017746461    -0.010365772     0.499577435
   46    38.435064533    21.734258104    22.925890835     0.003071698    -0.074951221     0.494340853
   47    37.859528564    22.303991843    30.490655565    -0.019771921    -0.013362208     0.499430198
   48    41.064443670    23.960841710    21.411757656    -0.006903852    -0.001575440     0.499949852
   49    34.303910107    25.813000317    22.501652484     0.022913780    -0.024710561    -0.498863054
   50    37.458670131    29.887086653    27.622706395    -0.028528421     0.004942787     0.499160994
   51    40.735640235    26.320699032    21.551091281    -0.010570613    -0.000231232     0.499888196
   52    40.443092805    30.083080789    22.252269909    -0.038200099    -0.012555861     0.498380480
   53    39.712319469    24.763242409    30.175282715    -0.013673610    -0.004630562     0.499791547
   54    35.871431700    22.869951697    30.486700454    -0.015449339    -0.041181563     0.498061640
   55    34.317654846    30.538260924    23.388106988    -0.019146669    -0.012157150     0.499485344
   56    37.428796380    24.530882575    30.352159701    -0.015045376    -0.009317247     0.499686727
   57    36.318462898    26.457050279    27.981928357    -0.014765430    -0.013875209     0.499589292
   58    35.191423243    20.745182094    27.772258028    -0.018951730    -0.012809806     0.499476467
   59    36.843153284    22.224211868    28.487371740    -0.016992805    -0.024424030     0.499113926
   60    39.948459204    26.903527028    29.732992989    -0.017011737    -0.009846722     0.499613493
   61    40.113336508    22.277023362    30.636402816    -0.012807434    -0.042586283     0.498018452
   62    39.945105703    27.792933824    23.070564883    -0.005935257    -0.007169703     0.499913361
   63    33.207685007    28.326565342    30.264400841    -0.019612000    -0.014755381     0.499397285
   64    34.547644491    29.648257496    21.331219680    -0.020067418    -0.006988304     0.499548258
   65    35.674590200    24.374881411    24.178172251    -0.090382717    -0.014759307     0.491541582
   66    32.072899776    27.256628862    28.771528199    -0.024641638    -0.015642531     0.499147374
   67    38.903883243    23.285532921    28.883324303    -0.002698466    -0.016438334     0.499722422
   68    32.066924049    22.816019031    25.982692236    -0.040119152    -0.236993174     0.438434361
   21     2.737238121    36.475781763    23.927472926     0.022645412    -0.001242908    -0.499485376
   22    10.069543792    31.859404218    25.967399646    -0.045274453    -0.166683809     0.469219279
   23     9.953617373    39.386729930    26.832239277    -0.034546972    -0.032928894     0.497716982
   24     4.900407947    34.274443578    27.660350697    -0.021728609    -0.011902296     0.499385826
   25     6.179066757    30.518293860    20.945366768    -0.029586762    -0.014175386     0.498922521
   26     2.738292714    31.100671743    27.482511976     0.047257142    -0.400631307    -0.295400268
   27     1.402915891    33.100930220    22.770715401     0.033788545     0.030939284     0.497896671
   28     8.396076609    35.539743967    21.039994265    -0.004376915    -0.017633989     0.499669776
   29     9.108706430    38.192556870    25.119509091    -0.037565940    -0.035358296     0.497331470
   30     7.878673160    39.106218250    21.816554366    -0.020084290    -0.035358321     0.498343667
   31     6.391042222    40.069968942    28.830945581    -0.015510637    -0.024142510     0.499175880
   32     8.517917110    30.720956179    28.059874083    -0.026179921    -0.026036645     0.498634841
   33     1.581140442    38.095282767    25.462091468    -0.021472092    -0.030687407     0.498595259
   34    11.178444413    33.080048728    28.180323943    -0.039947063    -0.436309155     0.240911921
   35     8.550733625    37.681692994    20.356536442    -0.011001055    -0.022027631     0.499393392
   36     8.064501993    32.668452869    25.690607150    -0.025011551    -0.121147583     0.484456072
   37     8.570061354    35.281332754    27.627318408    -0.025458618    -0.022284704     0.498853937
   38     6.655109544    36.198539525    24.326457155    -0.012282481    -0.035977810     0.498552643
   39     8.841616244    35.893880239    23.751983145     0.003264224    -0.027151164     0.499251599
   40     3.608026677    38.912635986    26.298948046    -0.021198536    -0.020139135     0.499144305
   41     7.107398720    32.104540550    23.739925159    -0.017042389    -0.100427460     0.489513925
   42     1.391508999    38.546128016    23.188959209    -0.013687119    -0.005939807     0.499777332
   43     4.929319727    37.130818510    25.333350220    -0.016012968    -0.032077347     0.498712972
   44     9.869714935    34.130159899    24.616689054     0.007395572    -0.034304349     0.498766997
   45     5.209145745    39.646867349    24.792514305    -0.026575189    -0.019589376     0.498908825
   46     8.301172155    31.325370990    22.092255650    -0.007294631    -0.085159666     0.492640457
   47     7.725636185    31.895104729    29.657020380    -0.027506878    -0.023239248     0.498701623
   48    10.930551291    33.551954596    20.578122471    -0.013300688    -0.014855812     0.499602238
   49     4.170017729    35.404113203    21.668017299     0.041188493    -0.006232021    -0.498261648
   50     7.324777753    39.478199539    26.789071210    -0.036727140    -0.006031264     0.498612817
   51    10.601747857    35.911811918    20.717456095    -0.018458846    -0.011912120     0.499517139
   52    10.309200427    39.674193675    21.418634724    -0.046770622    -0.023014160     0.497275434
   53     9.578427090    34.354355295    29.341647530    -0.017314027    -0.017121575     0.499406724
   54     5.737539322    32.461064583    29.653065269    -0.023446682    -0.050178529     0.496922900
   55     4.183762468    40.129373810    22.554471803    -0.028856743    -0.020325227     0.498752618
   56     7.294904001    34.121995461    29.518524516    -0.021826591    -0.019119771     0.499157324
   57     6.184570520    36.048163165    27.148293172    -0.022060795    -0.023081205     0.498979538
   58     5.057530865    30.336294980    26.938622843    -0.024773353    -0.019340752     0.499011239
   59     6.709260906    31.815324754    27.653736555    -0.023438561    -0.031662509     0.498445704
   60     9.814566825    36.494639914    28.899357804    -0.022083935    -0.019236078     0.499141536
   61     9.979444129    31.868136248    29.802767630    -0.025027661    -0.051157334     0.496745955
   62     9.811213325    37.384046710    22.236929698    -0.013146220    -0.017422077     0.499523421
   63     3.073792628    37.917678228    29.430765656    -0.027730929    -0.021545398     0.498765267
   64     4.413752112    39.239370382    20.497584495    -0.029877566    -0.014843485     0.498885760
   65     5.540697822    33.965994297    23.344537066    -0.105777744    -0.026458621     0.487966198
   66     1.939007398    36.847741748    27.937893014    -0.032548784    -0.020753353     0.498507648
   67     8.769990864    32.876645807    28.049689118    -0.010651771    -0.025785562     0.499221038
   68     1.933031670    32.407131917    25.149057050    -0.044826140    -0.237039554     0.437953042
   21    12.826894071    36.620441975    24.215559795     0.023308710    -0.000522929    -0.499456135
   22    20.159199741    32.004064430    26.255486515    -0.044294329    -0.149119178     0.475185736
   23    20.043273323    39.531390141    27.120326146    -0.027777074    -0.016557612     0.498953184
   24    14.990063897    34.419103789    27.948437567    -0.009935183     0.004374970     0.499882138
   25    16.268722707    30.662954072    21.233453638    -0.019214440    -0.000603224     0.499630305
   26    12.827948664    31.245331955    27.770598845     0.000132959    -0.404190823    -0.294329342
   27    11.492571841    33.245590432    23.058802271     0.028846394     0.020322766     0.498753317
   28    18.485732559    35.684404179    21.328081135     0.000240207     0.002278767     0.499994749
   29    19.198362380    38.337217082    25.407595961    -0.029389947    -0.019739043     0.498745026
   30    17.968329110    39.250878462    22.104641235    -0.013365615    -0.016857261     0.499536979
   31    16.480698171    40.214629154    29.119032450    -0.011651100    -0.009100911     0.499781377
   32    18.607573060    30.865616391    28.347960953    -0.014451103    -0.008898893     0.499711892
   33    11.670796392    38.239942979    25.750178338    -0.022380042    -0.031211440     0.498522798
   34    21.268100363    33.224708940    28.468410812    -0.081000161    -0.423730076     0.252768266
   35    18.640389574    37.826353205    20.644623312    -0.003461724    -0.001945207     0.499984232
   36    18.154157943    32.813113081    25.978694019    -0.019950524    -0.103303834     0.488804966
   37    18.659717304    35.425992966    27.915405278    -0.013617561    -0.003652535     0.499801181
   38    16.744765494    36.343199737    24.614544024    -0.003408977    -0.021055932     0.499544819
   39    18.931272194    36.038540450    24.040070015     0.013746371    -0.009209675     0.499726144
   40    13.697682626    39.057296198    26.587034916    -0.019020142    -0.013157762     0.499464821
   41    17.197054670    32.249200762    24.028012029    -0.011036845    -0.082603355     0.493005957
   42    11.481164949    38.690788228    23.477046079    -0.017132868    -0.013324861     0.499528691
   43    15.018975677    37.275478722    25.621437090    -0.008728125    -0.018711042     0.499573535
   44    19.959370885    34.274820111    24.904775923     0.018065810    -0.017712382     0.499359488
   45    15.298801694    39.791527561    25.080601175    -0.023189088    -0.010144534     0.499358944
   46    18.390828105    31.470031201    22.380342520    -0.000321079    -0.067626408     0.495405456
   47    17.815292135    32.039764941    29.945107249    -0.014083635    -0.004518663     0.499781185
   48    21.020207241    33.696614808    20.866209341    -0.000646270     0.001994093     0.499995606
   49    14.259673679    35.548773415    21.956104168     0.037912775    -0.018676644    -0.498210603
   50    17.414433703    39.622859751    27.077158080    -0.031987056     0.007124463     0.498924914
   51    20.691403807    36.056472129    21.005542965    -0.008483355     0.006360458     0.499887565
   52    20.398856377    39.818853887    21.706721593    -0.038126301    -0.004361964     0.498525183
   53    19.668083040    34.499015506    29.629734400    -0.004253562     0.002237843     0.499976899
   54    15.827195272    32.605724794    29.941152138    -0.008844190    -0.032725714     0.498849484
   55    14.273418418    40.274034022    22.842558672    -0.026469809    -0.011783634     0.499159789
   56    17.384559951    34.266655672    29.806611385    -0.009152793    -0.000146517     0.499916198
   57    16.274226469    36.192823376    27.436380041    -0.010539367    -0.007484102     0.499832882
   58    15.147186815    30.480955192    27.226709713    -0.016587129    -0.003283372     0.499714005
   59    16.798916856    31.959984966    27.941823425    -0.014877833    -0.013229648     0.499603469
   60    19.904222775    36.639300126    29.187444674    -0.010591181    -0.000419810     0.499887638
   61    20.069100079    32.012796460    30.090854500    -0.012617175    -0.031923221     0.498820323
   62    19.900869274    37.528706922    22.525016568    -0.002636775     0.001114889     0.499991804
   63    13.163448578    38.062338439    29.718852526    -0.028254575    -0.019415530     0.498823332
   64    14.503408062    39.384030593    20.785671365    -0.028507930    -0.007591551     0.499128907
   65    15.630353772    34.110654509    23.632623936    -0.104627255     0.001601018     0.488927985
   66    12.028663347    36.992401960    28.225979883    -0.034830097    -0.023038015     0.498253062
   67    18.859646814    33.021306019    28.337775987     0.003275242    -0.007019944     0.499939990
   68    12.022687620    32.551792129    25.437143920    -0.063571796    -0.242133416     0.432816399
   21    22.916550021    36.765102187    24.503646665     0.010129697    -0.012883789    -0.499731325
   22    30.248855691    32.148724641    26.543573385    -0.018284306    -0.150012651     0.476615032
   23    30.132929273    39.676050353    27.408413016    -0.018665414    -0.014412773     0.499443565
   24    25.079719847    34.563764001    28.236524437     0.000355892     0.010001017     0.499899843
   25    26.358378657    30.807614283    21.521540508    -0.012775955     0.000481006     0.499836517
   26    22.917604614    31.389992166    28.058685715    -0.078585710    -0.397758449    -0.292596142
   27    21.582227791    33.390250644    23.346889140     0.046766398     0.031623852     0.496802613
   28    28.575388509    35.829064391    21.616168004     0.006163217     0.002407212     0.499956218
   29    29.288018330    38.481877293    25.695682830    -0.022356495    -0.015395149     0.499262633
   30    28.057985060    39.395538673    22.392728105    -0.007834844    -0.016132838     0.499678243
   31    26.570354121    40.359289366    29.407119320    -0.000070775    -0.001362891     0.499998138
   32    28.697229010    31.010276603    28.636047822    -0.001858718    -0.007486543     0.499940493
   33    21.760452341    38.384603190    26.038265207    -0.009376247    -0.016168529     0.499650543
   34    31.357756312    33.369369151    28.756497682    -0.003495169    -0.428058272     0.258367760
   35    28.730045524    37.971013417    20.932710181     0.000914618    -0.003968316     0.499983416
   36    28.243813893    32.957773293    26.266780889    -0.002635232    -0.102760128     0.489319335
   37    28.749373254    35.570653177    28.203492148    -0.003764726     0.001315462     0.499984096
   38    26.834421443    36.487859948    24.902630894     0.007327042    -0.012544799     0.499788898
   39    29.020928144    36.183200662    24.328156885     0.019219202    -0.003828635     0.499615816
   40    23.787338576    39.201956410    26.875121785    -0.005344095     0.001140983     0.499970138
   41    27.286710619    32.393860974    24.316098898     0.003604361    -0.082465883     0.493139318
   42    21.570820899    38.835448440    23.765132948    -0.005568168     0.003788513     0.499954641
   43    25.108631626    37.420138934    25.909523959     0.003400674    -0.009205143     0.499903691
   44    30.049026835    34.419480322    25.192862793     0.022774590    -0.014691173     0.499264947
   45    25.388457644    39.936187772    25.368688044    -0.009888843     0.002786572     0.499894435
   46    28.480484055    31.614691413    22.668429389     0.012353212    -0.067965640     0.495205079
   47    27.904948085    32.184425152    30.233194119     0.000737774    -0.002140404     0.499994874
   48    31.109863191    33.841275019    21.154296210     0.000147068     0.000572700     0.499999650
   49    24.349329628    35.693433627    22.244191038     0.027157321    -0.027434871    -0.498507580
   50    27.504089653    39.767519962    27.365244949    -0.020124435     0.013954956     0.499399906
   51    30.781059756    36.201132341    21.293629834    -0.005180992     0.006042157     0.499936646
   52    30.488512326    39.963514099    21.994808463    -0.032230702    -0.005000756     0.498935040
   53    29.757738990    34.643675718    29.917821269     0.002289529     0.006088230     0.499957690
   54    25.916851222    32.750385006    30.229239008     0.002747555    -0.033767342     0.498850897
   55    24.363074368    40.418694233    23.130645542    -0.013850314    -0.000740650     0.499807583
   56    27.474215901    34.411315884    30.094698255     0.000639814     0.002149727     0.499994969
   57    26.363882419    36.337483588    27.724466911     0.000328989    -0.000553444     0.499999585
   58    25.236842765    30.625615403    27.514796582    -0.000992391     0.001139432     0.499997717
   59    26.888572806    32.104645177    28.229910294    -0.001640521    -0.011069796     0.499874753
   60    29.993878725    36.783960337    29.475531543    -0.001479486     0.003473687     0.499985744
   61    30.158756029    32.157456671    30.378941370     0.004555057    -0.029939869     0.499082013
   62    29.990525224    37.673367133    22.813103437     0.000269645     0.001684876     0.499997088
   63    23.253104528    38.206998651    30.006939395    -0.014581750    -0.003879247     0.499772272
   64    24.593064012    39.528690805    21.073758234    -0.016103115     0.003633706     0.499727412
   65    25.720009722    34.255314721    23.920710805    -0.077261475     0.012509027     0.493836196
   66    22.118319297    37.137062171    28.514066753    -0.021713031    -0.006726719     0.499483028
   67    28.949302764    33.165966230    28.625862857     0.012609724    -0.005062283     0.499815334
   68    22.112343570    32.696452340    25.725230790    -0.069780438    -0.224522722     0.441271161
   21    33.006205971    36.909762398    24.791733534     0.012700601    -0.010814343    -0.499721667
   22    40.338511641    32.293384853    26.831660255    -0.030786007    -0.159838996     0.472761797
   23    40.222585223    39.820710565    27.696499886    -0.028532991    -0.022034665     0.498698648
   24    35.169375796    34.708424213    28.524611306    -0.013524682    -0.000197443     0.499817011
   25    36.448034606    30.952274495    21.809627377    -0.020666589    -0.007944827     0.499509531
   26    33.007260564    31.534652378    28.346772585     0.039519154    -0.405506589    -0.289832094
   27    31.671883741    33.534910855    23.634976010     0.041784025     0.033356878     0.497133195
   28    38.665044458    35.973724602    21.904254874    -0.003670150    -0.003933063     0.499971060
   29    39.377674280    38.626537505    25.983769700    -0.030399542    -0.024227611     0.498486600
   30    38.147641010    39.540198885    22.680814974    -0.013820764    -0.024270049     0.499219342
   31    36.660010071    40.503949577    29.695206190    -0.008427787    -0.008114948     0.499863101
   32    38.786884960    31.154936814    28.924134692    -0.018158634    -0.017556850     0.499361613
   33    31.850108291    38.529263402    26.326352077    -0.011572624    -0.020029008     0.499464627
   34    41.447412262    33.514029363    29.044584552    -0.009495292    -0.433034433     0.249781943
   35    38.819701474    38.115673629    21.220797051    -0.005692258    -0.011653223     0.499831772
   36    38.333469842    33.102433504    26.554867758    -0.013390202    -0.112812117     0.486923124
   37    38.839029203    35.715313389    28.491579017    -0.019264217    -0.011606844     0.499493915
   38    36.924077393    36.632520160    25.190717763    -0.003695896    -0.024752362     0.499373268
   39    39.110584094    36.327860874    24.616243754     0.010361583    -0.016054043     0.499634772
   40    33.876994526    39.346616621    27.163208655    -0.011913569    -0.008145003     0.499791682
   41    37.376366569    32.538521185    24.604185768    -0.005235594    -0.092233575     0.491391449
   42    31.660476849    38.980108651    24.053219818    -0.004058046     0.003376908     0.499972128
   43    35.198287576    37.564799145    26.197610829    -0.007193654    -0.020727112     0.499518406
   44    40.138682784    34.564140534    25.480949662     0.015174344    -0.023288443     0.499226790
   45    35.478113594    40.080847984    25.656774914    -0.018124428    -0.007181758     0.499619783
   46    38.570140004    31.759351625    22.956516259     0.004527027    -0.077050712     0.494006775
   47    37.994604035    32.329085364    30.521280988    -0.018520913    -0.013995409     0.499460814
   48    41.199519141    33.985935231    21.442383080    -0.008047106    -0.005070489     0.499909526
   49    34.438985578    35.838093838    22.532277908     0.004111767    -0.021978927    -0.499499770
   50    37.593745603    39.912180174    27.653331819    -0.029481523     0.006338773     0.499089831
   51    40.870715706    36.345792553    21.581716704    -0.013442179    -0.000939030     0.499818393
   52    40.578168276    40.108174310    22.282895332    -0.040618154    -0.012556452     0.498189222
   53    39.847394940    34.788335930    30.205908139    -0.012805818    -0.003880897     0.499820918
   54    36.006507172    32.895045218    30.517325877    -0.013973140    -0.041317190     0.498094008
   55    34.452730317    40.563354445    23.418732412    -0.020973957    -0.007662607     0.499501129
   56    37.563871851    34.555976096    30.382785124    -0.014241670    -0.008785036     0.499719920
   57    36.453538369    36.482143800    28.012553781    -0.013929550    -0.011953331     0.499662972
   58    35.326498714    30.770275615    27.802883452    -0.016345094    -0.010809418     0.499615847
   59    36.978228755    32.249305389    28.517997164    -0.015399366    -0.022608331     0.499251162
   60    40.083534675    36.928620549    29.763618413    -0.016763495    -0.008907294     0.499639515
   61    40.248411979    32.302116883    30.667028239    -0.015773572    -0.041402935     0.498033123
   62    40.080181174    37.818027345    23.101190307    -0.007657745    -0.007344789     0.499887400
   63    33.342760478    38.351658863    30.295026265    -0.015383656    -0.006209350     0.499724711
   64    34.682719962    39.673351017    21.361845104    -0.022036304    -0.002534819     0.499507734
   65    35.809665671    34.399974932    24.208797675    -0.076890584    -0.041940316     0.492269081
   66    32.207975247    37.281722383    28.802153622    -0.019217776    -0.007008004     0.499581390
   67    39.038958714    33.310626442    28.913949727    -0.002609823    -0.015950990     0.499738686
   68    32.201999520    32.841112552    26.013317659    -0.032245685    -0.227949960     0.443845729
   21     2.618882879     6.432636937    33.847582017     0.023958377    -0.001146850    -0.499424350
   22     9.951188550     1.816259391    35.887508737    -0.041050025    -0.171629917     0.467822688
   23     9.835262131     9.343585103    36.752348368    -0.036308400    -0.036835322     0.497317664
   24     4.782052705     4.231298751    37.580459788    -0.021535964    -0.016062375     0.499277681
   25     6.060711515     0.475149034    30.865475860    -0.030479302    -0.019746100     0.498679360
   26     2.619937472     1.057526916    37.402621067     0.042136055    -0.409286109    -0.284094058
   27     1.284560649     3.057785394    32.690824492     0.031603871     0.026361659     0.498303380
   28     8.277721367     5.496599141    30.960103356    -0.005913973    -0.024425432     0.499368024
   29     8.990351188     8.149412043    35.039618182    -0.038407712    -0.040674756     0.496860556
   30     7.760317918     9.063073424    31.736663457    -0.020563452    -0.041470166     0.497852759
   31     6.272686979    10.026824116    38.751054672    -0.017273051    -0.027026388     0.498970155
   32     8.399561868     0.677811353    37.979983174    -0.025423151    -0.029655516     0.498471879
   33     1.462785200     8.052137940    35.382200559    -0.022762373    -0.031813446     0.498467430
   34    11.060089171     3.036903901    38.100433034    -0.022043845    -0.439929101     0.236593438
   35     8.432378382     7.638548167    30.276645533    -0.011763763    -0.028498474     0.499048546
   36     7.946146751     2.625308043    35.610716241    -0.023237952    -0.126176005     0.483259364
   37     8.451706112     5.238187928    37.547427500    -0.025850871    -0.026428009     0.498631420
   38     6.536754302     6.155394698    34.246566246    -0.012632631    -0.039765286     0.498256097
   39     8.723261002     5.850735412    33.672092237     0.002957442    -0.032142535     0.498957023
   40     3.489671434     8.869491160    36.219057137    -0.022186220    -0.022256883     0.499011426
   41     6.989043478     2.061395724    33.660034250    -0.015912352    -0.105999339     0.488375815
   42     1.273153757     8.502983190    33.109068300    -0.014992984    -0.006081493     0.499738157
   43     4.810964485     7.087673684    35.253459311    -0.016584385    -0.035428659     0.498467420
   44     9.751359693     4.087015073    34.536798145     0.006832039    -0.039155957     0.498417630
   45     5.090790502     9.603722522    34.712623396    -0.027439048    -0.022636577     0.498733079
   46     8.182816913     1.282226163    32.012364741    -0.006470086    -0.090996009     0.491607429
   47     7.607280943     1.851959902    39.577129471    -0.026307899    -0.026126426     0.498623409
   48    10.812196049     3.508809770    30.498231562    -0.014238350    -0.022491111     0.499290917
   49     4.051662487     5.360968377    31.588126390     0.051671650    -0.011201094    -0.497196718
   50     7.206422511     9.435054713    36.709180301    -0.037944901    -0.010216684     0.498453412
   51    10.483392615     5.868667091    30.637565186    -0.018675156    -0.019060151     0.499287441
   52    10.190845185     9.631048849    31.338743815    -0.047144609    -0.029085486     0.496921946
   53     9.460071848     4.311210468    39.261756621    -0.017910810    -0.021251667     0.499226972
   54     5.619184080     2.417919756    39.573174360    -0.023480218    -0.053665327     0.496556857
   55     4.065407226    10.086228983    32.474580894    -0.030106691    -0.023269746     0.498550004
   56     7.176548759     4.078850634    39.438633607    -0.020643496    -0.023368211     0.499026826
   57     6.066215277     6.005018338    37.068402263    -0.022317227    -0.026952443     0.498774004
   58     4.939175623     0.293150153    36.858731934    -0.024318143    -0.022074407     0.498920183
   59     6.590905664     1.772179927    37.573845646    -0.023064622    -0.034769323     0.498256076
   60     9.696211583     6.451495087    38.819466895    -0.023070806    -0.023379030     0.498919992
   61     9.861088887     1.824991422    39.722876722    -0.023059605    -0.054308756     0.496506610
   62     9.692858082     7.340901883    32.157038789    -0.013927294    -0.023787417     0.499239611
   63     2.955437386     7.874533401    39.350874747    -0.028245810    -0.021694608     0.498729905
   64     4.295396870     9.196225555    30.417693586    -0.031076520    -0.017556763     0.498724383
   65     5.422342580     3.922849471    33.264646157    -0.165042747    -0.074595955     0.466043276
   66     1.820652155     6.804596922    37.858002105    -0.033215707    -0.020804867     0.498461507
   67     8.651635622     2.833500981    37.969798209    -0.010399515    -0.029664912     0.499010865
   68     1.814676428     2.363987091    35.069166142    -0.049505826    -0.234719823     0.438697821
   21    12.708538829     6.577297148    34.135668886     0.025964939     0.005771312    -0.499292013
   22    20.040844499     1.960919603    36.175595606    -0.045174633    -0.152004249     0.474187685
   23    19.924918081     9.488245315    37.040435238    -0.032432520    -0.024406995     0.498349707
   24    14.871708655     4.375958963    37.868546658    -0.014321316     0.000688917     0.499794383
   25    16.150367465     0.619809245    31.153562729    -0.025372190    -0.004538447     0.499335213
   26    12.709593422     1.202187128    37.690707937     0.018487891    -0.400748466    -0.298427319
   27    11.374216599     3.202445605    32.978911362     0.025531609     0.015570753     0.499104887
   28    18.367377317     5.641259352    31.248190226    -0.000280104    -0.000019913     0.499999921
   29    19.080007138     8.294072255    35.327705052    -0.034495543    -0.027320630     0.498059877
   30    17.849973868     9.207733635    32.024750326    -0.016013255    -0.025622021     0.499086253
   31    16.362342929    10.171484328    39.039141541    -0.015247960    -0.016774838     0.499485840
   32    18.489217818     0.822471564    38.268070044    -0.018976446    -0.012188078     0.499491086
   33    11.552441149     8.196798152    35.670287429    -0.024180545    -0.037151128     0.498031219
   34    21.149745120     3.181564113    38.388519904    -0.069822248    -0.426601260     0.251269216
   35    18.522034332     7.783208379    30.564732403    -0.005745780    -0.009324337     0.499880028
   36    18.035802701     2.769968254    35.898803110    -0.021478640    -0.106680563     0.488014268
   37    18.541362062     5.382848139    37.835514369    -0.018812909    -0.007404259     0.499591084
   38    16.626410251     6.300054910    34.534653115    -0.005603964    -0.026374778     0.499272437
   39    18.812916952     5.995395624    33.960179106     0.010977773    -0.014271657     0.499675703
   40    13.579327384     9.014151371    36.507144007    -0.021408419    -0.019629725     0.499155641
   41    17.078699427     2.206055935    33.948121120    -0.013257674    -0.086100696     0.492352419
   42    11.362809707     8.647643401    33.397155170    -0.018312537    -0.019280698     0.499292405
   43    14.900620434     7.232333895    35.541546181    -0.010526208    -0.024466705     0.499290075
   44    19.841015643     4.231675284    34.824885014     0.016753160    -0.020547054     0.499296656
   45    15.180446452     9.748382734    35.000710266    -0.025331084    -0.017202070     0.499061544
   46    18.272472863     1.426886375    32.300451611    -0.003573692    -0.070982958     0.494922871
   47    17.696936893     1.996620114    39.865216340    -0.020209800    -0.007143687     0.499540320
   48    20.901851999     3.653469981    30.786318432    -0.004622574    -0.000360752     0.499978501
   49    14.141318436     5.505628588    31.876213260     0.044771387    -0.009640957    -0.497898157
   50    17.296078461     9.579714924    36.997267171    -0.035367790    -0.000181922     0.498747518
   51    20.573048564     6.013327303    30.925652056    -0.012539534     0.000627090     0.499842342
   52    20.280501134     9.775709060    31.626830684    -0.042463521    -0.013076864     0.498021932
   53    19.549727798     4.455870680    39.549843491    -0.009636795     0.000911134     0.499906293
   54    15.708840030     2.562579968    39.861261229    -0.014147021    -0.036002609     0.498501428
   55    14.155063176    10.230889195    32.762667764    -0.029323275    -0.018956274     0.498779315
   56    17.266204709     4.223510846    39.726720476    -0.014285157    -0.003301004     0.499784991
   57    16.155871227     6.149678550    37.356489133    -0.014835707    -0.011213166     0.499654047
   58    15.028831573     0.437810365    37.146818804    -0.018997631    -0.008893277     0.499559806
   59    16.680561614     1.916840139    37.861932516    -0.017592335    -0.019018050     0.499328372
   60    19.785867533     6.596155299    39.107553765    -0.015798973    -0.004196539     0.499732710
   61    19.950744837     1.969651633    40.010963591    -0.017367890    -0.033598235     0.498567463
   62    19.782514032     7.485562095    32.445125659    -0.007570508    -0.005373165     0.499913809
   63    13.045093336     8.019193613    39.638961617    -0.030261656    -0.025077127     0.498452977
   64    14.385052820     9.340885767    30.705780456    -0.031118570    -0.014916000     0.498807726
   65    15.511998530     4.067509683    33.552733027    -0.094355468    -0.014761004     0.490794416
   66    11.910308105     6.949257133    38.146088974    -0.036464968    -0.028114506     0.497875367
   67    18.741291572     2.978161192    38.257885079    -0.003652392    -0.009802772     0.499890554
   68    11.904332378     2.508647302    35.357253011    -0.056019852    -0.247387076     0.430884452
   21    22.798194779     6.721957360    34.423755756     0.017241190    -0.007901619    -0.499640176
   22    30.130500449     2.105579815    36.463682476    -0.002451444    -0.139222257     0.480219901
   23    30.014574031     9.632905526    37.328522107    -0.020496540    -0.015792429     0.499330042
   24    24.961364604     4.520619174    38.156633528    -0.004622817     0.011847420     0.499838242
   25    26.240023414     0.764469457    31.441649599    -0.012748239     0.003240337     0.499826953
   26    22.799249372     1.346847340    37.978794806    -0.047370608    -0.404813858    -0.289623490
   27    21.463872549     3.347105817    33.266998231     0.042267993     0.029931602     0.497310281
   28    28.457033266     5.785919564    31.536277096     0.003320159     0.000118010     0.499988962
   29    29.169663088     8.438732467    35.615791922    -0.021678000    -0.016838902     0.499245947
   30    27.939629818     9.352393847    32.312837196    -0.010011508    -0.019057056     0.499536383
   31    26.451998879    10.316144539    39.327228411     0.000466979    -0.000153945     0.499999758
   32    28.578873768     0.967131776    38.556156913    -0.000356179     0.000347563     0.499999752
   33    21.642097099     8.341458364    35.958374298    -0.016366966    -0.021637715     0.499263389
   34    31.239401070     3.326224325    38.676606773     0.011386625    -0.415665109     0.277656013
   35    28.611690282     7.927868590    30.852819272    -0.002056758    -0.004830354     0.499972437
   36    28.125458650     2.914628466    36.186889980     0.001949227    -0.094510245     0.490982703
   37    28.631018011     5.527508351    38.123601239    -0.010065616     0.003167951     0.499888635
   38    26.716066201     6.444715122    34.822739985     0.000027650    -0.017561695     0.499691491
   39    28.902572902     6.140055835    34.248265976     0.008657117    -0.012175844     0.499776753
   40    23.668983334     9.158811583    36.795230876    -0.011895706    -0.004905813     0.499834398
   41    27.168355377     2.350716147    34.236207989     0.006684034    -0.074052006     0.494440718
   42    21.452465657     8.792303613    33.685242040    -0.011877691    -0.002595400     0.499852162
   43    24.990276384     7.376994107    35.829633050    -0.005144342    -0.013306664     0.499796427
   44    29.930671592     4.376335496    35.112971884     0.013682010    -0.018349574     0.499475821
   45    25.270102402     9.893042946    35.288797136    -0.016297432    -0.002935412     0.499725702
   46    28.362128812     1.571546586    32.588538481     0.018471904    -0.059546280     0.496097802
   47    27.786592843     2.141280326    40.153303210    -0.004728139     0.001887054     0.499974083
   48    30.991507949     3.798130193    31.074405302    -0.000081873     0.001477145     0.499997811
   49    24.230974386     5.650288800    32.164300129     0.030056579    -0.014258083    -0.498892082
   50    27.385734411     9.724375136    37.285354040    -0.021700714     0.013292393     0.499351971
   51    30.662704514     6.157987514    31.213738926    -0.007120337     0.005259623     0.499921631
   52    30.370157084     9.920369272    31.914917554    -0.035735811    -0.007710797     0.498661704
   53    29.639383748     4.600530891    39.837930360    -0.003151530     0.007153888     0.499938886
   54    25.798495980     2.707240179    40.149348099     0.000035285    -0.023237821     0.499459711
   55    24.244719125    10.375549407    33.050754633    -0.020276050    -0.006389044     0.499547857
   56    27.355860659     4.368171057    40.014807346    -0.001233145     0.006343338     0.499958240
   57    26.245527177     6.294338761    37.644576002    -0.006142331     0.000503274     0.499962017
   58    25.118487522     0.582470577    37.434905673    -0.000415403     0.005661176     0.499967777
   59    26.770217563     2.061500351    38.150019386     0.002694032    -0.003189318     0.499982570
   60    29.875523483     6.740815511    39.395640635    -0.009262985     0.003283438     0.499903407
   61    30.040400787     2.114311845    40.299050461    -0.000157620    -0.026729132     0.499285017
   62    29.872169982     7.630222307    32.733212529    -0.001176104     0.001058474     0.499997496
   63    23.134749286     8.163853824    39.927048486    -0.019804804    -0.008175887     0.499540714
   64    24.474708770     9.485545978    30.993867325    -0.022474285    -0.002123319     0.499490138
   65    25.601654479     4.212169894    33.840819896     0.001772327    -0.002121748     0.499992357
   66    21.999964055     7.093917345    38.434175844    -0.027178251    -0.010655347     0.499147079
   67    28.830947522     3.122821404    38.545971948     0.009025243     0.000890707     0.499917745
   68    21.993988328     2.653307514    35.645339881    -0.068417172    -0.227555284     0.439929180
   21    32.887850729     6.866617572    34.711842625     0.013776469    -0.008279640    -0.499741590
   22    40.220156399     2.250240026    36.751769346    -0.031328534    -0.157939843     0.473364056
   23    40.104229981     9.777565738    37.616608977    -0.030486858    -0.024457239     0.498470054
   24    35.051020554     4.665279386    38.444720397    -0.013283175     0.002080102     0.499819198
   25    36.329679364     0.909129668    31.729736468    -0.022238900    -0.001912475     0.499501525
   26    32.888905321     1.491507551    38.266881676    -0.035781850    -0.411595907    -0.281617592
   27    31.553528499     3.491766029    33.555085101     0.028170576     0.029911001     0.498308891
   28    38.546689216     5.930579776    31.824363965     0.001116704    -0.000439838     0.499998560
   29    39.259319038     8.583392678    35.903878791    -0.032017567    -0.025143301     0.498339934
   30    38.029285767     9.497054058    32.600924065    -0.014122803    -0.023766959     0.499235093
   31    36.541654829    10.460804751    39.615315281    -0.010735794    -0.012726761     0.499722695
   32    38.668529717     1.111791988    38.844243783    -0.015552160    -0.014177616     0.499556929
   33    31.731753049     8.486118575    36.246461168    -0.013895249    -0.021776054     0.499332280
   34    41.329057020     3.470884536    38.964693643    -0.022144265    -0.432889632     0.249231213
   35    38.701346232     8.072528802    31.140906142    -0.005675863    -0.009394329     0.499879517
   36    38.215114600     3.059288678    36.474976850    -0.009656728    -0.111021998     0.487422675
   37    38.720673961     5.672168562    38.411688108    -0.019664074    -0.009623570     0.499520481
   38    36.805722151     6.589375333    35.110826855    -0.005855901    -0.025055288     0.499337502
   39    38.992228851     6.284716047    34.536352845     0.007480911    -0.016715751     0.499664507
   40    33.758639284     9.303471795    37.083317746    -0.014725362    -0.009625550     0.499690417
   41    37.258011327     2.495376359    34.524294859     0.000617841    -0.089536591     0.491917490
   42    31.542121607     8.936963825    33.973328909    -0.005788756     0.002199932     0.499961649
   43    35.079932334     7.521654319    36.117719920    -0.009264942    -0.021167094     0.499465830
   44    40.020327542     4.520995708    35.401058754     0.007983407    -0.026088851     0.499255082
   45    35.359758352    10.037703157    35.576884005    -0.020339996    -0.008901837     0.499506799
   46    38.451784762     1.716206798    32.876625350     0.010279436    -0.073816962     0.494414188
   47    37.876248792     2.285940537    40.441390080    -0.016343598    -0.008496380     0.499660583
   48    41.081163898     3.942790405    31.362492171    -0.007351686     0.000963136     0.499945022
   49    34.320630336     5.794949012    32.452386999     0.027712230    -0.019515218    -0.498849866
   50    37.475390360     9.869035348    37.573440910    -0.031294144     0.003506805     0.499007394
   51    40.752360464     6.302647726    31.501825795    -0.013270877     0.000427105     0.499823670
   52    40.459813034    10.065029484    32.203004424    -0.041564426    -0.012067796     0.498123245
   53    39.729039697     4.745191103    40.126017230    -0.011897411    -0.001232777     0.499856911
   54    35.888151929     2.851900391    40.437434969    -0.013092455    -0.036279581     0.498510160
   55    34.334375075    10.520209618    33.338841503    -0.022757856    -0.009649295     0.499388597
   56    37.445516608     4.512831269    40.302894216    -0.012223311    -0.005368997     0.499821733
   57    36.335183127     6.438998973    37.932662872    -0.014260225    -0.010419960     0.499687973
   58    35.208143472     0.727130788    37.722992543    -0.012966390    -0.002432413     0.499825926
   59    36.859873513     2.206160562    38.438106255    -0.014107766    -0.015397376     0.499563701
   60    39.965179432     6.885475722    39.683727504    -0.017823912    -0.008547548     0.499609095
   61    40.130056736     2.258972057    40.587137330    -0.013221758    -0.036129039     0.498517680
   62    39.961825932     7.774882518    33.021299398    -0.009004286    -0.007137629     0.499867960
   63    33.224405235     8.308514036    40.215135356    -0.019728567    -0.008548543     0.499537492
   64    34.564364719     9.630206190    31.281954195    -0.023893808    -0.004636558     0.499407237
   65    35.691310429     4.356830106    34.128906766    -0.060412226     0.013640684     0.496149468
   66    32.089620005     7.238577557    38.722262713    -0.024570889    -0.008416603     0.499324977
   67    38.920603471     3.267481616    38.834058818    -0.000693749    -0.012471292     0.499843961
   68    32.083644278     2.797967725    35.933426750    -0.009937369    -0.216065433     0.450795938
   21     2.753958350    16.457730458    33.878207440     0.022516024     0.005484903    -0.499462656
   22    10.086264021    11.841352912    35.918134160    -0.040428385    -0.174367357     0.466863546
   23     9.970337602    19.368678624    36.782973792    -0.035464316    -0.037046450     0.497362889
   24     4.917128176    14.256392272    37.611085212    -0.021859296    -0.020026439     0.499120339
   25     6.195786986    10.500242555    30.896101283    -0.031288961    -0.022450655     0.498514763
   26     2.755012943    11.082620437    37.433246491     0.071296067    -0.391674378    -0.302502979
   27     1.419636120    13.082878915    32.721449916     0.029113929     0.027328834     0.498402963
   28     8.412796838    15.521692662    30.990728780    -0.006188141    -0.026733199     0.499246475
   29     9.125426659    18.174505564    35.070243606    -0.038348208    -0.040348970     0.496891714
   30     7.895393389    19.088166945    31.767288880    -0.020469598    -0.042544216     0.497765994
   31     6.407762451    20.051917637    38.781680095    -0.016251694    -0.027363878     0.498986073
   32     8.534637339    10.702904874    38.010608598    -0.026710360    -0.033009267     0.498193682
   33     1.597860671    18.077231461    35.412825983    -0.021840259    -0.036547888     0.498183957
   34    11.195164642    13.061997422    38.131058457    -0.018711614    -0.440999690     0.234881137
   35     8.567453853    17.663641688    30.307270957    -0.012346340    -0.031599859     0.498847689
   36     8.081222222    12.650401564    35.641341664    -0.022071411    -0.128886716     0.482598246
   37     8.586781583    15.263281449    37.578052923    -0.026024306    -0.029845009     0.498429545
   38     6.671829773    16.180488219    34.277191669    -0.013105616    -0.043184649     0.497959164
   39     8.858336473    15.875828933    33.702717660     0.003078537    -0.035344189     0.498739723
   40     3.624746905    18.894584681    36.249682561    -0.022692463    -0.024168378     0.498899731
   41     7.124118949    12.086489245    33.690659674    -0.014103097    -0.108530429     0.487875239
   42     1.408229228    18.528076711    33.139693724    -0.014698616    -0.011831616     0.499643837
   43     4.946039956    17.112767205    35.284084735    -0.017069406    -0.038824773     0.498198025
   44     9.886435164    14.112108594    34.567423568     0.006996292    -0.042023646     0.498181759
   45     5.225865974    19.628816043    34.743248820    -0.027575955    -0.024555524     0.498634729
   46     8.317892384    11.307319684    32.042990165    -0.005404502    -0.093562733     0.491138276
   47     7.742356414    11.877053423    39.607754894    -0.027707513    -0.029423673     0.498363864
   48    10.947271520    13.533903291    30.528856986    -0.015268439    -0.025218152     0.499130163
   49     4.186737958    15.386061898    31.618751814     0.041018051    -0.009628186    -0.498221655
   50     7.341497982    19.460148234    36.739805725    -0.037217642    -0.010290508     0.498506723
   51    10.618468086    15.893760612    30.668190610    -0.019448069    -0.021771179     0.499147061
   52    10.325920656    19.656142370    31.369369238    -0.047600938    -0.029944677     0.496827402
   53     9.595147319    14.336303989    39.292382045    -0.018855254    -0.024193178     0.499058283
   54     5.754259551    12.443013277    39.603799783    -0.024260803    -0.057574767     0.496081203
   55     4.200482697    20.111322504    32.505206318    -0.030472271    -0.024558478     0.498465969
   56     7.311624230    14.103944155    39.469259030    -0.022124641    -0.026420415     0.498811048
   57     6.201290749    16.030111859    37.099027686    -0.022169409    -0.031209361     0.498532339
   58     5.074251094    10.318243674    36.889357358    -0.026110356    -0.025037287     0.498689667
   59     6.725981135    11.797273448    37.604471070    -0.024548881    -0.037879023     0.497958364
   60     9.831287054    16.476588608    38.850092319    -0.023044329    -0.026255554     0.498778112
   61     9.996164358    11.850084943    39.753502145    -0.024247773    -0.057709000     0.496066242
   62     9.827933554    17.365995404    32.187664213    -0.013703556    -0.025641169     0.499154027
   63     3.090512857    17.899626922    39.381500171    -0.029796743    -0.026498028     0.498407472
   64     4.430472341    19.221319076    30.448319010    -0.031388538    -0.019281462     0.498641138
   65     5.557418051    13.947942992    33.295271581    -0.103388534    -0.034276266     0.487991751
   66     1.955727626    16.829690443    37.888627528    -0.035181858    -0.026847382     0.498037604
   67     8.786711093    12.858594502    38.000423632    -0.011411078    -0.032876789     0.498787434
   68     1.949751899    12.389080612    35.099791565    -0.049096192    -0.239642198     0.436074742
   21    12.843614300    16.602390669    34.166294310     0.026971265     0.008688155    -0.499196421
   22    20.175919970    11.986013124    36.206221030    -0.045800657    -0.162476606     0.470641745
   23    20.059993552    19.513338836    37.071060661    -0.030952537    -0.025853589     0.498370878
   24    15.006784126    14.401052484    37.899172082    -0.020314843    -0.008192845     0.499519954
   25    16.285442936    10.644902766    31.184188153    -0.029365248    -0.012176434     0.498988393
   26    12.844668893    11.227280649    37.721333360     0.032503427    -0.395844439    -0.303728015
   27    11.509292070    13.227539126    33.009536785     0.024448556     0.013156833     0.499228571
   28    18.502452788    15.666352873    31.278815650    -0.003316436    -0.015024603     0.499763207
   29    19.215082609    18.319165776    35.358330476    -0.034839104    -0.028360004     0.497977858
   30    17.985049339    19.232827156    32.055375750    -0.017997364    -0.030843321     0.498723154
   31    16.497418400    20.196577849    39.069766965    -0.011905470    -0.017554677     0.499549890
   32    18.624293289    10.847565085    38.298695467    -0.024101308    -0.021308171     0.498964016
   33    11.687516620    18.221891673    35.700912852    -0.024608770    -0.039221222     0.497851488
   34    21.284820591    13.206657634    38.419145327    -0.047804730    -0.433655375     0.244249306
   35    18.657109803    17.808301900    30.595357826    -0.009416712    -0.019145592     0.499544564
   36    18.170878172    12.795061775    35.929428534    -0.025016546    -0.117202683     0.485425281
   37    18.676437533    15.407941660    37.866139793    -0.023805702    -0.017074244     0.499141021
   38    16.761485722    16.325148431    34.565278539    -0.011466621    -0.034137361     0.498701471
   39    18.947992423    16.020489145    33.990804530     0.004651630    -0.024935439     0.499356172
   40    13.714402855    19.039244892    36.537769430    -0.021556641    -0.022029246     0.499049119
   41    17.213774899    12.231149456    33.978746543    -0.016602164    -0.096553710     0.490307811
   42    11.497885178    18.672736922    33.427780593    -0.018692419    -0.021364196     0.499193514
   43    15.035695905    17.257427416    35.572171604    -0.015438766    -0.030900379     0.498805384
   44    19.976091114    14.256768805    34.855510438     0.008673205    -0.031918071     0.498904813
   45    15.315521923    19.773476255    35.031335690    -0.025990766    -0.019711331     0.498934809
   46    18.407548334    11.451979896    32.331077034    -0.006366777    -0.081339994     0.493298357
   47    17.832012364    12.021713635    39.895841764    -0.026043620    -0.017390130     0.499018350
   48    21.036927470    13.678563502    30.816943855    -0.012362608    -0.011978182     0.499703601
   49    14.276393908    15.530722109    31.906838683     0.050745355    -0.013013755    -0.497247978
   50    17.431153932    19.604808445    37.027892594    -0.032862380    -0.001144679     0.498917582
   51    20.708124035    16.038420824    30.956277480    -0.016412757    -0.009930518     0.499631871
   52    20.415576605    19.800802581    31.657456108    -0.043911799    -0.017615039     0.497756431
   53    19.684803269    14.480964201    39.580468914    -0.016145895    -0.010707547     0.499624518
   54    15.843915501    12.587673489    39.891886653    -0.021374610    -0.044704415     0.497538583
   55    14.290138647    20.255982716    32.793293187    -0.029759370    -0.021015954     0.498670943
   56    17.401280180    14.248604367    39.757345900    -0.020395753    -0.013487726     0.499401737
   57    16.290946698    16.174772071    37.387114556    -0.020811196    -0.019465435     0.499187331
   58    15.163907044    10.462903886    37.177444227    -0.023584754    -0.016948055     0.499155810
   59    16.815637085    11.941933660    37.892557939    -0.022338880    -0.027721740     0.498730869
   60    19.920943004    16.621248820    39.138179189    -0.019952695    -0.013851189     0.499409686
   61    20.085820308    11.994745154    40.041589015    -0.023890313    -0.044471168     0.497445040
   62    19.917589503    17.510655616    32.475751082    -0.011201433    -0.014814550     0.499654938
   63    13.180168807    18.044287134    39.669587040    -0.030043060    -0.027991228     0.498311053
   64    14.520128291    19.365979288    30.736405879    -0.031511656    -0.017004035     0.498716230
   65    15.647074001    14.092603204    33.583358450    -0.088176855    -0.022104084     0.491666810
   66    12.045383576    16.974350654    38.176714398    -0.036536488    -0.030958506     0.497701372
   67    18.876367043    13.003254713    38.288510502    -0.009426066    -0.020089954     0.499507300
   68    12.039407849    12.533740823    35.387878435    -0.055399007    -0.249881938     0.429522953
   21    22.933270250    16.747050881    34.454381179     0.020632871    -0.000656251    -0.499573672
   22    30.265575920    12.130673336    36.494307900    -0.032444081    -0.154501224     0.474422547
   23    30.149649502    19.657999047    37.359147531    -0.022443464    -0.024759150     0.498882026
   24    25.096440076    14.545712695    38.187258951    -0.004686942     0.003016516     0.499968932
   25    26.375098886    10.789562978    31.472275022    -0.021341673    -0.002271305     0.499539162
   26    22.934324843    11.371940861    38.009420230    -0.014410991    -0.406139726    -0.291277954
   27    21.598948020    13.372199338    33.297623655     0.030578426     0.021759894     0.498589477
   28    28.592108738    15.811013085    31.566902519    -0.000861299    -0.000473072     0.499999034
   29    29.304738559    18.463825988    35.646417345    -0.025046447    -0.026536046     0.498666736
   30    28.074705289    19.377487368    32.343462619    -0.011363113    -0.024678404     0.499261310
   31    26.587074350    20.341238060    39.357853835    -0.002654692    -0.015011014     0.499767568
   32    28.713949239    10.992225297    38.586782337    -0.010286551    -0.009560407     0.499802747
   33    21.777172570    18.366551885    35.988999722    -0.018221108    -0.030916635     0.498710490
   34    31.374476541    13.351317846    38.707232197    -0.031830350    -0.430794906     0.251798685
   35    28.746765753    17.952962111    30.883444696    -0.003573288    -0.009993351     0.499887352
   36    28.260534121    12.939721987    36.217515403    -0.012994176    -0.108138057     0.487993148
   37    28.766093482    15.552601872    38.154226662    -0.009771156    -0.007649584     0.499845985
   38    26.851141672    16.469808643    34.853365409    -0.001846465    -0.025325820     0.499354777
   39    29.037648373    16.165149356    34.278891399     0.012302984    -0.015578573     0.499605789
   40    23.804058805    19.183905104    36.825856300    -0.013758593    -0.016019855     0.499553866
   41    27.303430848    12.375809668    34.266833413    -0.005403238    -0.087416993     0.492269311
   42    21.587541128    18.817397134    33.715867463    -0.014313115    -0.011123041     0.499671305
   43    25.125351855    17.402087628    35.860258474    -0.005858658    -0.022526746     0.499457928
   44    30.065747063    14.401429017    35.143597308     0.017326259    -0.022459633     0.499194717
   45    25.405177873    19.918136467    35.319422559    -0.017625469    -0.013997452     0.499493157
   46    28.497204284    11.596640107    32.619163904     0.004414381    -0.072381950     0.494713419
   47    27.921668314    12.166373847    40.183928634    -0.007884877    -0.006623517     0.499893946
   48    31.126583420    13.823223714    31.105030725    -0.005121585    -0.001203278     0.499972321
   49    24.366049857    15.675382321    32.194925553     0.034113810     0.001264626    -0.498833287
   50    27.520809882    19.749468657    37.315979464    -0.023568870     0.001152386     0.499442870
   51    30.797779985    16.183081035    31.244364349    -0.010754057     0.000064865     0.499884333
   52    30.505232555    19.945462793    31.945542978    -0.038022054    -0.012735737     0.498389531
   53    29.774459219    14.625624412    39.868555784     0.000069439    -0.000457518     0.499999786
   54    25.933571451    12.732333700    40.179973523    -0.003188562    -0.033271871     0.498881565
   55    24.379794596    20.400642928    33.081380057    -0.022267555    -0.015393122     0.499266670
   56    27.490936130    14.393264578    40.045432770     0.000055951    -0.000080173     0.499999990
   57    26.380602648    16.319432282    37.675201426    -0.006376537    -0.009712805     0.499864983
   58    25.253562993    10.607564098    37.465531097    -0.010039345    -0.001182561     0.499897803
   59    26.905293034    12.086593872    38.180644809    -0.008274935    -0.012832212     0.499766805
   60    30.010598954    16.765909032    39.426266058    -0.006593199    -0.005620992     0.499924929
   61    30.175476258    12.139405366    40.329675884    -0.005122499    -0.033914215     0.498822199
   62    30.007245453    17.655315828    32.763837952    -0.004882296    -0.006913295     0.499928364
   63    23.269824757    18.188947345    39.957673910    -0.023422142    -0.018538907     0.499106915
   64    24.609784241    19.510639499    31.024492749    -0.024574588    -0.010728202     0.499280478
   65    25.736729950    14.237263415    33.871445320    -0.067336854    -0.011289910     0.495316349
   66    22.135039526    17.119010866    38.464801267    -0.030997678    -0.020628729     0.498611672
   67    28.966022993    13.147914925    38.576597372     0.004171247    -0.010819842     0.499865514
   68    22.129063799    12.678401035    35.675965304    -0.065182529    -0.237946295     0.434894008
   21    33.022926200    16.891711093    34.742468049     0.017566074    -0.002941443    -0.499682680
   22    40.355231870    12.275333547    36.782394769    -0.035281057    -0.162381550     0.471579770
   23    40.239305452    19.802659259    37.647234400    -0.025772959    -0.030954007     0.498374963
   24    35.186096025    14.690372907    38.475345821    -0.017013117    -0.006866093     0.499663297
   25    36.464754835    10.934223190    31.760361892    -0.024917216    -0.006137479     0.499341029
   26    33.023980792    11.516601072    38.297507099     0.008596914    -0.405606993    -0.292248285
   27    31.688603970    13.516859550    33.585710525     0.038914047     0.029768091     0.497593768
   28    38.681764687    15.955673297    31.854989389    -0.006970565    -0.008243554     0.499883441
   29    39.394394509    18.608486199    35.934504215    -0.026954692    -0.033504106     0.498147488
   30    38.164361238    19.522147580    32.631549489    -0.016080853    -0.028179268     0.498946225
   31    36.676730300    20.485898272    39.645940704    -0.008875036    -0.018035860     0.499595778
   32    38.803605188    11.136885509    38.874869207    -0.021429822    -0.019170460     0.499172572
   33    31.866828520    18.511212096    36.277086591    -0.015605941    -0.028815031     0.498924993
   34    41.464132491    13.495978057    38.995319066    -0.008065777    -0.435619693     0.245296610
   35    38.836421703    18.097622323    31.171531566    -0.009110334    -0.015782124     0.499667816
   36    38.350190071    13.084382199    36.505602273    -0.016977271    -0.115522228     0.486175264
   37    38.855749432    15.697262083    38.442313532    -0.022788936    -0.019008621     0.499118560
   38    36.940797622    16.614468854    35.141452278    -0.007584256    -0.030616518     0.499004116
   39    39.127304322    16.309809568    34.566978269     0.006944328    -0.020755958     0.499520737
   40    33.893714755    19.328565316    37.113943170    -0.015018781    -0.016149011     0.499513409
   41    37.393086798    12.520469880    34.554920282    -0.007738177    -0.094278019     0.490970239
   42    31.677197078    18.962057346    34.003954333    -0.009269300    -0.005916317     0.499879063
   43    35.215007805    17.546747840    36.148345344    -0.011117568    -0.027075704     0.499142571
   44    40.155403013    14.546089229    35.431684177     0.010737828    -0.027917171     0.499104529
   45    35.494833823    20.062796678    35.607509429    -0.019563544    -0.015916879     0.499363516
   46    38.586860233    11.741300319    32.907250774     0.002447448    -0.078727437     0.493757026
   47    38.011324263    12.311034058    40.472015503    -0.021945884    -0.016915428     0.499231656
   48    41.216239369    13.967883926    31.393117595    -0.012348471    -0.005704874     0.499814935
   49    34.455705807    15.820042533    32.483012422     0.029933240    -0.019468045    -0.498723367
   50    37.610465831    19.894128869    37.604066334    -0.028695833    -0.001196837     0.499174435
   51    40.887435935    16.327741247    31.532451219    -0.016680686    -0.006055482     0.499684987
   52    40.594888505    20.090123005    32.233629847    -0.041945215    -0.014107685     0.498037722
   53    39.864115169    14.770284624    40.156642654    -0.015259941    -0.012764026     0.499604057
   54    36.023227400    12.876993912    40.468060392    -0.017693325    -0.043317187     0.497805753
   55    34.469450546    20.545303139    33.369466926    -0.023073535    -0.015239361     0.499234788
   56    37.580592079    14.537924790    40.333519639    -0.017324063    -0.012963064     0.499531616
   57    36.470258598    16.464092494    37.963288295    -0.017604281    -0.018433042     0.499349890
   58    35.343218943    10.752224309    37.753617967    -0.018193928    -0.010849611     0.499551065
   59    36.994948984    12.231254083    38.468731679    -0.017839272    -0.023744399     0.499117185
   60    40.100254903    16.910569243    39.714352928    -0.020438574    -0.017376746     0.499279795
   61    40.265132207    12.284065578    40.617762754    -0.019018308    -0.045734998     0.497540565
   62    40.096901403    17.799976039    33.051924822    -0.010296484    -0.012251073     0.499743828
   63    33.359480706    18.333607557    40.245760779    -0.018464355    -0.016816203     0.499375893
   64    34.699440191    19.655299711    31.312579619    -0.024511035    -0.009821613     0.499302258
   65    35.826385900    14.381923627    34.159532189    -0.066570035    -0.000616995     0.495548231
   66    32.224695476    17.263671078    38.752888137    -0.023416024    -0.016554248     0.499176969
   67    39.055678942    13.292575137    38.864684241    -0.007654454    -0.020230186     0.499531930
   68    32.218719749    12.823061247    35.964052174    -0.050748150    -0.231494387     0.440266935
   21     2.889033821    26.482823979    33.908832864     0.020487528    -0.000834612    -0.499579388
   22    10.221339492    21.866446433    35.948759584    -0.042866663    -0.171998807     0.467524181
   23    10.105413073    29.393772145    36.813599215    -0.035204840    -0.029467048     0.497887851
   24     5.052203647    24.281485793    37.641710636    -0.020541234    -0.015458635     0.499338651
   25     6.330862457    20.525336076    30.926726707    -0.031225171    -0.022052800     0.498536521
   26     2.890088414    21.107713958    37.463871914     0.086643991    -0.386645489    -0.304955873
   27     1.554711591    23.107972436    32.752075339     0.033421943     0.024660835     0.498271830
   28     8.547872309    25.546786183    31.021354203    -0.003972814    -0.020446670     0.499565962
   29     9.260502130    28.199599085    35.100869030    -0.038402378    -0.033113973     0.497422076
   30     8.030468860    29.113260466    31.797914304    -0.019763548    -0.036266455     0.498291227
   31     6.542837922    30.077011158    38.812305519    -0.016054209    -0.021811169     0.499265997
   32     8.669712810    20.727998395    38.041234021    -0.025815800    -0.032097680     0.498300395
   33     1.732936142    28.102324982    35.443451406    -0.019212790    -0.033478726     0.498507817
   34    11.330240113    23.087090943    38.161683881    -0.029898069    -0.441073739     0.233580953
   35     8.702529324    27.688735209    30.337896380    -0.010160721    -0.024119633     0.499314533
   36     8.216297693    22.675495085    35.671967088    -0.023560146    -0.125891318     0.483318007
   37     8.721857054    25.288374970    37.608678347    -0.023611092    -0.023766603     0.498876402
   38     6.806905244    26.205581740    34.307817093    -0.011057675    -0.038089887     0.498424406
   39     8.993411944    25.900922454    33.733343084     0.004691714    -0.029288264     0.499119410
   40     3.759822376    28.919678202    36.280307984    -0.020306433    -0.021150970     0.499139545
   41     7.259194420    22.111582766    33.721285097    -0.015744312    -0.105588441     0.488470263
   42     1.543304699    28.553170232    33.170319147    -0.011427003    -0.009985457     0.499769661
   43     5.081115427    27.137860726    35.314710158    -0.014988976    -0.034039289     0.498614738
   44    10.021510635    24.137202115    34.598048992     0.008604346    -0.036896662     0.498562535
   45     5.360941445    29.653909564    34.773874244    -0.026153252    -0.020409333     0.498898253
   46     8.452967855    21.332413205    32.073615588    -0.006104383    -0.090863631     0.491636590
   47     7.877431885    21.902146944    39.638380318    -0.026355288    -0.027704219     0.498535731
   48    11.082346991    23.558996812    30.559482409    -0.013882027    -0.020700523     0.499378391
   49     4.321813429    25.411155419    31.649377237     0.013954707    -0.019357817    -0.499430216
   50     7.476573453    29.485241755    36.770431148    -0.036755419    -0.004805618     0.498624052
   51    10.753543557    25.918854133    30.698816034    -0.017189558    -0.014025256     0.499507569
   52    10.460996127    29.681235891    31.399994662    -0.045868899    -0.023104689     0.497355223
   53     9.730222790    24.361397510    39.323007468    -0.016247004    -0.018991408     0.499374971
   54     5.889335022    22.468106798    39.634425207    -0.022556505    -0.054257417     0.496535333
   55     4.335558168    30.136416025    32.535831741    -0.029225095    -0.021106340     0.498698723
   56     7.446699701    24.129037676    39.499884454    -0.020611671    -0.023236050     0.499034312
   57     6.336366220    26.055205380    37.129653110    -0.020851698    -0.025945342     0.498890816
   58     5.209326565    20.343337195    36.919982781    -0.026176036    -0.025446138     0.498665528
   59     6.861056606    21.822366969    37.635096493    -0.023279816    -0.037699628     0.498032919
   60     9.966362525    26.501682129    38.880717742    -0.019508015    -0.019186933     0.499250738
   61    10.131239829    21.875178464    39.784127569    -0.023296599    -0.055134998     0.496404473
   62     9.963009025    27.391088925    32.218289636    -0.011874296    -0.018353746     0.499521913
   63     3.225588328    27.924720443    39.412125594    -0.025801973    -0.022465610     0.498828181
   64     4.565547812    29.246412597    30.478944433    -0.030449069    -0.015641376     0.498826825
   65     5.692493522    23.973036513    33.325897004    -0.104021143    -0.025370199     0.488401428
   66     2.090803098    26.854783964    37.919252952    -0.030459702    -0.023654436     0.498510455
   67     8.921786564    22.883688023    38.031049056    -0.009727590    -0.029489216     0.499034829
   68     2.084827370    22.414174133    35.130416989    -0.036407810    -0.240672642     0.436750673
   21    12.978689771    26.627484190    34.196919733     0.017430320    -0.002580044    -0.499689431
   22    20.310995441    22.011106645    36.236846454    -0.042692033    -0.157866763     0.472499180
   23    20.195069023    29.538432357    37.101686085    -0.006055721    -0.006838032     0.499916563
   24    15.141859597    24.426146005    37.929797505    -0.009443034     0.000277935     0.499910744
   25    16.420518407    20.669996287    31.214813576    -0.029048968    -0.012661820     0.498994825
   26    12.979744364    21.252374170    37.751958784     0.014862999    -0.397508366    -0.302929349
   27    11.644367541    23.252632647    33.040162209     0.027748749     0.017647610     0.498917397
   28    18.637528259    25.691446394    31.309441073     0.001889588    -0.002701340     0.499989132
   29    19.350158080    28.344259297    35.388955899    -0.003381395     0.002071359     0.499984275
   30    18.120124810    29.257920677    32.086001173    -0.009064265    -0.018338978     0.499581346
   31    16.632493871    30.221671370    39.100392389     0.007227291    -0.002009306     0.499943726
   32    18.759368760    20.872658606    38.329320891    -0.020787281    -0.020841818     0.499132755
   33    11.822592091    28.246985194    35.731538276    -0.016302932    -0.027602964     0.498971232
   34    21.419896063    23.231751155    38.449770751    -0.058453951    -0.431754136     0.245298800
   35    18.792185274    27.833395421    30.625983250    -0.002204745    -0.006363216     0.499954647
   36    18.305953643    22.820155296    35.960053957    -0.019484851    -0.110336493     0.487284515
   37    18.811513004    25.433035181    37.896765216    -0.012181201    -0.009187888     0.499767147
   38    16.896561194    26.350241952    34.595903963     0.002672278    -0.020850283     0.499557929
   39    19.083067894    26.045582666    34.021429953     0.017481836    -0.009230013     0.499609039
   40    13.849478326    29.064338413    36.568394854    -0.008595818    -0.007650623     0.499867562
   41    17.348850370    22.256242977    34.009371967    -0.011271943    -0.089999757     0.491704166
   42    11.632960649    28.697830443    33.458406017    -0.014373697    -0.011928561     0.499650984
   43    15.170771376    27.282520937    35.602797028    -0.001031635    -0.017838259     0.499680630
   44    20.111166585    24.281862326    34.886135862     0.022961820    -0.015483403     0.499232430
   45    15.450597394    29.798569776    35.061961113    -0.012516362    -0.004536563     0.499822729
   46    18.542623805    21.477073417    32.361702458    -0.000957712    -0.075288789     0.494298170
   47    17.967087835    22.046807156    39.926467187    -0.020758900    -0.015077880     0.499341292
   48    21.172002941    23.703657023    30.847569279    -0.004352070    -0.001139728     0.499979760
   49    14.411469379    25.555815631    31.937464107     0.034938122    -0.016878784    -0.498492161
   50    17.566229403    29.629901966    37.058518018    -0.012613296     0.014597618     0.499627676
   51    20.843199506    26.063514345    30.986902903    -0.006795824     0.003310037     0.499942857
   52    20.550652076    29.825896102    31.688081532    -0.035538475    -0.006778410     0.498689352
   53    19.819878740    24.506057722    39.611094338    -0.006349277    -0.002667331     0.499952570
   54    15.978990972    22.612767010    39.922512077    -0.014660882    -0.043480657     0.497890039
   55    14.425214118    30.281076237    32.823918611    -0.019859264    -0.008150090     0.499538973
   56    17.536355651    24.273697888    39.787971324    -0.013349900    -0.009566196     0.499730195
   57    16.426022169    26.199865592    37.417739980    -0.008837395    -0.010468521     0.499812275
   58    15.298982515    20.487997407    37.208069651    -0.020874756    -0.017949898     0.499241470
   59    16.950712556    21.967027181    37.923183363    -0.018518907    -0.027227773     0.498914520
   60    20.056018475    26.646342341    39.168804612    -0.006748968    -0.005200830     0.499927398
   61    20.220895779    22.019838675    40.072214438    -0.018023477    -0.041459422     0.497952077
   62    20.052664974    27.535749137    32.506376506     0.001097414    -0.000567584     0.499998474
   63    13.315244278    28.069380655    39.700212464    -0.021829503    -0.017428462     0.499219112
   64    14.655203762    29.391072809    30.767031303    -0.023118070    -0.004533305     0.499444696
   65    15.782149472    24.117696725    33.613983874    -0.094337645    -0.018702256     0.490663463
   66    12.180459047    26.999444175    38.207339821    -0.029602590    -0.021496452     0.498659793
   67    19.011442514    23.028348234    38.319135926    -0.001983961    -0.015658600     0.499750810
   68    12.174483320    22.558834344    35.418503858    -0.059552810    -0.247746990     0.430203314
   21    23.068345721    26.772144402    34.485006603     0.005923534    -0.010344966    -0.499857873
   22    30.400651391    22.155766857    36.524933323    -0.031705480    -0.159787360     0.472718481
   23    30.284724973    29.683092568    37.389772954    -0.016237099    -0.015420202     0.499498322
   24    25.231515547    24.570806216    38.217884375    -0.006022700    -0.001981954     0.499959797
   25    26.510174357    20.814656499    31.502900446    -0.021791379    -0.008854235     0.499446432
   26    23.069400314    21.397034382    38.040045653    -0.020468591    -0.402427727    -0.296028650
   27    21.734023491    23.397292859    33.328249078     0.049105293     0.036308982     0.496256313
   28    28.727184209    25.836106606    31.597527943     0.006004599    -0.006578818     0.499920658
   29    29.439814030    28.488919509    35.677042769    -0.013342573    -0.022102948     0.499332991
   30    28.209780760    29.402580889    32.374088043    -0.004260560    -0.021108522     0.499536063
   31    26.722149821    30.366331581    39.388479258     0.004596413    -0.002557789     0.499972330
   32    28.849024710    21.017318818    38.617407761    -0.011670742    -0.020096063     0.499459650
   33    21.912248041    28.391645406    36.019625145    -0.003621450    -0.020569140     0.499563605
   34    31.509552012    23.376411367    38.737857620    -0.028707836    -0.433323912     0.247802840
   35    28.881841224    27.978055632    30.914070120     0.002323303    -0.011102734     0.499871315
   36    28.395609592    22.964815508    36.248140827    -0.012173403    -0.112893768     0.486936141
   37    28.901168954    25.577695393    38.184852086    -0.009016211    -0.012376368     0.499765478
   38    26.986217143    26.494902164    34.883990832     0.004059963    -0.024203433     0.499397347
   39    29.172723844    26.190242877    34.309516823     0.017340899    -0.016608157     0.499423130
   40    23.939134276    29.208998625    36.856481724     0.000037018    -0.006041651     0.499963496
   41    27.438506319    22.400903189    34.297458836    -0.004784462    -0.091944692     0.491450183
   42    21.722616599    28.842490655    33.746492887     0.000334052     0.003838180     0.499985157
   43    25.260427326    27.427181149    35.890883898     0.001236699    -0.019628130     0.499613057
   44    30.200822534    24.426522538    35.174222731     0.020735839    -0.024624858     0.498962565
   45    25.540253344    29.943229988    35.350047983    -0.007481044    -0.003886882     0.499928921
   46    28.632279755    21.621733629    32.649789328     0.004832304    -0.076720809     0.494055226
   47    28.056743785    22.191467368    40.214554057    -0.011220480    -0.014742756     0.499656634
   48    31.261658891    23.848317235    31.135656149    -0.005040100    -0.004361705     0.499955571
   49    24.501125328    25.700475842    32.225550976     0.014687419    -0.025588696    -0.499128739
   50    27.655885353    29.774562178    37.346604888    -0.018332715     0.010250523     0.499558644
   51    30.932855456    26.208174556    31.274989773    -0.005175393    -0.001371752     0.499971333
   52    30.640308026    29.970556314    31.976168401    -0.028260882    -0.009899453     0.499102518
   53    29.909534690    24.650717933    39.899181208    -0.000702828    -0.007359408     0.499945342
   54    26.068646922    22.757427221    40.210598946    -0.006332050    -0.042259988     0.498170652
   55    24.514870068    30.425736449    33.112005480    -0.011475762    -0.002710612     0.499860940
   56    27.626011601    24.418358099    40.076058193    -0.005757424    -0.010546204     0.499855609
   57    26.515678119    26.344525803    37.705826849    -0.006248861    -0.012748748     0.499798381
   58    25.388638464    20.632657619    37.496156521    -0.011214994    -0.014643086     0.499659688
   59    27.040368505    22.111687393    38.211270233    -0.009465791    -0.025492159     0.499260001
   60    30.145674425    26.791002553    39.456891482    -0.004730678    -0.009701906     0.499883480
   61    30.310551729    22.164498887    40.360301308    -0.006979038    -0.042205983     0.498166587
   62    30.142320924    27.680409349    32.794463376     0.001835916    -0.007229750     0.499944357
   63    23.404900228    28.214040866    39.988299333    -0.013076156    -0.008658163     0.499753990
   64    24.744859712    29.535733020    31.055118173    -0.013989977     0.002585511     0.499797555
   65    25.871805421    24.262356936    33.902070743    -0.088570445    -0.021950871     0.491602925
   66    22.270114997    27.144104387    38.495426691    -0.018937858    -0.011331666     0.499512713
   67    29.101098464    23.173008446    38.607222795     0.005452292    -0.017294231     0.499671074
   68    22.264139270    22.703494556    35.706590728    -0.064926309    -0.234112585     0.437007863
   21    33.158001671    26.916804614    34.773093473     0.002933536     0.006101102    -0.499954169
   22    40.490307341    22.300427068    36.813020193    -0.026136526    -0.163905145     0.471648159
   23    40.374380923    29.827752780    37.677859824    -0.025170009    -0.026651613     0.498654351
   24    35.321171496    24.715466428    38.505971244    -0.012625508    -0.005931073     0.499805381
   25    36.599830306    20.959316711    31.790987315    -0.024771521    -0.009207403     0.499301107
   26    33.159056263    21.541694593    38.328132523     0.016711122    -0.402288087    -0.296454100
   27    31.823679441    23.541953071    33.616335948     0.042109156     0.028607767     0.497401663
   28    38.816840158    25.980766818    31.885614812    -0.004262540    -0.004625365     0.499960435
   29    39.529469980    28.633579720    35.965129638    -0.027522340    -0.028832942     0.498408650
   30    38.299436709    29.547241101    32.662174913    -0.011836313    -0.027364108     0.499110316
   31    36.811805771    30.510991793    39.676566128    -0.007199981    -0.014706940     0.499731794
   32    38.938680660    21.161979030    38.905494630    -0.016674155    -0.025077156     0.499092285
   33    32.001903991    28.536305617    36.307712015    -0.010853664    -0.028207137     0.499085720
   34    41.599207962    23.521071578    39.025944490     0.011434161    -0.432937237     0.249869184
   35    38.971497174    28.122715844    31.202156989    -0.004840004    -0.013822993     0.499785453
   36    38.485265542    23.109475720    36.536227697    -0.012063401    -0.116735941     0.486032092
   37    38.990824903    25.722355604    38.472938955    -0.016933067    -0.018305756     0.499377783
   38    37.075873093    26.639562375    35.172077702    -0.002311251    -0.030908897     0.499038373
   39    39.262379794    26.334903089    34.597603692     0.010857519    -0.020846948     0.499447213
   40    34.028790226    29.353658837    37.144568593    -0.008457610    -0.016386541     0.499659834
   41    37.528162269    22.545563401    34.585545706    -0.005051167    -0.095589760     0.490751550
   42    31.812272549    28.987150867    34.034579756    -0.002581861    -0.006019548     0.499957097
   43    35.350083276    27.571841361    36.178970767    -0.005194884    -0.027510778     0.499215555
   44    40.290478484    24.571182750    35.462309601     0.015559175    -0.028280516     0.498957037
   45    35.629909294    30.087890199    35.638134852    -0.015849796    -0.014361655     0.499542317
   46    38.721935704    21.766393840    32.937876197     0.001239843    -0.080064235     0.493546534
   47    38.146399734    22.336127579    40.502640927    -0.017829579    -0.020625839     0.499256128
   48    41.351314841    23.992977447    31.423743018    -0.007782353    -0.005812148     0.499905645
   49    34.590781278    25.845136054    32.513637846     0.006884487     0.007018098    -0.499903341
   50    37.745541302    29.919222390    37.634691757    -0.026590993     0.003808802     0.499277891
   51    41.022511406    26.352834768    31.563076642    -0.013321618    -0.002512485     0.499816188
   52    40.729963976    30.115216526    32.264255271    -0.039389114    -0.015423441     0.498207402
   53    39.999190640    24.795378145    40.187268077    -0.010161590    -0.013035682     0.499726738
   54    36.158302871    22.902087433    40.498685816    -0.012194641    -0.045876217     0.497741563
   55    34.604526017    30.570396660    33.400092350    -0.020667385    -0.013464363     0.499391199
   56    37.715667550    24.563018311    40.364145063    -0.011597888    -0.016220037     0.499602241
   57    36.605334069    26.489186015    37.993913719    -0.012256394    -0.018224624     0.499517411
   58    35.478294414    20.777317830    37.784243390    -0.016811627    -0.016322055     0.499450658
   59    37.130024455    22.256347604    38.499357102    -0.014561697    -0.028772997     0.498958988
   60    40.235330374    26.935662764    39.744978351    -0.014201363    -0.015104203     0.499569999
   61    40.400207679    22.309159099    40.648388178    -0.014334807    -0.048713358     0.497414839
   62    40.231976874    27.825069560    33.082550245    -0.006268714    -0.010942585     0.499840938
   63    33.494556177    28.358701078    40.276386203    -0.014686551    -0.016736643     0.499503944
   64    34.834515662    29.680393232    31.343205042    -0.022329581    -0.007742268     0.499441135
   65    35.961461371    24.407017148    34.190157613    -0.070351499    -0.013981509     0.494828439
   66    32.359770947    27.288764599    38.783513561    -0.020030305    -0.018258907     0.499264859
   67    39.190754413    23.317668658    38.895309665    -0.001582371    -0.023032111     0.499466734
   68    32.353795220    22.848154768    35.994677597    -0.049711932    -0.236476281     0.437730159
   21     3.024109292    36.507917500    33.939458287     0.022396890    -0.001171628    -0.499496753
   22    10.356414963    31.891539954    35.979385008    -0.052850816    -0.166680004     0.468427761
   23    10.240488544    39.418865666    36.844224639    -0.034048330    -0.033547395     0.497710040
   24     5.187279118    34.306579314    37.672336059    -0.021841463    -0.012684887     0.499361637
   25     6.465937928    30.550429597    30.957352130    -0.030796454    -0.017200546     0.498754168
   26     3.025163885    31.132807479    37.494497338     0.058121949    -0.400821899    -0.293195573
   27     1.689787062    33.133065957    32.782700763     0.033223030     0.030360788     0.497970333
   28     8.682947780    35.571879704    31.051979627    -0.003540876    -0.020493116     0.499567307
   29     9.395577601    38.224692606    35.131494453    -0.036162462    -0.037304937     0.497293292
   30     8.165544331    39.138353987    31.828539727    -0.019609205    -0.037922931     0.498173996
   31     6.677913393    40.102104679    38.842930943    -0.015702315    -0.023934263     0.499179916
   32     8.804788281    30.753091916    38.071859445    -0.025728468    -0.026072685     0.498656456
   33     1.868011613    38.127418504    35.474076830    -0.020274701    -0.031394069     0.498601393
   34    11.465315584    33.112184464    38.192309305    -0.070162359    -0.434216123     0.237767959
   35     8.837604795    37.713828730    30.368521804    -0.010212874    -0.024691137     0.499285535
   36     8.351373164    32.700588606    35.702592511    -0.029467268    -0.122049980     0.483978804
   37     8.856932525    35.313468491    37.639303770    -0.025252150    -0.021005975     0.498919911
   38     6.941980715    36.230675261    34.338442517    -0.012976746    -0.036907602     0.498467083
   39     9.128487415    35.926015975    33.763968507     0.003772395    -0.028865683     0.499151822
   40     3.894897847    38.944771723    36.310933408    -0.020491401    -0.021224779     0.499128852
   41     7.394269891    32.136676287    33.751910521    -0.020529602    -0.101839842     0.489088113
   42     1.678380170    38.578263753    33.200944571    -0.012722230    -0.006882633     0.499790730
   43     5.216190898    37.162954247    35.345335582    -0.016787898    -0.032886252     0.498634797
   44    10.156586106    34.162295636    34.628674415     0.007962111    -0.036238422     0.498621481
   45     5.496016916    39.679003085    34.804499667    -0.026904926    -0.020502725     0.498854451
   46     8.588043326    31.357506726    32.104241012    -0.010065264    -0.086930619     0.492282193
   47     8.012507356    31.927240465    39.669005741    -0.026970064    -0.022315745     0.498773118
   48    11.217422462    33.584090333    30.590107833    -0.012696173    -0.018326597     0.499502696
   49     4.456888900    35.436248940    31.680002661     0.038001959    -0.013407736    -0.498373438
   50     7.611648924    39.510335276    36.801056572    -0.036386237    -0.008586572     0.498600353
   51    10.888619028    35.943947654    30.729441457    -0.017697692    -0.014572010     0.499474172
   52    10.596071598    39.706329412    31.430620086    -0.046651498    -0.025185931     0.497181362
   53     9.865298261    34.386491031    39.353632892    -0.016192179    -0.015436495     0.499499277
   54     6.024410493    32.493200319    39.665050631    -0.023029485    -0.050458863     0.496914023
   55     4.470633639    40.161509546    32.566457165    -0.029820146    -0.021779376     0.498634553
   56     7.581775172    34.154131197    39.530509877    -0.021354378    -0.018616281     0.499196779
   57     6.471441691    36.080298901    37.160278534    -0.022354564    -0.023550081     0.498944553
   58     5.344402036    30.368430716    36.950608205    -0.024661857    -0.020842027     0.498956313
   59     6.996132077    31.847460490    37.665721917    -0.023556965    -0.032557178     0.498382483
   60    10.101437996    36.526775650    38.911343166    -0.021426668    -0.017415426     0.499237019
   61    10.266315300    31.900271985    39.814752992    -0.024926168    -0.049559695     0.496912993
   62    10.098084496    37.416182446    32.248915060    -0.012745849    -0.019413125     0.499460383
   63     3.360663799    37.949813964    39.442751018    -0.025033059    -0.019284776     0.499000444
   64     4.700623283    39.271506118    30.509569857    -0.030874112    -0.016458700     0.498774398
   65     5.827568993    33.998130034    33.356522428    -0.092693645    -0.030266501     0.490399661
   66     2.225878569    36.879877485    37.949878375    -0.029422574    -0.019002187     0.498771720
   67     9.056862035    32.908781544    38.061674480    -0.009962003    -0.025070503     0.499271698
   68     2.219902841    32.439267654    35.161042412    -0.040174704    -0.238743778     0.437478458
   21    13.113765242    36.652577711    34.227545157     0.021916090     0.000276669    -0.499519377
   22    20.446070912    32.036200166    36.267471877    -0.008996541    -0.149907334     0.476913885
   23    20.330144494    39.563525878    37.132311508    -0.026970785    -0.016086311     0.499012833
   24    15.276935068    34.451239526    37.960422929    -0.004177460     0.005300259     0.499954454
   25    16.555593878    30.695089808    31.245439000    -0.020469256     0.001415603     0.499578828
   26    13.114819835    31.277467691    37.782584207    -0.054861440    -0.400506571    -0.294252798
   27    11.779443012    33.277726168    33.070787632     0.032663807     0.017229477     0.498634356
   28    18.772603730    35.716539915    31.340066497     0.004750602    -0.000202640     0.499977390
   29    19.485233551    38.369352818    35.419581323    -0.028877929    -0.019549456     0.498782401
   30    18.255200281    39.283014198    32.116626597    -0.012258334    -0.019283066     0.499477624
   31    16.767569342    40.246764891    39.131017812    -0.010015348    -0.008311213     0.499830588
   32    18.894444231    30.897752128    38.359946314     0.000945910    -0.006236421     0.499960211
   33    11.957667562    38.272078715    35.762163699    -0.021578542    -0.031272599     0.498554301
   34    21.554971534    33.256844676    38.480396174     0.006827510    -0.427280976     0.259584962
   35    18.927260745    37.858488942    30.656608674    -0.001410948    -0.005226108     0.499970696
   36    18.441029114    32.845248818    35.990679381     0.001708957    -0.103419973     0.489184412
   37    18.946588475    35.458128702    37.927390640    -0.008773155    -0.003040108     0.499913782
   38    17.031636665    36.375335473    34.626529386    -0.000814665    -0.021614955     0.499531911
   39    19.218143365    36.070676187    34.052055377     0.015216604    -0.011526321     0.499635466
   40    13.984553797    39.089431934    36.599020277    -0.017803540    -0.013104881     0.499511057
   41    17.483925841    32.281336498    34.039997390     0.008446269    -0.082334855     0.493102051
   42    11.768036120    38.722923965    33.489031441    -0.016636790    -0.014237713     0.499520275
   43    15.305846847    37.307614458    35.633422452    -0.006382235    -0.018941177     0.499600339
   44    20.246242056    34.306955847    34.916761285     0.020198972    -0.019578513     0.499208056
   45    15.585672865    39.823663297    35.092586537    -0.021648205    -0.010538875     0.499419951
   46    18.677699276    31.502166938    32.392327882     0.016949569    -0.067142745     0.495181344
   47    18.102163306    32.071900677    39.957092611    -0.005570848    -0.005475578     0.499938980
   48    21.307078412    33.728750544    30.878194703     0.001482448    -0.000534556     0.499997517
   49    14.546544850    35.580909152    31.968089530     0.037394681    -0.009203653    -0.498514725
   50    17.701304874    39.654995487    37.089143442    -0.030679926     0.007307621     0.499004349
   51    20.978274977    36.088607866    31.017528327    -0.006886983     0.004558991     0.499931780
   52    20.685727547    39.850989623    31.718706955    -0.037572047    -0.006086000     0.498549197
   53    19.954954211    34.531151243    39.641719762    -0.001629429     0.001682570     0.499994514
   54    16.114066443    32.637860531    39.953137500    -0.001337835    -0.033495051     0.498875026
   55    14.560289589    40.306169758    32.854544034    -0.025964904    -0.011993215     0.499181316
   56    17.671431122    34.298791409    39.818596747    -0.000522499    -0.001562409     0.499997286
   57    16.561097640    36.224959113    37.448365403    -0.006388906    -0.006189256     0.499920869
   58    15.434057986    30.513090928    37.238695074    -0.000565387     0.000362571     0.499999549
   59    17.085788027    31.992120702    37.953808787     0.000998263    -0.011993146     0.499855147
   60    20.191093946    36.671435862    39.199430036    -0.006003177     0.001288630     0.499962300
   61    20.355971250    32.044932196    40.102839862    -0.002739295    -0.033159072     0.498891744
   62    20.187740445    37.560842658    32.537001930    -0.001156334     0.000455838     0.499998455
   63    13.450319749    38.094474176    39.730837887    -0.027386463    -0.017570248     0.498940145
   64    14.790279233    39.416166330    30.797656726    -0.028090356    -0.008059836     0.499145240
   65    15.917224943    34.142790246    33.644609297    -0.044142196    -0.032803062     0.496966222
   66    12.315534518    37.024537696    38.237965245    -0.034070080    -0.021260486     0.498384612
   67    19.146517985    33.053441755    38.349761349     0.009574436    -0.007515167     0.499851830
   68    12.309558791    32.583927865    35.449129282    -0.075515866    -0.241084032     0.431480989
   21    23.203421192    36.797237923    34.515632027     0.009895888    -0.012430841    -0.499747482
   22    30.535726862    32.180860378    36.555558747    -0.005684967    -0.150685892     0.476719460
   23    30.419800444    39.708186089    37.420398378    -0.009640411    -0.006466686     0.499865226
   24    25.366591018    34.595899737    38.248509798     0.000412851     0.007190992     0.499948117
   25    26.645249828    30.839750020    31.533525869    -0.009224450     0.001252359     0.499913334
   26    23.204475785    31.422127903    38.070671077     0.034190621    -0.419909236    -0.269271675
   27    21.869098962    33.422386380    33.358874502     0.038087467     0.031540495     0.497548532
   28    28.862259680    35.861200127    31.628153366     0.013495766     0.005197374     0.499790808
   29    29.574889501    38.514013030    35.707668192    -0.013058556    -0.007454542     0.499773853
   30    28.344856231    39.427674410    32.404713467     0.000111509    -0.013464273     0.499818668
   31    26.857225292    40.391425102    39.419104682     0.007409003     0.005317306     0.499916826
   32    28.984100181    31.042412339    38.648033184    -0.006968477    -0.009861715     0.499854166
   33    22.047323512    38.416738927    36.050250569    -0.008327897    -0.015532598     0.499689288
   34    31.644627483    33.401504888    38.768483044     0.048426476    -0.425728686     0.257701305
   35    29.016916695    38.003149153    30.944695543     0.008938628     0.000169519     0.499920066
   36    28.530685063    32.989909029    36.278766251     0.001686109    -0.102247929     0.489430810
   37    29.036244425    35.602788914    38.215477509     0.000139568    -0.000684766     0.499999512
   38    27.121292614    36.519995685    34.914616256     0.008542894    -0.014506400     0.499716503
   39    29.307799315    36.215336398    34.340142246     0.022949486    -0.006213232     0.499434397
   40    24.074209747    39.234092146    36.887107147    -0.002693782     0.001609347     0.499990153
   41    27.573581790    32.425996710    34.328084260     0.010860077    -0.081235116     0.493237179
   42    21.857692070    38.867584176    33.777118310    -0.005014366     0.002899412     0.499966448
   43    25.395502797    37.452274670    35.921509321     0.003654203    -0.010929784     0.499867169
   44    30.335898005    34.451616059    35.204848155     0.029117755    -0.012671851     0.498990562
   45    25.675328815    39.968323509    35.380673406    -0.007201526     0.003696963     0.499934466
   46    28.767355226    31.646827150    32.680414751     0.019680214    -0.066597467     0.495153983
   47    28.191819256    32.216560889    40.245179481    -0.006601904    -0.007143213     0.499905380
   48    31.396734362    33.873410756    31.166281572     0.009466705     0.005637819     0.499878582
   49    24.636200799    35.725569363    32.256176400    -0.002657571    -0.016235814    -0.499729262
   50    27.790960824    39.799655699    37.377230311    -0.012935173     0.021190372     0.499383269
   51    31.067930927    36.233268077    31.305615196     0.001844656     0.009380406     0.499908597
   52    30.775383497    39.995649835    32.006793825    -0.027685150    -0.003333394     0.499221815
   53    30.044610161    34.675811454    39.929806631    -0.000361532     0.003225079     0.499989468
   54    26.203722393    32.782520742    40.241224370    -0.001242510    -0.033812686     0.498853845
   55    24.649945539    40.450829970    33.142630904    -0.011542633     0.001647083     0.499864036
   56    27.761087072    34.443451620    40.106683617    -0.001561759    -0.000903990     0.499996744
   57    26.650753590    36.369619324    37.736452273    -0.000107659    -0.003375932     0.499988591
   58    25.523713935    30.657751140    37.526781944    -0.005005584    -0.001845266     0.499971538
   59    27.175443976    32.136780914    38.241895656    -0.004194554    -0.013238489     0.499807111
   60    30.280749896    36.816096074    39.487516905    -0.001062203     0.002011986     0.499994824
   61    30.445627200    32.189592408    40.390926731    -0.006502526    -0.034370781     0.498774866
   62    30.277396395    37.705502870    32.825088799     0.005285978     0.005055893     0.499946494
   63    23.539975699    38.239134387    40.018924757    -0.010933309    -0.001849006     0.499877029
   64    24.879935183    39.560826541    31.085743596    -0.013975776     0.006152401     0.499766771
   65    26.006880893    34.287450457    33.932696167     0.000623855    -0.021848823     0.499522011
   66    22.405190468    37.169197908    38.526052115    -0.017838911    -0.004911106     0.499657537
   67    29.236173935    33.198101967    38.637848219     0.009410252    -0.005985548     0.499875605
   68    22.399214741    32.728588077    35.737216151    -0.020565137    -0.228384116     0.444317196
   21    33.293077142    36.941898135    34.803718896     0.007994312    -0.012038067    -0.499791132
   22    40.625382812    32.325520589    36.843645616    -0.027131194    -0.161578407     0.472394239
   23    40.509456394    39.852846301    37.708485247    -0.026825351    -0.021494477     0.498816988
   24    35.456246967    34.740559949    38.536596668    -0.010713065     0.000728170     0.499884687
   25    36.734905777    30.984410232    31.821612739    -0.022657639    -0.008111431     0.499420500
   26    33.294131734    31.566788114    38.358757946     0.116663468    -0.375968757    -0.308280926
   27    31.958754912    33.567046592    33.646961372     0.049361098     0.034160878     0.496383437
   28    38.951915629    36.005860339    31.916240236    -0.002345236    -0.000892174     0.499993704
   29    39.664545451    38.658673241    35.995755062    -0.029687848    -0.023773502     0.498551354
   30    38.434512180    39.572334622    32.692800336    -0.011862993    -0.023491792     0.499306925
   31    36.946881242    40.536085314    39.707191551    -0.005553225    -0.005259868     0.499941492
   32    39.073756131    31.187072551    38.936120054    -0.015590877    -0.020205082     0.499348254
   33    32.136979462    38.561399138    36.338337439    -0.007259518    -0.017990489     0.499623500
   34    41.734283433    33.546165099    39.056569913    -0.001552728    -0.433774717     0.248670633
   35    39.106572645    38.147809365    31.232782413    -0.005284383    -0.010900278     0.499853238
   36    38.620341013    33.134569241    36.566853120    -0.010950199    -0.114248156     0.486649208
   37    39.125900374    35.747449126    38.503564379    -0.015135161    -0.011442932     0.499639857
   38    37.210948564    36.664655896    35.202703125    -0.002482200    -0.024224482     0.499406661
   39    39.397455265    36.359996610    34.628229116     0.011297000    -0.016696859     0.499593427
   40    34.163865697    39.378752358    37.175194017    -0.009129694    -0.005884954     0.499882002
   41    37.663237740    32.570656922    34.616171130    -0.004089297    -0.093482802     0.491166207
   42    31.947348020    39.012244388    34.065205180     0.000983876     0.005857055     0.499964726
   43    35.485158747    37.596934882    36.209596191    -0.005740860    -0.019772071     0.499575928
   44    40.425553955    34.596276271    35.492935024     0.015540649    -0.024346709     0.499165029
   45    35.764984765    40.112983720    35.668760276    -0.015551291    -0.004929268     0.499733789
   46    38.857011175    31.791487361    32.968501621     0.004821237    -0.078353995     0.493798954
   47    38.281475205    32.361221100    40.533266350    -0.016146866    -0.014289447     0.499534874
   48    41.486390312    34.018070968    31.454368442    -0.007967472    -0.005853399     0.499902248
   49    34.725856749    35.870229575    32.544263269     0.031089565    -0.015279320    -0.498798538
   50    37.880616773    39.944315911    37.665317181    -0.025888665     0.010060896     0.499227959
   51    41.157586877    36.377928289    31.593702066    -0.012624302    -0.001783994     0.499837418
   52    40.865039447    40.140310047    32.294880694    -0.040892463    -0.012753592     0.498161773
   53    40.134266111    34.820471666    40.217893501    -0.007848788    -0.005964353     0.499902814
   54    36.293378342    32.927180954    40.529311239    -0.010556764    -0.043697375     0.497974994
   55    34.739601488    40.595490181    33.430717773    -0.018523827    -0.006288947     0.499617170
   56    37.850743021    34.588111832    40.394770486    -0.010936571    -0.010096002     0.499778413
   57    36.740409540    36.514279536    38.024539142    -0.011404584    -0.011031877     0.499748170
   58    35.613369885    30.802411351    37.814868814    -0.015036566    -0.015644393     0.499528933
   59    37.265099926    32.281441125    38.529982526    -0.012528848    -0.026285516     0.499151379
   60    40.370405845    36.960756285    39.775603775    -0.012238082    -0.007525638     0.499793552
   61    40.535283150    32.334252620    40.679013601    -0.012029327    -0.042249115     0.498066569
   62    40.367052345    37.850163081    33.113175669    -0.006301575    -0.008535453     0.499887424
   63    33.629631649    38.383794599    40.307011627    -0.011760934    -0.008054589     0.499796763
   64    34.969591133    39.705486753    31.373830466    -0.019686125    -0.000835172     0.499611608
   65    36.096536842    34.432110669    34.220783037    -0.085319813    -0.024577089     0.492053347
   66    32.494846418    37.313858120    38.814138984    -0.016794030    -0.008254241     0.499649705
   67    39.325829884    33.342762179    38.925935088    -0.000048721    -0.017064126     0.499708728
   68    32.488870691    32.873248289    36.025303021    -0.011302936    -0.229576305     0.444034868
