CRYSTAL
PRIMVEC
    40.358642790     0.578641119     1.152348021
     0.540302138    40.100392953     0.122501752
     1.147485224     0.128543006    40.047960291
PRIMCOORD
 3072    1
   21     1.758269367     6.336229727     3.811625931     0.377687000    -0.248169650     0.213926050
   22     9.090575037     1.719852182     5.851552651    -0.434186073     0.216453738    -0.120955500
   23     8.974648619     9.247177894     6.716392283    -0.374632121     0.259239722    -0.206023156
   24     3.921439192     4.134891542     7.544503703    -0.384235310     0.244226184    -0.206680425
   25     5.200098002     0.378741824     0.829519774    -0.367279001     0.263133028    -0.214166163
   26     1.759323959     0.961119707     7.366664982    -0.164552669    -0.359166884     0.306466261
   27     0.423947137     2.961378184     2.654868407    -0.382125510     0.257482817    -0.194120306
   28     7.417107854     5.400191931     0.924147271    -0.391380173     0.240901526    -0.196946731
   29     8.129737675     8.053004834     5.003662097    -0.366031410     0.265153455    -0.213809851
   30     6.899704405     8.966666214     1.700707371    -0.380169859     0.259445786    -0.195342680
   31     5.412073467     9.930416906     8.715098586    -0.372472850     0.267928075    -0.198692029
   32     7.538948355     0.581404143     7.944027089    -0.371610065     0.267336698    -0.201089655
   33     0.602171687     7.955730731     5.346244474    -0.373248032     0.268254240    -0.196788133
   34    10.199475658     2.940496692     8.064476948    -0.490736953    -0.052315432     0.080251720
   35     7.571764870     7.542140958     0.240689448    -0.382608601     0.254787999    -0.196707229
   36     7.085533238     2.528900833     5.574760155    -0.423827930     0.222530060    -0.144396185
   37     7.591092599     5.141780718     7.511471414    -0.375903797     0.256432399    -0.207216698
   38     5.676140789     6.058987489     4.210610160    -0.395464652     0.241772280    -0.187493663
   39     7.862647489     5.754328203     3.636136151    -0.404523398     0.228984708    -0.184192357
   40     2.629057922     8.773083950     6.183101052    -0.372322438     0.265141042    -0.202672716
   41     6.128429965     1.964988514     3.624078165    -0.422432249     0.221128363    -0.150509940
   42     0.412540245     8.406575980     3.073112215    -0.384654158     0.243830138    -0.206368707
   43     3.950350972     6.991266474     5.217503226    -0.391747875     0.244347725    -0.191905685
   44     8.890746180     3.990607863     4.500842059    -0.406559843     0.229712905    -0.178720662
   45     4.230176990     9.507315313     4.676667311    -0.379163540     0.252915769    -0.205593345
   46     7.322203400     1.185818954     1.976408656    -0.419517673     0.226812267    -0.150203585
   47     6.746667430     1.755552693     9.541173385    -0.380627761     0.252005723    -0.203999076
   48     9.951582536     3.412402560     0.462275477    -0.372745537     0.268574668    -0.197302844
   49     3.191048974     5.264561167     1.552170305     0.382426715    -0.226817003     0.228700361
   50     6.345808998     9.338647503     6.673224216    -0.366857301     0.258071676    -0.220940560
   51     9.622779102     5.772259882     0.601609101    -0.385998027     0.239104800    -0.209366707
   52     9.330231672     9.534641639     1.302787729    -0.367513600     0.254651186    -0.223800195
   53     8.599458335     4.214803259     9.225800536    -0.371702564     0.265378592    -0.203497928
   54     4.758570567     2.321512547     9.537218274    -0.368414783     0.284486365    -0.182587118
   55     3.204793713     9.989821774     2.438624809    -0.368933442     0.263160330    -0.211269392
   56     6.315935246     3.982443425     9.402677521    -0.380576053     0.253925304    -0.201702274
   57     5.205601765     5.908611129     7.032446177    -0.382995510     0.250309787    -0.201641885
   58     4.078562110     0.196742944     6.822775849    -0.370678621     0.266750124    -0.203572423
   59     5.730292151     1.675772718     7.537889561    -0.378221165     0.260608817    -0.197564660
   60     8.835598070     6.355087878     8.783510810    -0.372694324     0.260495077    -0.207945319
   61     9.000475374     1.728584212     9.686920636    -0.391474243     0.249324139    -0.185971479
   62     8.832244570     7.244494674     2.121082704    -0.388446718     0.240956029    -0.202606366
   63     2.094823873     7.778126192     9.314918662    -0.363347580     0.269053847    -0.213514785
   64     3.434783357     9.099818346     0.381737501    -0.372085816     0.254276778    -0.216553609
   65     4.561729067     3.826442261     3.228690072    -0.315925801     0.320095506    -0.218471407
   66     0.960038643     6.708189712     7.822046019    -0.359205755     0.273769988    -0.214525569
   67     7.791022109     2.737093771     7.933842124    -0.379311456     0.263049264    -0.192166344
   68     0.954062916     2.267579881     5.033210056    -0.448254733     0.206094366    -0.081196102
   21    11.847925316     6.480889939     4.099712801     0.378342575    -0.246448690     0.214755532
   22    19.180230987     1.864512394     6.139639521    -0.432945325     0.218249008    -0.122170846
   23    19.064304568     9.391838105     7.004479152    -0.375303675     0.258831617    -0.205312798
   24    14.011095142     4.279551753     7.832590573    -0.385079731     0.242992837    -0.206562537
   25    15.289753952     0.523402036     1.117606644    -0.367345532     0.263910991    -0.213092114
   26    11.848979909     1.105779919     7.654751851    -0.124884604    -0.356502226     0.327582049
   27    10.513603086     3.106038396     2.942955276    -0.382768740     0.254933480    -0.196206554
   28    17.506763804     5.544852143     1.212234141    -0.391379718     0.241325426    -0.196427990
   29    18.219393625     8.197665046     5.291748967    -0.366483447     0.265134432    -0.213057775
   30    16.989360355     9.111326426     1.988794241    -0.380248808     0.259697245    -0.194854265
   31    15.501729417    10.075077118     9.003185456    -0.373638690     0.267182361    -0.197503709
   32    17.628604305     0.726064355     8.232113958    -0.372308308     0.266265659    -0.201219092
   33    10.691827637     8.100390943     5.634331343    -0.374287825     0.266497991    -0.197198999
   34    20.289131608     3.085156904     8.352563818    -0.492194826    -0.048046472     0.073727807
   35    17.661420819     7.686801169     0.528776317    -0.382602617     0.255215934    -0.196163362
   36    17.175189188     2.673561045     5.862847025    -0.423012415     0.223777377    -0.144859180
   37    17.680748549     5.286440930     7.799558284    -0.377003116     0.254912720    -0.207094557
   38    15.765796739     6.203647701     4.498697030    -0.396019330     0.241062565    -0.187236561
   39    17.952303439     5.898988414     3.924223021    -0.404655904     0.229002544    -0.183878857
   40    12.718713871     8.917744162     6.471187921    -0.373285503     0.263733808    -0.202737297
   41    16.218085915     2.109648726     3.912165034    -0.421550201     0.222684474    -0.150688598
   42    10.502196194     8.551236192     3.361199084    -0.385768292     0.241457352    -0.207077695
   43    14.040006922     7.135926686     5.505590095    -0.392418552     0.243450485    -0.191675616
   44    18.980402130     4.135268075     4.788928929    -0.406508911     0.230023120    -0.178437299
   45    14.319832940     9.651975525     4.964754181    -0.380008047     0.251861832    -0.205327790
   46    17.411859350     1.330479165     2.264495525    -0.418643725     0.228467092    -0.150134004
   47    16.836323380     1.900212905     9.829260255    -0.381510798     0.250448185    -0.204267515
   48    20.041238486     3.557062772     0.750362347    -0.372319890     0.269557671    -0.196765246
   49    13.280704924     5.409221379     1.840257174     0.376241355    -0.227686042     0.237910717
   50    16.435464948     9.483307715     6.961311085    -0.367936984     0.257484682    -0.219827238
   51    19.712435052     5.916920093     0.889695971    -0.386094211     0.239453032    -0.208790578
   52    19.419887622     9.679301851     1.590874599    -0.367805584     0.254840903    -0.223103488
   53    18.689114285     4.359463470     9.513887405    -0.372908043     0.263719358    -0.203449482
   54    14.848226517     2.466172758     9.825305144    -0.369503172     0.282704192    -0.183154977
   55    13.294449663    10.134481985     2.726711678    -0.369576712     0.262280383    -0.211239331
   56    16.405591196     4.127103636     9.690764391    -0.381567172     0.252233578    -0.201952259
   57    15.295257715     6.053271340     7.320533047    -0.383856472     0.249097050    -0.201506498
   58    14.168218060     0.341403156     7.110862718    -0.371947835     0.264716868    -0.203911226
   59    15.819948101     1.820432930     7.825976431    -0.379229129     0.258929455    -0.197840353
   60    18.925254020     6.499748089     9.071597680    -0.373797162     0.259018798    -0.207809874
   61    19.090131324     1.873244424     9.975007506    -0.392344756     0.247720389    -0.186279900
   62    18.921900520     7.389154886     2.409169573    -0.388662468     0.241096861    -0.202024230
   63    12.184479823     7.922786403     9.603005531    -0.364752555     0.267396920    -0.213200519
   64    13.524439307     9.244478557     0.669824370    -0.372640751     0.253412830    -0.216612115
   65    14.651385017     3.971102473     3.516776941    -0.316980501     0.316968828    -0.221481656
   66    11.049694593     6.852849924     8.110132889    -0.360508490     0.272125372    -0.214432764
   67    17.880678059     2.881753983     8.221928993    -0.380216707     0.261630508    -0.192314152
   68    11.043718865     2.412240093     5.321296926    -0.451043741     0.201130609    -0.078141040
   21    21.937581266     6.625550151     4.387799670     0.380227892    -0.244677894     0.213446665
   22    29.269886936     2.009172605     6.427726391    -0.433673360     0.217338480    -0.121208094
   23    29.153960518     9.536498317     7.292566022    -0.375394511     0.258245513    -0.205883987
   24    24.100751092     4.424211965     8.120677442    -0.384735899     0.244587880    -0.205316968
   25    25.379409902     0.668062247     1.405693513    -0.367592181     0.263882103    -0.212702196
   26    21.938635859     1.250440130     7.942838721    -0.155092073    -0.363776905     0.305962109
   27    20.603259036     3.250698608     3.231042146    -0.383225532     0.255131487    -0.195054136
   28    27.596419754     5.689512354     1.500321010    -0.391852223     0.240923075    -0.195979355
   29    28.309049575     8.342325257     5.579835836    -0.366882128     0.264236584    -0.213486608
   30    27.079016305     9.255986637     2.276881110    -0.380825525     0.259051331    -0.194587583
   31    25.591385366    10.219737330     9.291272326    -0.373846343     0.266719644    -0.197736046
   32    27.718260255     0.870724567     8.520200828    -0.371550807     0.268463801    -0.199692726
   33    20.781483586     8.245051154     5.922418213    -0.374948021     0.265945746    -0.196689709
   34    30.378787558     3.229817115     8.640650688    -0.492105450    -0.048382331     0.074103821
   35    27.751076769     7.831461381     0.816863187    -0.383118900     0.254792439    -0.195705700
   36    27.264845138     2.818221257     6.150933894    -0.424071786     0.222552476    -0.143643711
   37    27.770404499     5.431101141     8.087645153    -0.376465349     0.256702554    -0.205858299
   38    25.855452689     6.348307912     4.786783900    -0.396050694     0.241553208    -0.186536580
   39    28.041959389     6.043648626     4.212309890    -0.405127695     0.228819530    -0.183066036
   40    22.808369821     9.062404373     6.759274791    -0.373756849     0.263456501    -0.202228805
   41    26.307741865     2.254308937     4.200251904    -0.423170853     0.220536444    -0.149298714
   42    20.591852144     8.695896404     3.649285954    -0.386282341     0.241172681    -0.206450213
   43    24.129662871     7.280586898     5.793676965    -0.392539003     0.243817016    -0.190961760
   44    29.070058080     4.279928286     5.077015799    -0.407240977     0.229470948    -0.177476393
   45    24.409488889     9.796635736     5.252841050    -0.380377663     0.251609031    -0.204952993
   46    27.501515300     1.475139377     2.552582395    -0.420006790     0.226717828    -0.148974236
   47    26.925979330     2.044873116    10.117347125    -0.380626996     0.253080415    -0.202665718
   48    30.130894436     3.701722983     1.038449216    -0.373248236     0.268850281    -0.195972653
   49    23.370360874     5.553881591     2.128344044     0.410969012    -0.192087909     0.210253910
   50    26.525120898     9.627967926     7.249397955    -0.368213132     0.256906877    -0.220040782
   51    29.802091001     6.061580305     1.177782840    -0.386485401     0.239224234    -0.208328588
   52    29.509543571     9.823962063     1.878961469    -0.368484350     0.254073406    -0.222858674
   53    28.778770235     4.504123682     9.801974275    -0.372189611     0.265843280    -0.201995655
   54    24.937882467     2.610832970    10.113392014    -0.368054266     0.285967969    -0.180992756
   55    23.384105613    10.279142197     3.014798548    -0.369943841     0.262232850    -0.210654900
   56    26.495247146     4.271763848     9.978851261    -0.380814575     0.254710688    -0.200256647
   57    25.384913664     6.197931552     7.608619917    -0.383592747     0.250418334    -0.200367818
   58    24.257874010     0.486063367     7.398949588    -0.371037635     0.267295431    -0.202198481
   59    25.909604051     1.965093141     8.114063300    -0.378508977     0.261243553    -0.196170232
   60    29.014909970     6.644408301     9.359684549    -0.373301362     0.260689247    -0.206608834
   61    29.179787274     2.017904635    10.263094375    -0.391453526     0.250304587    -0.184693668
   62    29.011556469     7.533815097     2.697256443    -0.388975610     0.240873610    -0.201687576
   63    22.274135773     8.067446615     9.891092401    -0.365412610     0.266721411    -0.212916211
   64    23.614095257     9.389138769     0.957911240    -0.372990887     0.253437808    -0.215979340
   65    24.741040967     4.115762685     3.804863811    -0.485976948     0.071731427    -0.093171929
   66    21.139350542     6.997510135     8.398219758    -0.361378880     0.271205207    -0.214133232
   67    27.970334009     3.026414194     8.510015863    -0.379549861     0.263753628    -0.190724742
   68    21.133374815     2.556900304     5.609383795    -0.449577299     0.203538471    -0.080326478
   21    32.027237216     6.770210362     4.675886540     0.378874440    -0.246562465     0.213684603
   22    39.359542886     2.153832817     6.715813260    -0.431536847     0.220831353    -0.122513113
   23    39.243616468     9.681158529     7.580652891    -0.373309275     0.261984135    -0.204949989
   24    34.190407042     4.568872177     8.408764312    -0.383152340     0.246358074    -0.206160092
   25    35.469065852     0.812722459     1.693780383    -0.366495722     0.264951188    -0.213264515
   26    32.028291809     1.395100342     8.230925590    -0.137894390    -0.360184471     0.318201641
   27    30.692914986     3.395358819     3.519129016    -0.384173698     0.254596745    -0.193884158
   28    37.686075704     5.834172566     1.788407880    -0.390412885     0.243085055    -0.196182148
   29    38.398705525     8.486985469     5.867922706    -0.364561309     0.268067627    -0.212684741
   30    37.168672255     9.400646849     2.564967980    -0.379184424     0.261651787    -0.194312932
   31    35.681041316    10.364397541     9.579359195    -0.371794217     0.269422554    -0.197940768
   32    37.807916205     1.015384778     8.808287698    -0.370290885     0.269391444    -0.200780752
   33    30.871139536     8.389711366     6.210505082    -0.374268029     0.266898819    -0.196693830
   34    40.468443507     3.374477327     8.928737557    -0.493012643    -0.043803197     0.070850643
   35    37.840732719     7.976121592     1.104950057    -0.381580411     0.256981525    -0.195849140
   36    37.354501087     2.962881468     6.439020764    -0.421682530     0.226326103    -0.144776860
   37    37.860060449     5.575761353     8.375732023    -0.374720435     0.258341475    -0.206988593
   38    35.945108638     6.492968124     5.074870769    -0.394676495     0.243596753    -0.186791559
   39    38.131615339     6.188308837     4.500396760    -0.403498943     0.231367977    -0.183459700
   40    32.898025771     9.207064585     7.047361661    -0.372410866     0.265169177    -0.202473343
   41    36.397397814     2.398969149     4.488338774    -0.420367662     0.224901620    -0.150699338
   42    30.681508094     8.840556615     3.937372824    -0.386247783     0.241353758    -0.206303207
   43    34.219318821     7.425247109     6.081763835    -0.391116141     0.245869495    -0.191249460
   44    39.159714029     4.424588498     5.365102668    -0.405361955     0.232410712    -0.177952090
   45    34.499144839     9.941295948     5.540927920    -0.378900964     0.253689976    -0.205123026
   46    37.591171250     1.619799589     2.840669265    -0.417535510     0.230410797    -0.150249668
   47    37.015635280     2.189533328    10.405433994    -0.379165098     0.254323466    -0.203846519
   48    40.220550386     3.846383195     1.326536086    -0.371580032     0.270962622    -0.196233374
   49    33.460016823     5.698541802     2.416430913     0.379417153    -0.231700073     0.228818051
   50    36.614776848     9.772628138     7.537484825    -0.366221096     0.259491109    -0.220332643
   51    39.891746951     6.206240517     1.465869710    -0.384988148     0.241420449    -0.208567238
   52    39.599199521     9.968622274     2.167048338    -0.366787070     0.256517080    -0.222859222
   53    38.868426185     4.648783894    10.090061145    -0.370481526     0.267295066    -0.203216108
   54    35.027538417     2.755493182    10.401478883    -0.366821299     0.287002004    -0.181857044
   55    33.473761563    10.423802409     3.302885417    -0.368697340     0.263883368    -0.210779125
   56    36.584903096     4.416424060    10.266938130    -0.379333924     0.256025599    -0.201386857
   57    35.474569614     6.342591764     7.896706786    -0.381980167     0.252303603    -0.201082183
   58    34.347529959     0.630723579     7.687036458    -0.370097739     0.267991125    -0.202998574
   59    35.999260000     2.109753353     8.402150170    -0.377247871     0.262389642    -0.197067805
   60    39.104565920     6.789068513     9.647771419    -0.371503650     0.262252527    -0.207866905
   61    39.269443224     2.162564847    10.551181245    -0.389825925     0.251920507    -0.185934952
   62    39.101212419     7.678475309     2.985343313    -0.387318062     0.243356488    -0.201896852
   63    32.363791723     8.212106827    10.179179270    -0.364513601     0.268145432    -0.212668433
   64    33.703751207     9.533798980     1.245998110    -0.371928729     0.254912252    -0.216075830
   65    34.830696916     4.260422896     4.092950681    -0.310772665     0.319339740    -0.226809351
   66    31.229006492     7.142170347     8.686306628    -0.360604972     0.272615821    -0.213646129
   67    38.059989959     3.171074406     8.798102732    -0.377936174     0.265159071    -0.191976341
   68    31.223030765     2.701560516     5.897470665    -0.450145223     0.202550367    -0.079640610
   21     1.893344838    16.361323248     3.842251355     0.377807521    -0.247512855     0.214473457
   22     9.225650508    11.744945703     5.882178075    -0.432846400     0.219434381    -0.120384994
   23     9.109724090    19.272271415     6.747017706    -0.374169296     0.259560215    -0.206460245
   24     4.056514663    14.159985063     7.575129127    -0.383680387     0.244963665    -0.206838497
   25     5.335173473    10.403835345     0.860145198    -0.367297571     0.263632946    -0.213518533
   26     1.894399430    10.986213228     7.397290405    -0.132819867    -0.336200445     0.345439060
   27     0.559022608    12.986471705     2.685493830    -0.383145059     0.253413226    -0.197437587
   28     7.552183325    15.425285452     0.954772694    -0.391133543     0.241352001    -0.196885152
   29     8.264813147    18.078098355     5.034287521    -0.365503577     0.265575680    -0.214188454
   30     7.034779876    18.991759735     1.731332795    -0.379900095     0.259556226    -0.195720422
   31     5.547148938    19.955510427     8.745724010    -0.372197377     0.268063988    -0.199024649
   32     7.674023826    10.606497664     7.974652512    -0.371045916     0.267931963    -0.201338997
   33     0.737247158    17.980824252     5.376869897    -0.373488260     0.267326728    -0.197592865
   34    10.334551129    12.965590213     8.095102372    -0.491322646    -0.046615388     0.080181440
   35     7.706840341    17.567234479     0.271314871    -0.382338422     0.255148885    -0.196764777
   36     7.220608709    12.553994354     5.605385579    -0.422913485     0.224571856    -0.143915481
   37     7.726168070    15.166874239     7.542096838    -0.375239677     0.257188075    -0.207483684
   38     5.811216260    16.084081010     4.241235584    -0.395206935     0.242075723    -0.187645471
   39     7.997722960    15.779421724     3.666761575    -0.404240165     0.229470719    -0.184209333
   40     2.764133393    18.798177471     6.213726475    -0.372210220     0.264751961    -0.203386212
   41     6.263505436    11.990082035     3.654703588    -0.421535493     0.223136771    -0.150059352
   42     0.547615716    18.431669501     3.103737638    -0.385033927     0.242714143    -0.206975168
   43     4.085426443    17.016359995     5.248128649    -0.391483423     0.244586246    -0.192141349
   44     9.025821651    14.015701384     4.531467483    -0.406238321     0.230336104    -0.178649672
   45     4.365252461    19.532408834     4.707292735    -0.378945017     0.252814352    -0.206120299
   46     7.457278871    11.210912475     2.007034079    -0.418635555     0.228704561    -0.149794848
   47     6.881742901    11.780646214     9.571798809    -0.379928525     0.252782335    -0.204341399
   48    10.086658007    13.437496081     0.492900900    -0.372531293     0.269451698    -0.196510097
   49     3.326124445    15.289654688     1.582795728     0.377055576    -0.235985562     0.228341646
   50     6.480884469    19.363741024     6.703849639    -0.366625708     0.258139902    -0.221245071
   51     9.757854573    15.797353403     0.632234525    -0.385715191     0.239577335    -0.209347778
   52     9.465307143    19.559735160     1.333413153    -0.367529982     0.254410416    -0.224046987
   53     8.734533807    14.239896780     9.256425959    -0.370959694     0.266074218    -0.203944640
   54     4.893646038    12.346606068     9.567843698    -0.367821780     0.285111311    -0.182807763
   55     3.339869184    20.014915295     2.469250232    -0.368649317     0.263100179    -0.211839507
   56     6.451010717    14.007536946     9.433302945    -0.379968939     0.254500674    -0.202121281
   57     5.340677236    15.933704650     7.063071601    -0.382540941     0.250877509    -0.201799167
   58     4.213637581    10.221836465     6.853401272    -0.370719059     0.266071748    -0.204384942
   59     5.865367622    11.700866239     7.568514984    -0.377947954     0.260644541    -0.198039811
   60     8.970673541    16.380181399     8.814136233    -0.371934777     0.261329032    -0.208258635
   61     9.135550845    11.753677733     9.717546060    -0.390775363     0.250232003    -0.186221803
   62     8.967320041    17.269588195     2.151708127    -0.388140575     0.241388504    -0.202678278
   63     2.229899344    17.803219713     9.345544085    -0.363732931     0.267936120    -0.214262900
   64     3.569858828    19.124911867     0.412362924    -0.371764012     0.254301522    -0.217076613
   65     4.696804538    13.851535782     3.259315495    -0.307183592     0.325456805    -0.222971094
   66     1.095114114    16.733283233     7.852671443    -0.359758863     0.272342161    -0.215414270
   67     7.926097580    12.762187292     7.964467547    -0.378741146     0.263656283    -0.192459110
   68     1.089138387    12.292673402     5.063835480    -0.445071076     0.217302376    -0.068493899
   21    11.983000787    16.505983460     4.130338224     0.378467798    -0.246691715     0.214255277
   22    19.315306458    11.889605915     6.170264945    -0.432591143     0.219479733    -0.121216954
   23    19.199380039    19.416931626     7.035104576    -0.374831775     0.259330593    -0.205545091
   24    14.146170613    14.304645274     7.863215996    -0.384779689     0.243972791    -0.205965698
   25    15.424829423    10.548495557     1.148232067    -0.367519169     0.263558074    -0.213229459
   26    11.984055380    11.130873440     7.685377275    -0.129900453    -0.365408996     0.315598064
   27    10.648678557    13.131131917     2.973580700    -0.382874249     0.254837065    -0.196125928
   28    17.641839275    15.569945664     1.242859564    -0.391303377     0.241424135    -0.196458786
   29    18.354469096    18.222758567     5.322374390    -0.366192249     0.265365589    -0.213270582
   30    17.124435826    19.136419947     2.019419664    -0.380148612     0.259684088    -0.195067187
   31    15.636804888    20.100170639     9.033810880    -0.372700521     0.268368502    -0.197668077
   32    17.763679776    10.751157876     8.262739382    -0.372104224     0.267217713    -0.200332574
   33    10.826903108    18.125484464     5.664956767    -0.373917168     0.267015838    -0.197201658
   34    20.424207079    13.110250425     8.383189242    -0.491814458    -0.041329380     0.080065104
   35    17.796496290    17.711894690     0.559401741    -0.382587494     0.255284520    -0.196103602
   36    17.310264659    12.698654566     5.893472448    -0.422916187     0.224345335    -0.144260422
   37    17.815824020    15.311534451     7.830183707    -0.376387780     0.256202855    -0.206621238
   38    15.900872210    16.228741222     4.529322454    -0.395867056     0.241544609    -0.186937090
   39    18.087378910    15.924081935     3.954848444    -0.404582484     0.229347834    -0.183609871
   40    12.853789342    18.942837683     6.501813345    -0.372729655     0.264629067    -0.202593340
   41    16.353161386    12.134742247     3.942790458    -0.421587135     0.222862274    -0.150321970
   42    10.637271665    18.576329713     3.391824508    -0.385484441     0.241869422    -0.207125393
   43    14.175082393    17.161020207     5.536215519    -0.392228825     0.243992293    -0.191374788
   44    19.115477601    14.160361596     4.819554353    -0.406478525     0.230277535    -0.178178185
   45    14.454908411    19.677069046     4.995379604    -0.379543519     0.252626740    -0.205247282
   46    17.546934821    11.355572686     2.295120949    -0.418745742     0.228410297    -0.149935786
   47    16.971398851    11.925306426     9.859885678    -0.381198469     0.251801490    -0.203183997
   48    20.176313957    13.582156293     0.780987770    -0.372501345     0.269570356    -0.196404102
   49    13.415780395    15.434314900     1.870882598     0.379314444    -0.229218145     0.231472664
   50    16.570540419    19.508401236     6.991936509    -0.367166897     0.258373065    -0.220072326
   51    19.847510523    15.942013614     0.920321394    -0.386017454     0.239624983    -0.208735222
   52    19.554963093    19.704395372     1.621500023    -0.367634723     0.254918602    -0.223296253
   53    18.824189756    14.384556991     9.544512829    -0.372298602     0.264996708    -0.202905140
   54    14.983301988    12.491266279     9.855930568    -0.369041404     0.284196934    -0.181770583
   55    13.429525134    20.159575507     2.757337102    -0.369273603     0.262757436    -0.211176552
   56    16.540666667    14.152197157     9.721389815    -0.381292240     0.253496865    -0.200886952
   57    15.430333186    16.078364861     7.351158471    -0.383550436     0.250007529    -0.200960938
   58    14.303293531    10.366496677     7.141488142    -0.371715531     0.265768671    -0.202964473
   59    15.955023572    11.845526451     7.856601854    -0.378974361     0.260005625    -0.196914978
   60    19.060329491    16.524841611     9.102223103    -0.373090250     0.260521856    -0.207200453
   61    19.225206795    11.898337945    10.005632929    -0.391893536     0.249359085    -0.185039194
   62    19.056975991    17.414248407     2.439794997    -0.388434584     0.241369927    -0.202136420
   63    12.319555294    17.947879924     9.633630955    -0.363650989     0.268769429    -0.213356398
   64    13.659514778    19.269572078     0.700449794    -0.372399757     0.253817173    -0.216553143
   65    14.786460488    13.996195994     3.547402365    -0.318808627     0.313742469    -0.223442884
   66    11.184770064    16.877943445     8.140758312    -0.359563055     0.273243923    -0.214597688
   67    18.015753530    12.906847504     8.252554417    -0.379903437     0.262642450    -0.191552399
   68    11.178794336    12.437333614     5.351922349    -0.449452137     0.204916936    -0.077471454
   21    22.072656737    16.650643672     4.418425094     0.378700386    -0.246513234     0.214049627
   22    29.404962407    12.034266126     6.458351814    -0.432394967     0.217911261    -0.124696731
   23    29.289035989    19.561591838     7.323191445    -0.374464187     0.260437917    -0.204813730
   24    24.235826563    14.449305486     8.151302866    -0.384982034     0.243828714    -0.205758091
   25    25.514485373    10.693155768     1.436318937    -0.368191277     0.263060500    -0.212683701
   26    22.073711330    11.275533651     7.973464144    -0.140131857    -0.346493375     0.332122574
   27    20.738334507    13.275792129     3.261667569    -0.383263825     0.255012111    -0.195134989
   28    27.731495225    15.714605876     1.530946434    -0.391903606     0.241228577    -0.195500224
   29    28.444125046    18.367418778     5.610461260    -0.365929291     0.266297676    -0.212558937
   30    27.214091776    19.281080158     2.307506534    -0.380383833     0.259988279    -0.194201531
   31    25.726460837    20.244830851     9.321897749    -0.372832358     0.268490394    -0.197253496
   32    27.853335726    10.895818088     8.550826252    -0.372337339     0.266707172    -0.200579635
   33    20.916559057    18.270144675     5.953043636    -0.374156383     0.267076483    -0.196665078
   34    30.513863029    13.254910636     8.671276111    -0.494024585    -0.041588794     0.064885143
   35    27.886152240    17.856554902     0.847488611    -0.383044175     0.255208672    -0.195309225
   36    27.399920609    12.843314778     6.181559318    -0.422911037     0.223262353    -0.145945801
   37    27.905479970    15.456194662     8.118270577    -0.376745793     0.255916086    -0.206323932
   38    25.990528160    16.373401433     4.817409323    -0.396280389     0.241209929    -0.186492958
   39    28.177034860    16.068742147     4.242935314    -0.405185231     0.228754142    -0.183020413
   40    22.943445292    19.087497894     6.789900215    -0.372920572     0.264720468    -0.202122045
   41    26.442817336    12.279402459     4.230877327    -0.421633119     0.221975072    -0.151501089
   42    20.726927615    18.720989925     3.679911378    -0.385812738     0.241901834    -0.206475262
   43    24.264738342    17.305680419     5.824302389    -0.392558910     0.243791646    -0.190953229
   44    29.205133551    14.305021807     5.107641222    -0.407300783     0.229332324    -0.177518331
   45    24.544564360    19.821729257     5.283466474    -0.379787920     0.252612299    -0.204812505
   46    27.636590771    11.500232898     2.583207819    -0.418918002     0.227560698    -0.150744276
   47    27.061054801    12.069966637    10.147972548    -0.381415461     0.251391004    -0.203285043
   48    30.265969907    13.726816504     1.069074640    -0.373674862     0.268964618    -0.195000337
   49    23.505436345    15.578975112     2.158969467     0.379366988    -0.229566478     0.231040950
   50    26.660196369    19.653061447     7.280023379    -0.367272514     0.258624934    -0.219599736
   51    29.937166472    16.086673826     1.208408264    -0.386486060     0.239464119    -0.208051582
   52    29.644619042    19.849055584     1.909586892    -0.367878646     0.254942698    -0.222866603
   53    28.913845706    14.529217203     9.832599699    -0.372752666     0.264786073    -0.202345709
   54    25.072957938    12.635926491    10.144017437    -0.369536393     0.283501604    -0.181850749
   55    23.519181084    20.304235718     3.045423971    -0.369427937     0.262853915    -0.210786192
   56    26.630322617    14.296857369    10.009476684    -0.381564237     0.253063536    -0.200916847
   57    25.519989135    16.223025073     7.639245340    -0.383805355     0.249809807    -0.200719978
   58    24.392949481    10.511156888     7.429575012    -0.372007694     0.264997990    -0.203436333
   59    26.044679522    11.990186662     8.144688724    -0.379201109     0.259407256    -0.197267318
   60    29.149985441    16.669501822     9.390309973    -0.373520433     0.260067121    -0.206996566
   61    29.314862745    12.042998156    10.293719799    -0.392063827     0.248950400    -0.185228654
   62    29.146631940    17.558908618     2.727881867    -0.388833266     0.241219850    -0.201548197
   63    22.409211244    18.092540136     9.921717824    -0.364411802     0.268203064    -0.212770193
   64    23.749170728    19.414232290     0.988536664    -0.372532208     0.253974660    -0.216140293
   65    24.876116438    14.140856206     3.835489234    -0.305852952     0.327795149    -0.221369175
   66    21.274426013    17.022603656     8.428845182    -0.360447783     0.272565995    -0.213974704
   67    28.105409480    13.051507715     8.540641286    -0.380183936     0.262340794    -0.191409202
   68    21.268450286    12.581993825     5.640009219    -0.448922674     0.205641759    -0.078612337
   21    32.162312687    16.795303883     4.706511964     0.378800694    -0.246417899     0.213981899
   22    39.494618357    12.178926338     6.746438684    -0.429711024     0.228417358    -0.114777815
   23    39.378691939    19.706252050     7.611278315    -0.374406460     0.259278459    -0.206384311
   24    34.325482513    14.593965698     8.439389735    -0.383720558     0.244989097    -0.206733828
   25    35.604141323    10.837815980     1.724405806    -0.366698119     0.265116441    -0.212710512
   26    32.163367280    11.420193863     8.261551014    -0.193732784    -0.346988686     0.303424554
   27    30.827990457    13.420452340     3.549754439    -0.385385323     0.253914996    -0.192367688
   28    37.821151175    15.859266087     1.819033303    -0.390690707     0.242570558    -0.196265882
   29    38.533780996    18.512078990     5.898548129    -0.365581076     0.265612797    -0.214010091
   30    37.303747726    19.425740370     2.595593404    -0.379815949     0.260491674    -0.194637953
   31    35.816116787    20.389491062     9.609984619    -0.373175085     0.266854491    -0.198819106
   32    37.942991676    11.040478299     8.838913121    -0.370250912     0.269393708    -0.200851418
   33    31.006215007    18.414804887     6.241130506    -0.374417503     0.266724819    -0.196645377
   34    40.603518978    13.399570848     8.959362981    -0.489140099    -0.022763835     0.101112669
   35    37.975808190    18.001215114     1.135575480    -0.382009741     0.256249995    -0.195970656
   36    37.489576558    12.987974989     6.469646188    -0.421010188     0.230360129    -0.140301936
   37    37.995135920    15.600854874     8.406357446    -0.375391285     0.256522121    -0.208033133
   38    36.080184109    16.518061645     5.105496193    -0.395254996     0.242421502    -0.187097043
   39    38.266690810    16.213402359     4.531022183    -0.403835086     0.230734249    -0.183518200
   40    33.033101242    19.232158106     7.077987084    -0.373084538     0.264147413    -0.202568684
   41    36.532473285    12.424062670     4.518964197    -0.419882093     0.228199234    -0.147051479
   42    30.816583565    18.865650136     3.967998247    -0.386058944     0.241769387    -0.206169966
   43    34.354394292    17.450340630     6.112389258    -0.391742030     0.244576819    -0.191625576
   44    39.294789500    14.449682019     5.395728092    -0.405593614     0.232040165    -0.177907791
   45    34.634220310    19.966389469     5.571553343    -0.379698891     0.252230452    -0.205447198
   46    37.726246721    11.644893110     2.871294688    -0.417141073     0.233028748    -0.147278402
   47    37.150710751    12.214626849    10.436059418    -0.379586641     0.253448733    -0.204151224
   48    40.355625857    13.871476716     1.357161509    -0.371561426     0.271163254    -0.195991317
   49    33.595092294    15.723635323     2.447056337     0.372968641    -0.230317821     0.240516308
   50    36.749852319    19.797721659     7.568110248    -0.367462543     0.257116214    -0.221048709
   51    40.026822422    16.231334038     1.496495133    -0.385359974     0.240667079    -0.208751161
   52    39.734274992    19.993715795     2.197673762    -0.367238649     0.255803794    -0.222935402
   53    39.003501656    14.673877415    10.120686568    -0.371125212     0.264967932    -0.205080647
   54    35.162613888    12.780586703    10.432104307    -0.367132472     0.286117264    -0.182621629
   55    33.608837034    20.448895930     3.333510841    -0.369503327     0.262746435    -0.210788051
   56    36.719978567    14.441517581    10.297563554    -0.379775612     0.254821973    -0.202079803
   57    35.609645085    16.367685285     7.927332210    -0.382630261     0.250799168    -0.201727193
   58    34.482605430    10.655817100     7.717661881    -0.369725075     0.268264372    -0.203316492
   59    36.134335471    12.134846874     8.432775593    -0.377137306     0.262497054    -0.197136372
   60    39.239641391    16.814162034     9.678396842    -0.372372816     0.260107832    -0.209003353
   61    39.404518695    12.187658368    10.581806669    -0.390496373     0.251045047    -0.185712055
   62    39.236287890    17.703568830     3.015968736    -0.387768861     0.242394622    -0.202188421
   63    32.498867194    18.237200348    10.209804694    -0.365174031     0.266908855    -0.213090567
   64    33.838826678    19.558892502     1.276623533    -0.372722124     0.253842431    -0.215968143
   65    34.965772388    14.285516417     4.123576104    -0.307790609     0.327324830    -0.219370456
   66    31.364081963    17.167263868     8.716932052    -0.361075076     0.271720967    -0.213991836
   67    38.195065430    13.196167927     8.828728156    -0.378186970     0.264106030    -0.192931647
   68    31.358106236    12.726654037     5.928096088    -0.448597896     0.203962244    -0.084612828
   21     2.028420309    26.386416769     3.872876778     0.378236566    -0.246805322     0.214532591
   22     9.360725979    21.770039224     5.912803499    -0.431841769     0.220277782    -0.122435230
   23     9.244799561    29.297364936     6.777643130    -0.374772304     0.258679175    -0.206472286
   24     4.191590134    24.185078584     7.605754550    -0.383841668     0.244436937    -0.207162152
   25     5.470248944    20.428928866     0.890770621    -0.366933667     0.263572008    -0.214218301
   26     2.029474901    21.011306749     7.427915829    -0.151140768    -0.344503859     0.329353243
   27     0.694098079    23.011565226     2.716119254    -0.384312818     0.254006073    -0.194382543
   28     7.687258796    25.450378973     0.985398118    -0.391013694     0.240943081    -0.197622677
   29     8.399888618    28.103191876     5.064912944    -0.366022614     0.264723187    -0.214357366
   30     7.169855347    29.016853256     1.761958218    -0.380112276     0.258953855    -0.196105988
   31     5.682224409    29.980603948     8.776349434    -0.373275786     0.266774386    -0.198737553
   32     7.809099297    20.631591185     8.005277936    -0.370853819     0.267949021    -0.201669946
   33     0.872322629    28.005917773     5.407495321    -0.374197621     0.266644585    -0.197172021
   34    10.469626600    22.990683734     8.125727796    -0.492403021    -0.040391508     0.076862157
   35     7.841915812    27.592328000     0.301940295    -0.382339492     0.254732405    -0.197301582
   36     7.355684180    22.579087875     5.636011002    -0.422217031     0.224868290    -0.145488938
   37     7.861243541    25.191967760     7.572722261    -0.375754084     0.256366000    -0.207570089
   38     5.946291731    26.109174531     4.271861008    -0.395318031     0.241612003    -0.188008761
   39     8.132798432    25.804515245     3.697386998    -0.404292092     0.228949692    -0.184742910
   40     2.899208864    28.823270992     6.244351899    -0.373039544     0.263757574    -0.203158659
   41     6.398580907    22.015175556     3.685329012    -0.420940807     0.223176280    -0.151661417
   42     0.682691187    28.456763022     3.134363062    -0.385716948     0.241928965    -0.206622389
   43     4.220501914    27.041453516     5.278754073    -0.391711578     0.244016883    -0.192400106
   44     9.160897122    24.040794905     4.562092906    -0.406251830     0.229774920    -0.179340281
   45     4.500327932    29.557502355     4.737918158    -0.379696130     0.251723543    -0.206073061
   46     7.592354342    21.236005996     2.037659503    -0.418208419     0.228531164    -0.151245580
   47     7.016818372    21.805739735     9.602424232    -0.379942906     0.252555711    -0.204594724
   48    10.221733479    23.462589602     0.523526324    -0.372184174     0.269217837    -0.197485941
   49     3.461199916    25.314748209     1.613421152     0.371868703    -0.236047665     0.236632980
   50     6.615959940    29.388834545     6.734475063    -0.367598821     0.256858207    -0.221122067
   51     9.892930044    25.822446924     0.662859948    -0.385686673     0.239166354    -0.209869591
   52     9.600382614    29.584828681     1.364038577    -0.367494979     0.254022551    -0.224543947
   53     8.869609278    24.264990301     9.287051383    -0.371498670     0.265271403    -0.204009366
   54     5.028721509    22.371699589     9.598469122    -0.367804230     0.285050267    -0.182938223
   55     3.474944655    30.040008816     2.499875656    -0.369521637     0.261834330    -0.211888045
   56     6.586086188    24.032630467     9.463928369    -0.380126763     0.254149704    -0.202266092
   57     5.475752707    25.958798171     7.093697025    -0.382689119     0.250417166    -0.202089784
   58     4.348713052    20.246929986     6.884026696    -0.370264297     0.266513054    -0.204634167
   59     6.000443093    21.725959760     7.599140408    -0.377628996     0.260824600    -0.198410860
   60     9.105749012    26.405274920     8.844761657    -0.372678389     0.260463263    -0.208013718
   61     9.270626317    21.778771254     9.748171483    -0.390729756     0.250150192    -0.186427302
   62     9.102395512    27.294681716     2.182333551    -0.388186269     0.240916986    -0.203151241
   63     2.364974815    27.828313234     9.376169509    -0.364633700     0.267385769    -0.213417702
   64     3.704934300    29.150005388     0.442988348    -0.372681933     0.252890666    -0.217150840
   65     4.831880009    23.876629303     3.289940919    -0.313949755     0.300456883    -0.247307931
   66     1.230189585    26.758376754     7.883296866    -0.360584424     0.271983875    -0.214484604
   67     8.061173051    22.787280813     7.995092971    -0.378901462     0.263168008    -0.192811519
   68     1.224213858    22.317766923     5.094460903    -0.448177824     0.206705584    -0.080058977
   21    12.118076258    26.531076981     4.160963648     0.378186107    -0.246969486     0.214432604
   22    19.450381929    21.914699436     6.200890368    -0.433055645     0.218074441    -0.122091547
   23    19.334455510    29.442025147     7.065729999    -0.374977594     0.260187640    -0.204191568
   24    14.281246084    24.329738795     7.893841420    -0.384384598     0.245000748    -0.205482638
   25    15.559904894    20.573589078     1.178857491    -0.367429811     0.263600662    -0.213330787
   26    12.119130851    21.155966961     7.716002698    -0.158279548    -0.350640617     0.319372420
   27    10.783754028    23.156225438     3.004206123    -0.383510247     0.253690225    -0.196369957
   28    17.776914746    25.595039185     1.273484988    -0.391272646     0.241925380    -0.195902595
   29    18.489544567    28.247852088     5.352999814    -0.366429069     0.266124299    -0.211914120
   30    17.259511297    29.161513468     2.050045088    -0.380072312     0.260392461    -0.194269924
   31    15.771880359    30.125264160     9.064436303    -0.373040118     0.268318900    -0.197093982
   32    17.898755247    20.776251397     8.293364805    -0.371385826     0.268149389    -0.200420741
   33    10.961978579    28.150577985     5.695582190    -0.374000244     0.266979727    -0.197092980
   34    20.559282550    23.135343946     8.413814665    -0.491753859    -0.049206157     0.075874213
   35    17.931571761    27.736988211     0.590027165    -0.382450917     0.255877471    -0.195596565
   36    17.445340130    22.723748087     5.924097872    -0.423059609     0.223868459    -0.144580358
   37    17.950899491    25.336627972     7.860809131    -0.376023245     0.257283882    -0.205940581
   38    16.035947681    26.253834743     4.559947877    -0.395731474     0.242277420    -0.186274668
   39    18.222454381    25.949175456     3.985473868    -0.404569413     0.229918200    -0.182924059
   40    12.988864813    28.967931204     6.532438768    -0.372938068     0.264591379    -0.202258744
   41    16.488236857    22.159835768     3.973415881    -0.421630687     0.222611514    -0.150571172
   42    10.772347136    28.601423234     3.422449932    -0.385515081     0.241621524    -0.207357569
   43    14.310157864    27.186113728     5.566840943    -0.392084599     0.244689071    -0.190779783
   44    19.250553072    24.185455117     4.850179776    -0.406566251     0.230717794    -0.177406829
   45    14.589983882    29.702162567     5.026005028    -0.379594052     0.252892033    -0.204826695
   46    17.682010292    21.380666207     2.325746373    -0.418779342     0.228223858    -0.150125726
   47    17.106474322    21.950399947     9.890511102    -0.380377883     0.252928971    -0.203321425
   48    20.311389428    23.607249814     0.811613194    -0.372579429     0.269678775    -0.196106929
   49    13.550855866    25.459408421     1.901508021     0.379465488    -0.234704977     0.225653533
   50    16.705615890    29.533494757     7.022561933    -0.367645145     0.258279008    -0.219383229
   51    19.982585994    25.967107135     0.950946818    -0.385940508     0.240189458    -0.208228117
   52    19.690038564    29.729488893     1.652125446    -0.367594550     0.255609495    -0.222571411
   53    18.959265227    24.409650512     9.575138253    -0.371786737     0.266254643    -0.202195667
   54    15.118377459    22.516359800     9.886555991    -0.367951928     0.285884259    -0.181332758
   55    13.564600605    30.184669028     2.787962525    -0.369068684     0.263319307    -0.210834649
   56    16.675742138    24.177290678     9.752015238    -0.380508726     0.254745728    -0.200792737
   57    15.565408657    26.103458382     7.381783894    -0.383195954     0.250998559    -0.200401058
   58    14.438369002    20.391590198     7.172113565    -0.370809946     0.266807067    -0.203258390
   59    16.090099043    21.870619972     7.887227278    -0.378221375     0.261048509    -0.196982911
   60    19.195404962    26.549935132     9.132848527    -0.372832171     0.261382779    -0.206579803
   61    19.360282266    21.923431466    10.036258353    -0.391310630     0.250118417    -0.185247857
   62    19.192051462    27.439341928     2.470420421    -0.388441975     0.241999906    -0.201367519
   63    12.454630765    27.972973445     9.664256378    -0.364248688     0.268176139    -0.213083204
   64    13.794590249    29.294665599     0.731075218    -0.372148352     0.254393570    -0.216308842
   65    14.921535959    24.021289515     3.578027788    -0.314900482     0.322593840    -0.216265811
   66    11.319845535    26.903036966     8.171383736    -0.360167844     0.272556541    -0.214457587
   67    18.150829001    22.931941025     8.283179840    -0.379279405     0.263758386    -0.191255448
   68    11.313869807    22.462427135     5.382547773    -0.448252285     0.206550295    -0.080042896
   21    22.207732208    26.675737193     4.449050518     0.378635163    -0.247853560     0.212612384
   22    29.540037878    22.059359647     6.488977238    -0.430511608     0.225083791    -0.118309096
   23    29.424111460    29.586685359     7.353816869    -0.374316036     0.260391825    -0.205142883
   24    24.370902034    24.474399007     8.181928289    -0.383942362     0.245905140    -0.205228956
   25    25.649560844    20.718249289     1.466944360    -0.367539330     0.263874044    -0.212803501
   26    22.208786801    21.300627172     8.004089568    -0.124342474    -0.357779776     0.326393292
   27    20.873409978    23.300885650     3.292292993    -0.383650153     0.255634808    -0.193554656
   28    27.866570696    25.739699397     1.561571857    -0.390828841     0.243040117    -0.195408082
   29    28.579200517    28.392512299     5.641086683    -0.365560598     0.266628102    -0.212779002
   30    27.349167247    29.306173679     2.338131958    -0.379606713     0.261095702    -0.194236396
   31    25.861536308    30.269924372     9.352523173    -0.372533901     0.269245628    -0.196787409
   32    27.988411197    20.920911609     8.581451675    -0.371292253     0.268541840    -0.200068345
   33    21.051634528    28.295238196     5.983669060    -0.374070527     0.267921273    -0.195676857
   34    30.648938500    23.280004157     8.701901535    -0.491346960    -0.028597685     0.088092776
   35    28.021227711    27.881648423     0.878114034    -0.382031234     0.256773759    -0.195241831
   36    27.534996080    22.868408299     6.212184742    -0.421465246     0.228354226    -0.142201949
   37    28.040555441    25.481288183     8.148896000    -0.375665368     0.257652389    -0.206132912
   38    26.125603631    26.398494954     4.848034747    -0.395165715     0.243553538    -0.185811012
   39    28.312110331    26.093835668     4.273560737    -0.403946446     0.231264828    -0.182602981
   40    23.078520763    29.112591416     6.820525638    -0.372612300     0.265655757    -0.201462385
   41    26.577892807    22.304495980     4.261502751    -0.420354816     0.226282029    -0.148654875
   42    20.862003086    28.746083446     3.710536801    -0.385845523     0.242586982    -0.205608337
   43    24.399813813    27.330773940     5.854927812    -0.391572785     0.245912279    -0.190257471
   44    29.340209022    24.330115329     5.138266646    -0.405775722     0.232338682    -0.177101100
   45    24.679639831    29.846822778     5.314091897    -0.379240373     0.253906481    -0.204225949
   46    27.771666242    21.525326419     2.613833242    -0.417671666     0.231250691    -0.148571522
   47    27.196130272    22.095060158    10.178597972    -0.380389701     0.253086991    -0.203102560
   48    30.401045378    23.751910026     1.099700063    -0.372148355     0.271242765    -0.194763868
   49    23.640511816    25.604068633     2.189594891     0.381246188    -0.232197307     0.225245988
   50    26.795271840    29.678154968     7.310648802    -0.366952506     0.259450284    -0.219160691
   51    30.072241943    26.111767347     1.239033687    -0.385456379     0.241244309    -0.207905179
   52    29.779694513    29.874149105     1.940212316    -0.367269823     0.256130456    -0.222508576
   53    29.048921177    24.554310724     9.863225122    -0.371582250     0.266019122    -0.202880405
   54    25.208033409    22.661020012    10.174642861    -0.368072542     0.285651485    -0.181454769
   55    23.654256555    30.329329239     3.076049395    -0.368729020     0.264139050    -0.210403118
   56    26.765398088    24.321950890    10.040102108    -0.380392450     0.254914232    -0.200799198
   57    25.655064606    26.248118594     7.669870764    -0.382700821     0.251949938    -0.200153218
   58    24.528024952    20.536250409     7.460200435    -0.371163593     0.266727281    -0.202716908
   59    26.179754993    22.015280183     8.175314147    -0.378200839     0.261412180    -0.196539557
   60    29.285060912    26.694595343     9.420935396    -0.372467801     0.261630162    -0.206923647
   61    29.449938216    22.068091677    10.324345223    -0.391205632     0.250696918    -0.184686786
   62    29.281707411    27.584002139     2.758507290    -0.387871844     0.242945560    -0.201327810
   63    22.544286715    28.117633657     9.952343248    -0.364322514     0.269015743    -0.211895341
   64    23.884246199    29.439325811     1.019162087    -0.371898991     0.255183244    -0.215806980
   65    25.011191909    24.165949727     3.866114658    -0.322378247     0.311291748    -0.221742449
   66    21.409501484    27.047697177     8.459470606    -0.360355810     0.273408472    -0.213052806
   67    28.240484951    23.076601236     8.571266710    -0.378994327     0.264036503    -0.191436739
   68    21.403525757    22.607087346     5.670634642    -0.449870755     0.202902269    -0.080293047
   21    32.297388158    26.820397404     4.737137387     0.378163209    -0.247606813     0.213736879
   22    39.629693828    22.204019859     6.777064107    -0.431990315     0.220178895    -0.122088582
   23    39.513767410    29.731345571     7.641903738    -0.374295746     0.260447561    -0.205109147
   24    34.460557984    24.619059219     8.470015159    -0.384626282     0.243787770    -0.206470692
   25    35.739216794    20.862909501     1.755031230    -0.367520356     0.264080299    -0.212580299
   26    32.298442751    21.445287384     8.292176437    -0.147317497    -0.337154000     0.338562750
   27    30.963065928    23.445545861     3.580379863    -0.383132866     0.255543489    -0.194696514
   28    37.956226646    25.884359608     1.849658727    -0.391608014     0.241134972    -0.196206751
   29    38.668856467    28.537172511     5.929173553    -0.365558642     0.266624686    -0.212786645
   30    37.438823197    29.450833891     2.626218827    -0.380246891     0.259863570    -0.194636139
   31    35.951192258    30.414584583     9.640610042    -0.372346973     0.269197747    -0.197206249
   32    38.078067147    21.065571820     8.869538545    -0.371534608     0.267081176    -0.201568054
   33    31.141290478    28.439898408     6.271755930    -0.373686592     0.267992187    -0.196312299
   34    40.738594449    23.424664369     8.989988404    -0.492562153    -0.039054737     0.076532690
   35    38.110883661    28.026308635     1.166200904    -0.382679069     0.255150911    -0.196098809
   36    37.624652029    23.013068510     6.500271611    -0.422517700     0.224849169    -0.144643163
   37    38.130211391    25.625948395     8.436982870    -0.376357491     0.255859702    -0.207101066
   38    36.215259580    26.543155166     5.136121616    -0.395927208     0.241517769    -0.186844356
   39    38.401766281    26.238495880     4.561647607    -0.404795856     0.229033969    -0.183531350
   40    33.168176713    29.257251627     7.108612508    -0.372566852     0.265271413    -0.202052018
   41    36.667548756    22.449156191     4.549589621    -0.421260968     0.223389218    -0.150454158
   42    30.951659036    28.890743657     3.998623671    -0.385277238     0.243166824    -0.205988703
   43    34.489469763    27.475434151     6.143014682    -0.392204234     0.244155885    -0.191216481
   44    39.429864971    24.474775540     5.426353515    -0.406791359     0.229888018    -0.177967102
   45    34.769295781    29.991482990     5.602178767    -0.379382306     0.253313374    -0.204698316
   46    37.861322192    21.669986631     2.901920112    -0.418517594     0.228862810    -0.149882746
   47    37.285786222    22.239720370    10.466684841    -0.380831793     0.251147146    -0.204675980
   48    40.490701328    23.896570237     1.387786933    -0.372759041     0.269222743    -0.196391985
   49    33.730167765    25.748728844     2.477681760     0.379114723    -0.227743072     0.233249052
   50    36.884927790    29.822815180     7.598735672    -0.366764809     0.259283109    -0.219672129
   51    40.161897893    26.256427559     1.527120557    -0.386135239     0.239420045    -0.208752531
   52    39.869350463    30.018809316     2.228299185    -0.367765573     0.254853129    -0.223155474
   53    39.138577127    24.698970936    10.151311992    -0.372304172     0.264482251    -0.203565082
   54    35.297689359    22.805680224    10.462729730    -0.368807089     0.283726872    -0.182976482
   55    33.743912505    30.473989451     3.364136264    -0.369021830     0.263645033    -0.210509349
   56    36.855054038    24.466611102    10.328188977    -0.381001473     0.253015196    -0.202042539
   57    35.744720556    26.392778806     7.957957633    -0.383466541     0.249838066    -0.201331449
   58    34.617680902    20.680910621     7.748287305    -0.371270640     0.265281632    -0.204410782
   59    36.269410942    22.159940395     8.463401017    -0.378493656     0.259759089    -0.198160966
   60    39.374716862    26.839255555     9.709022266    -0.373163522     0.260071833    -0.207633397
   61    39.539594166    22.212751889    10.612432092    -0.391613152     0.248555042    -0.186707069
   62    39.371363361    27.728662351     3.046594160    -0.388558857     0.241347067    -0.201924759
   63    32.633942665    28.262293869    10.240430118    -0.363994498     0.269043860    -0.212422708
   64    33.973902149    29.583986023     1.307248957    -0.372149107     0.254821346    -0.215803438
   65    35.100847859    24.310609938     4.154201528    -0.307341003     0.328750155    -0.217864278
   66    31.499157434    27.192357389     8.747557475    -0.360000358     0.273505963    -0.213528056
   67    38.330140901    23.221261448     8.859353579    -0.379576680     0.262384117    -0.192551603
   68    31.493181707    22.751747558     5.958721512    -0.446170020     0.213065459    -0.074400424
   21     2.163495780    36.411510290     3.903502202     0.378166160    -0.247023894     0.214405110
   22     9.495801450    31.795132745     5.943428922    -0.432079172     0.219767990    -0.122513754
   23     9.379875032    39.322458457     6.808268553    -0.375386160     0.258052438    -0.206141141
   24     4.326665605    34.210172105     7.636379974    -0.384532562     0.243354251    -0.207155540
   25     5.605324415    30.454022387     0.921396045    -0.367536571     0.262714349    -0.214238279
   26     2.164550372    31.036400270     7.458541252    -0.131342867    -0.351583432     0.330360623
   27     0.829173550    33.036658747     2.746744677    -0.383174434     0.254956886    -0.195382548
   28     7.822334267    35.475472494     1.016023542    -0.391461709     0.239912889    -0.197988727
   29     8.534964089    38.128285397     5.095538368    -0.366673111     0.264039906    -0.214088200
   30     7.304930818    39.041946777     1.792583642    -0.380349146     0.258575186    -0.196146375
   31     5.817299880    40.005697469     8.806974857    -0.372769431     0.267906978    -0.198163575
   32     7.944174769    30.656684706     8.035903359    -0.371686253     0.266865313    -0.201574388
   33     1.007398100    38.031011294     5.438120744    -0.373648815     0.267362163    -0.197241062
   34    10.604702071    33.015777255     8.156353219    -0.492686327    -0.039074881     0.075718801
   35     7.976991283    37.617421521     0.332565719    -0.382782973     0.254057745    -0.197311575
   36     7.490759651    32.604181396     5.666636426    -0.422732442     0.223922794    -0.145450558
   37     7.996319012    35.217061281     7.603347685    -0.376268750     0.255611624    -0.207568123
   38     6.081367202    36.134268052     4.302486431    -0.395729086     0.240826241    -0.188152100
   39     8.267873903    35.829608766     3.728012422    -0.404712240     0.228027746    -0.184963103
   40     3.034284335    38.848364513     6.274977322    -0.372617883     0.264377680    -0.203126452
   41     6.533656378    32.040269077     3.715954435    -0.421412894     0.222402541    -0.151486906
   42     0.817766658    38.481856543     3.164988486    -0.385212366     0.242580420    -0.206799838
   43     4.355577385    37.066547037     5.309379497    -0.392015363     0.243474414    -0.192468607
   44     9.295972593    34.065888426     4.592718330    -0.406650494     0.228860960    -0.179605224
   45     4.635403403    39.582595876     4.768543582    -0.379316930     0.252411312    -0.205930075
   46     7.727429813    31.261099517     2.068284927    -0.418656411     0.227798851    -0.151110862
   47     7.151893843    31.830833256     9.633049656    -0.380772737     0.251412870    -0.204459511
   48    10.356808950    33.487683123     0.554151748    -0.372768177     0.267909112    -0.198163048
   49     3.596275387    35.339841730     1.644046575     0.382988636    -0.227906818     0.226667569
   50     6.751035411    39.413928066     6.765100486    -0.367218121     0.257880358    -0.220564213
   51    10.028005515    35.847540445     0.693485372    -0.386173365     0.238269259    -0.209994982
   52     9.735458085    39.609922202     1.394664000    -0.367904409     0.253634254    -0.224312308
   53     9.004684749    34.290083822     9.317676806    -0.372186389     0.264400971    -0.203885798
   54     5.163796980    32.396793110     9.629094545    -0.368841507     0.283496688    -0.183263664
   55     3.610020126    40.065102337     2.530501079    -0.368896324     0.262737027    -0.211860229
   56     6.721161659    34.057723988     9.494553792    -0.380915520     0.252965107    -0.202267204
   57     5.610828178    35.983891692     7.124322448    -0.383324714     0.249392442    -0.202152351
   58     4.483788523    30.272023507     6.914652119    -0.371408893     0.265169920    -0.204304547
   59     6.135518564    31.751053281     7.629765832    -0.378638655     0.259526690    -0.198188462
   60     9.240824483    36.430368441     8.875387081    -0.373100960     0.259818380    -0.208062690
   61     9.405701788    31.803864775     9.778796907    -0.391541679     0.249002156    -0.186260676
   62     9.237470983    37.319775237     2.212958975    -0.388562392     0.240088309    -0.203413055
   63     2.500050287    37.853406755     9.406794932    -0.363692910     0.268855929    -0.213175882
   64     3.840009771    39.175098909     0.473613771    -0.372004273     0.253899283    -0.217135845
   65     4.966955480    33.901722824     3.320566342    -0.316428362     0.318627431    -0.219885543
   66     1.365265056    36.783470275     7.913922290    -0.359581441     0.273448700    -0.214305846
   67     8.196248522    32.812374334     8.025718394    -0.379628998     0.262173785    -0.192734870
   68     1.359289329    32.342860444     5.125086327    -0.448243946     0.208495306    -0.074880386
   21    12.253151729    36.556170502     4.191589072     0.379256328    -0.245019797     0.214778809
   22    19.585457400    31.939792957     6.231515792    -0.432756731     0.221292330    -0.117266009
   23    19.469530981    39.467118668     7.096355423    -0.375178005     0.258473910    -0.205991995
   24    14.416321555    34.354832316     7.924466843    -0.384732947     0.244287031    -0.205680349
   25    15.694980365    30.598682599     1.209482914    -0.367158569     0.264339601    -0.212882974
   26    12.254206322    31.181060482     7.746628122    -0.163452152    -0.350567862     0.316836817
   27    10.918829499    33.181318959     3.034831547    -0.384111765     0.252390798    -0.196868072
   28    17.911990217    35.620132706     1.304110411    -0.391127767     0.241856330    -0.196276810
   29    18.624620038    38.272945609     5.383625237    -0.366311572     0.264820480    -0.213742709
   30    17.394586768    39.186606989     2.080670512    -0.379990834     0.260162204    -0.194737242
   31    15.906955830    40.150357681     9.095061727    -0.373829191     0.266241191    -0.198412106
   32    18.033830718    30.801344918     8.323990229    -0.371771271     0.268118988    -0.199745665
   33    11.097054050    38.175671506     5.726207614    -0.374702993     0.265601735    -0.197619294
   34    20.694358021    33.160437467     8.444440089    -0.490457037    -0.043942391     0.086723477
   35    18.066647233    37.762081732     0.620652588    -0.382308392     0.255697258    -0.196110188
   36    17.580415601    32.748841608     5.954723296    -0.423028988     0.225824205    -0.141597683
   37    18.085974962    35.361721493     7.891434554    -0.376563139     0.256196382    -0.206309516
   38    16.171023152    36.278928264     4.590573301    -0.395745386     0.241760775    -0.186915267
   39    18.357529852    35.974268977     4.016099291    -0.404420115     0.229776478    -0.183431571
   40    13.123940284    38.993024725     6.563064192    -0.373424155     0.263275779    -0.203076992
   41    16.623312328    32.184929289     4.004041305    -0.421613848     0.224342329    -0.148027979
   42    10.907422607    38.626516755     3.453075355    -0.386130590     0.240442370    -0.207582836
   43    14.445233335    37.211207249     5.597466366    -0.392198447     0.243930602    -0.191515637
   44    19.385628543    34.210548638     4.880805200    -0.406390428     0.230767999    -0.177744060
   45    14.725059353    39.727256088     5.056630451    -0.380036122     0.251515723    -0.205699749
   46    17.817085763    31.405759728     2.356371796    -0.418656337     0.229821375    -0.148016914
   47    17.241549793    31.975493468     9.921136526    -0.380894255     0.252455256    -0.202943120
   48    20.446464899    33.632343335     0.842238617    -0.372213681     0.269996048    -0.196364736
   49    13.685931337    35.484501942     1.932133445     0.387253822    -0.224517047     0.222770224
   50    16.840691361    39.558588278     7.053187356    -0.368270190     0.256240332    -0.220721452
   51    20.117661465    35.992200656     0.981572241    -0.385743576     0.240073544    -0.208726106
   52    19.825114035    39.754582414     1.682750870    -0.367569058     0.255268508    -0.223004432
   53    19.094340698    34.434744033     9.605763676    -0.372273628     0.265150925    -0.202749433
   54    15.253452930    32.541453321     9.917181415    -0.368706423     0.284908541    -0.181335868
   55    13.699676076    40.209762549     2.818587949    -0.369388462     0.262356707    -0.211473692
   56    16.810817609    34.202384199     9.782640662    -0.381031848     0.254103695    -0.200614166
   57    15.700484128    36.128551903     7.412409318    -0.383536822     0.250193986    -0.200754765
   58    14.573444473    30.416683719     7.202738989    -0.371086545     0.266837170    -0.202713348
   59    16.225174514    31.895713493     7.917852701    -0.378531588     0.261053211    -0.196379881
   60    19.330480433    36.575028653     9.163473950    -0.373366156     0.260160237    -0.207157826
   61    19.495357737    31.948524987    10.066883776    -0.391727388     0.249820695    -0.184768163
   62    19.327126933    37.464435449     2.501045844    -0.388319097     0.241748023    -0.201906346
   63    12.589706236    37.998066966     9.694881802    -0.364900698     0.266904706    -0.213563477
   64    13.929665720    39.319759120     0.761700641    -0.372459805     0.253492611    -0.216829863
   65    15.056611430    34.046383036     3.608653212    -0.327061225     0.305385603    -0.223093228
   66    11.454921006    36.928130487     8.202009160    -0.360877846     0.271387130    -0.214746842
   67    18.285904472    32.957034546     8.313805264    -0.379572597     0.263422255    -0.191137016
   68    11.448945278    32.487520656     5.413173196    -0.448273568     0.206430296    -0.080233043
   21    22.342807679    36.700830714     4.479675941     0.378154487    -0.247376951     0.214018290
   22    29.675113349    32.084453168     6.519602661    -0.432715315     0.218456769    -0.122613604
   23    29.559186931    39.611778880     7.384442292    -0.374845397     0.259794577    -0.204933419
   24    24.505977505    34.499492528     8.212553713    -0.383799417     0.246268840    -0.205060153
   25    25.784636315    30.743342810     1.497569784    -0.366881220     0.264871963    -0.212699350
   26    22.343862272    31.325720693     8.034714991    -0.130365811    -0.361933294     0.319388550
   27    21.008485449    33.325979171     3.322918417    -0.382983599     0.254707975    -0.196080112
   28    28.001646167    35.764792918     1.592197281    -0.391001965     0.242342893    -0.195926991
   29    28.714275988    38.417605820     5.671712107    -0.366156364     0.265857313    -0.212719079
   30    27.484242718    39.331267200     2.368757381    -0.380167991     0.260192324    -0.194350852
   31    25.996611779    40.295017893     9.383148596    -0.372910906     0.268710297    -0.196805063
   32    28.123486668    30.946005130     8.612077099    -0.371020326     0.269127482    -0.199785677
   33    21.186710000    38.320331717     6.014294484    -0.374197309     0.267147508    -0.196490670
   34    30.784013971    33.305097678     8.732526958    -0.492472019    -0.049728685     0.070699138
   35    28.156303182    37.906741944     0.908739458    -0.382207932     0.256249409    -0.195584603
   36    27.670071551    32.893501820     6.242810165    -0.422713461     0.224433122    -0.144717325
   37    28.175630912    35.506381704     8.179521424    -0.375492807     0.258228490    -0.205726028
   38    26.260679102    36.423588475     4.878660170    -0.395463242     0.242852915    -0.186094831
   39    28.447185802    36.118929189     4.304186161    -0.404220225     0.230469442    -0.183002311
   40    23.213596234    39.137684937     6.851151062    -0.372972661     0.264777675    -0.201950927
   41    26.712968278    32.329589501     4.292128175    -0.421317568     0.223146616    -0.150655551
   42    20.997078557    38.771176967     3.741162225    -0.385722807     0.242051961    -0.206467345
   43    24.534889284    37.355867461     5.885553236    -0.391875620     0.245204965    -0.190546645
   44    29.475284493    34.355208850     5.168892069    -0.406171030     0.231322110    -0.177525141
   45    24.814715302    39.871916299     5.344717321    -0.379608324     0.253161304    -0.204467295
   46    27.906741713    31.550419940     2.644458666    -0.418393851     0.228976782    -0.150054051
   47    27.331205743    32.120153679    10.209223395    -0.379921570     0.254028437    -0.202803239
   48    30.536120849    33.777003547     1.130325487    -0.372074982     0.270479079    -0.195962435
   49    23.775587287    35.629162154     2.220220314     0.371795969    -0.235805598     0.236988349
   50    26.930347311    39.703248490     7.341274226    -0.367322049     0.258948353    -0.219135261
   51    30.207317415    36.136860868     1.269659111    -0.385594191     0.240726772    -0.208249229
   52    29.914769984    39.899242626     1.970837739    -0.367710458     0.255430134    -0.222585861
   53    29.183996648    34.579404245     9.893850546    -0.371221374     0.267304689    -0.201848692
   54    25.343108880    32.686113533    10.205268284    -0.367439295     0.286821098    -0.180892295
   55    23.789332026    40.354422760     3.106674818    -0.369257015     0.263330441    -0.210490703
   56    26.900473559    34.347044411    10.070727531    -0.380014402     0.255901213    -0.200258892
   57    25.790140077    36.273212115     7.700496187    -0.382728077     0.252027023    -0.200003997
   58    24.663100423    30.561343930     7.490825859    -0.370788542     0.267700151    -0.202119980
   59    26.314830464    32.040373704     8.205939571    -0.378025742     0.261930807    -0.196185602
   60    29.420136383    36.719688864     9.451560820    -0.372285010     0.262421727    -0.206249142
   61    29.585013687    32.093185198    10.354970646    -0.390691310     0.251319749    -0.184928863
   62    29.416782882    37.609095660     2.789132714    -0.388051682     0.242434665    -0.201596937
   63    22.679362186    38.142727178     9.982968672    -0.364691465     0.268258909    -0.212219918
   64    24.019321670    39.464419332     1.049787511    -0.372445143     0.254333116    -0.215868667
   65    25.146267380    34.191043248     3.896740082    -0.324218556     0.278611327    -0.259341583
   66    21.544576955    37.072790698     8.490096029    -0.360771337     0.272474778    -0.213545166
   67    28.375560422    33.101694757     8.601892133    -0.378735738     0.264892126    -0.190765307
   68    21.538601228    32.632180867     5.701260066    -0.449085785     0.207225590    -0.073345161
   21    32.432463629    36.845490925     4.767762811     0.377937329    -0.248276440     0.213359286
   22    39.764769299    32.229113380     6.807689531    -0.432016435     0.222004470    -0.118641543
   23    39.648842881    39.756439092     7.672529162    -0.373703191     0.260640723    -0.205942562
   24    34.595633455    34.644152740     8.500640582    -0.383417465     0.246163784    -0.205899099
   25    35.874292265    30.888003022     1.785656654    -0.367303978     0.264115968    -0.212909706
   26    32.433518222    31.470380905     8.322801861    -0.151368202    -0.360238182     0.311955316
   27    31.098141399    33.470639382     3.611005286    -0.382940997     0.256723398    -0.193518190
   28    38.091302117    35.909453129     1.880284150    -0.390598579     0.242510737    -0.196523007
   29    38.803931938    38.562266032     5.959798976    -0.364961333     0.266851216    -0.213526705
   30    37.573898668    39.475927412     2.656844251    -0.379370961     0.260864499    -0.195006121
   31    36.086267729    40.439678104     9.671235466    -0.371815343     0.269525600    -0.197760717
   32    38.213142618    31.090665341     8.900163968    -0.370877387     0.269021154    -0.200193861
   33    31.276365949    38.464991929     6.302381353    -0.373528736     0.268226481    -0.196292737
   34    40.873669920    33.449757890     9.020613828    -0.490862757    -0.039256186     0.086675866
   35    38.245959132    38.051402156     1.196826327    -0.381844979     0.256252825    -0.196287802
   36    37.759727501    33.038162031     6.530897035    -0.422442423     0.226327839    -0.142541603
   37    38.265286862    35.651041916     8.467608294    -0.375060865     0.258038140    -0.206750251
   38    36.350335051    36.568248687     5.166747040    -0.394961429     0.243247645    -0.186644187
   39    38.536841752    36.263589401     4.592273030    -0.403962933     0.230570243    -0.183442938
   40    33.303252184    39.282345148     7.139237931    -0.372089708     0.265848361    -0.202172942
   41    36.802624227    32.474249712     4.580215044    -0.421173305     0.224587519    -0.148907666
   42    31.086734507    38.915837178     4.029249094    -0.385335452     0.243041830    -0.206027324
   43    34.624545234    37.500527672     6.173640105    -0.391290339     0.245715654    -0.191090783
   44    39.564940442    34.499869061     5.456978939    -0.406013663     0.231406151    -0.177775416
   45    34.904371252    40.016576511     5.632804190    -0.378794282     0.253979496    -0.204961722
   46    37.996397663    31.695080152     2.932545535    -0.418369007     0.229847069    -0.148787428
   47    37.420861693    32.264813891    10.497310265    -0.379886071     0.253814604    -0.203137194
   48    40.625776799    33.921663758     1.418412356    -0.372039189     0.270351275    -0.196206599
   49    33.865243236    35.773822365     2.508307184     0.383402111    -0.235323853     0.218232686
   50    37.020003261    39.847908701     7.629361095    -0.366221860     0.259603556    -0.220198871
   51    40.296973364    36.281521080     1.557745980    -0.385278442     0.240643624    -0.208928620
   52    40.004425934    40.043902837     2.258924609    -0.367060311     0.255709390    -0.223337045
   53    39.273652598    34.724064457    10.181937415    -0.370833527     0.266803133    -0.203220529
   54    35.432764830    32.830773745    10.493355154    -0.367539730     0.286357625    -0.181421767
   55    33.878987976    40.499082972     3.394761688    -0.368479348     0.264081967    -0.210911557
   56    36.990129509    34.491704623    10.358814401    -0.379862016     0.255598527    -0.200933427
   57    35.879796027    36.417872327     7.988583057    -0.382238026     0.252104693    -0.200841517
   58    34.752756373    30.706004142     7.778912728    -0.370505649     0.267794271    -0.202513686
   59    36.404486414    32.185033916     8.494026440    -0.377752187     0.262094316    -0.196493906
   60    39.509792333    36.864349076     9.739647689    -0.371816467     0.262067909    -0.207540180
   61    39.674669637    32.237845410    10.643057516    -0.390630165     0.251442891    -0.184890634
   62    39.506438832    37.753755872     3.077219583    -0.387761801     0.242410258    -0.202183215
   63    32.769018136    38.287387390    10.271055541    -0.363473126     0.269732389    -0.212442286
   64    34.108977620    39.609079544     1.337874380    -0.371678980     0.255148515    -0.216226667
   65    35.235923330    34.335703459     4.184826951    -0.311347149     0.321065272    -0.223562170
   66    31.634232905    37.217450910     8.778182899    -0.359519541     0.274224773    -0.213416197
   67    38.465216372    33.246354969     8.889979003    -0.378457977     0.264695328    -0.191587952
   68    31.628257178    32.776841079     5.989346936    -0.449592308     0.203014317    -0.081559448
   21     2.045140537     6.368365464    13.823611293     0.377535109    -0.247546290     0.214914112
   22     9.377446208     1.751987918    15.863538013    -0.432831956     0.219526086    -0.120269676
   23     9.261519789     9.279313630    16.728377644    -0.374061356     0.259732529    -0.206439132
   24     4.208310363     4.167027278    17.556489065    -0.383638377     0.245300453    -0.206517029
   25     5.486969173     0.410877561    10.841505136    -0.367246059     0.263478071    -0.213798126
   26     2.046195130     0.993255443    17.378650343    -0.162361293    -0.347027067     0.321264728
   27     0.710818307     2.993513921    12.666853769    -0.382249640     0.255448573    -0.196548312
   28     7.703979025     5.432327668    10.936132633    -0.391098231     0.241153379    -0.197198433
   29     8.416608846     8.085140570    15.015647459    -0.365236917     0.265863522    -0.214286215
   30     7.186575576     8.998801951    11.712692733    -0.379715570     0.259773586    -0.195790116
   31     5.698944638     9.962552643    18.727083948    -0.372186385     0.268280080    -0.198753853
   32     7.825819526     0.613539880    17.956012451    -0.371003886     0.268389943    -0.200805764
   33     0.889042858     7.987866467    15.358229835    -0.373178596     0.267514096    -0.197924085
   34    10.486346829     2.972632428    18.076462310    -0.491403694    -0.045369119     0.080399334
   35     7.858636041     7.574276694    10.252674810    -0.382259465     0.255112717    -0.196964979
   36     7.372404409     2.561036570    15.586745517    -0.422965944     0.224456360    -0.143941492
   37     7.877963770     5.173916455    17.523456776    -0.375509856     0.257137132    -0.207057585
   38     5.963011960     6.091123225    14.222595522    -0.394975702     0.242463839    -0.187631240
   39     8.149518660     5.786463939    13.648121513    -0.404004348     0.229700231    -0.184440480
   40     2.915929093     8.805219687    16.195086414    -0.372040551     0.264918359    -0.203479953
   41     6.415301136     1.997124251    13.636063527    -0.421713176     0.222736070    -0.150155388
   42     0.699411415     8.438711717    13.085097577    -0.384694778     0.242717097    -0.207601393
   43     4.237222143     7.023402211    15.229488588    -0.391253871     0.244984844    -0.192101105
   44     9.177617351     4.022743600    14.512827421    -0.405955405     0.230561608    -0.179001547
   45     4.517048161     9.539451049    14.688652673    -0.378830603     0.252972304    -0.206136818
   46     7.609074571     1.217954690    11.988394018    -0.418835964     0.228241039    -0.149941533
   47     7.033538601     1.787688429    19.553158747    -0.379934874     0.253315727    -0.203667950
   48    10.238453707     3.444538297    10.474260839    -0.372420261     0.269161742    -0.197116985
   49     3.477920145     5.296696904    11.564155666     0.384966091    -0.222446874     0.228732369
   50     6.632680169     9.370783240    16.685209578    -0.366513319     0.258368535    -0.221164389
   51     9.909650273     5.804395618    10.613594463    -0.385644923     0.239466882    -0.209603449
   52     9.617102843     9.566777376    11.314773091    -0.367365750     0.254663111    -0.224029251
   53     8.886329506     4.246938995    19.237785898    -0.371275221     0.266088783    -0.203350609
   54     5.045441738     2.353648283    19.549203636    -0.367907034     0.285624508    -0.181832490
   55     3.491664884    10.021957510    12.450610170    -0.368449094     0.263245376    -0.212007400
   56     6.602806417     4.014579161    19.414662883    -0.380162291     0.254772217    -0.201414374
   57     5.492472936     5.940746865    17.044431539    -0.382487248     0.251184204    -0.201519233
   58     4.365433281     0.228878680    16.834761211    -0.370384486     0.267078976    -0.203676591
   59     6.017163322     1.707908454    17.549874923    -0.377821795     0.261290391    -0.197428527
   60     9.122469241     6.387223614    18.795496172    -0.372375129     0.261040809    -0.207832768
   61     9.287346545     1.760719949    19.698905998    -0.390785608     0.250757858    -0.185491523
   62     9.119115741     7.276630410    12.133068066    -0.387992263     0.241424269    -0.202919507
   63     2.381695044     7.810261928    19.326904024    -0.363534564     0.268190116    -0.214281784
   64     3.721654528     9.131954082    10.393722863    -0.371509482     0.254465746    -0.217319785
   65     4.848600238     3.858577998    13.240675434    -0.344902548     0.281279662    -0.227868349
   66     1.246909814     6.740325449    17.834031381    -0.359458848     0.272651423    -0.215523870
   67     8.077893280     2.769229508    17.945827485    -0.378758781     0.263966523    -0.191998595
   68     1.240934086     2.299715618    15.045195418    -0.446601922     0.210876765    -0.077959691
   21    12.134796487     6.513025675    14.111698163     0.378385927    -0.246451122     0.214676349
   22    19.467102157     1.896648130    16.151624883    -0.433749669     0.215665143    -0.123894191
   23    19.351175739     9.423973842    17.016464514    -0.375503306     0.258809291    -0.204975653
   24    14.297966313     4.311687490    17.844575934    -0.385116438     0.243411186    -0.206000786
   25    15.576625123     0.555537772    11.129592005    -0.368307285     0.261876485    -0.213940297
   26    12.135851080     1.137915655    17.666737213    -0.139151461    -0.361296668     0.316388351
   27    10.800474257     3.138174132    12.954940638    -0.382386001     0.254902302    -0.196991783
   28    17.793634975     5.576987879    11.224219502    -0.392302493     0.239384544    -0.196961403
   29    18.506264796     8.229800782    15.303734328    -0.366959491     0.264601587    -0.212900756
   30    17.276231526     9.143462162    12.000779603    -0.381058914     0.258336411    -0.195080503
   31    15.788600587    10.107212855    19.015170818    -0.373471780     0.267415547    -0.197503809
   32    17.915475476     0.758200091    18.244099320    -0.372016106     0.267027341    -0.200749635
   33    10.978698808     8.132526679    15.646316705    -0.374158997     0.266609250    -0.197293062
   34    20.576002779     3.117292640    18.364549180    -0.492438948    -0.050596295     0.070312856
   35    17.948291990     7.718936906    10.540761679    -0.383598947     0.253519507    -0.196417176
   36    17.462060359     2.705696781    15.874832387    -0.423853750     0.221445448    -0.145979149
   37    17.967619720     5.318576666    17.811543646    -0.376779521     0.255832623    -0.206365844
   38    16.052667910     6.235783437    14.510682392    -0.396548701     0.240228028    -0.187188734
   39    18.239174610     5.931124151    13.936208382    -0.405636586     0.227209135    -0.183942843
   40    13.005585042     8.949879898    16.483173283    -0.373253465     0.263806307    -0.202701955
   41    16.504957086     2.141784462    13.924150396    -0.422473177     0.220153580    -0.151818363
   42    10.789067365     8.583371928    13.373184446    -0.385344304     0.241888538    -0.207363696
   43    14.326878093     7.168062422    15.517575457    -0.392790886     0.242916255    -0.191590743
   44    19.267273301     4.167403811    14.800914291    -0.407733578     0.227718557    -0.178598959
   45    14.606704110     9.684111261    14.976739542    -0.380210736     0.251553654    -0.205330358
   46    17.698730521     1.362614902    12.276480887    -0.419660729     0.225849407    -0.151251174
   47    17.123194551     1.932348641    19.841245617    -0.380932912     0.251835654    -0.203639190
   48    20.328109657     3.589198508    10.762347708    -0.373767913     0.267402762    -0.196960174
   49    13.567576095     5.441357116    11.852242536     0.382155924    -0.227244868     0.228728265
   50    16.722336119     9.515443451    16.973296447    -0.367929210     0.257438469    -0.219894364
   51    19.999306223     5.949055830    10.901681332    -0.386936237     0.237818754    -0.209099471
   52    19.706758793     9.711437587    11.602859961    -0.368577766     0.253399522    -0.223470608
   53    18.975985456     4.391599207    19.525872767    -0.372468289     0.265074917    -0.202491140
   54    15.135097688     2.498308495    19.837290506    -0.368944962     0.284083904    -0.182142665
   55    13.581320834    10.166617722    12.738697040    -0.369858859     0.261798970    -0.211342669
   56    16.692462367     4.159239373    19.702749753    -0.381277739     0.253338463    -0.201114169
   57    15.582128885     6.085407077    17.332518409    -0.383984677     0.249321303    -0.200984218
   58    14.455089231     0.373538892    17.122848080    -0.371647440     0.265670935    -0.203216965
   59    16.106819272     1.852568666    17.837961792    -0.378973846     0.259735521    -0.197272106
   60    19.212125191     6.531883826    19.083583041    -0.373537062     0.260221562    -0.206772343
   61    19.377002495     1.905380160    19.986992868    -0.391657997     0.249201918    -0.185748264
   62    19.208771690     7.421290622    12.421154935    -0.389390690     0.239609674    -0.202390945
   63    12.471350994     7.954922140    19.614990893    -0.364278984     0.268151931    -0.213061877
   64    13.811310478     9.276614294    10.681809732    -0.372880633     0.252956724    -0.216732390
   65    14.938256188     4.003238210    13.528762303    -0.310502538     0.321991694    -0.223404392
   66    11.336565763     6.884985660    18.122118251    -0.360200331     0.272637590    -0.214299944
   67    18.167549230     2.913889719    18.233914355    -0.379981325     0.262469281    -0.191635249
   68    11.330590036     2.444375829    15.333282288    -0.449355543     0.205223087    -0.077220985
   21    22.224452437     6.657685887    14.399785032     0.379734375    -0.245238964     0.213681198
   22    29.556758107     2.041308342    16.439711752    -0.431741404     0.221899442    -0.119833206
   23    29.440831689     9.568634053    17.304551384    -0.375640822     0.258601323    -0.204986168
   24    24.387622263     4.456347701    18.132662804    -0.384624512     0.244873561    -0.205185097
   25    25.666281073     0.700197984    11.417678875    -0.367430587     0.264324318    -0.212432150
   26    22.225507030     1.282575867    17.954824083    -0.155397131    -0.352075990     0.319208755
   27    20.890130207     3.282834344    13.243027508    -0.385300244     0.252231533    -0.194738224
   28    27.883290925     5.721648091    11.512306372    -0.391809029     0.241184271    -0.195744302
   29    28.595920746     8.374460994    15.591821198    -0.367073010     0.264650927    -0.212643579
   30    27.365887476     9.288122374    12.288866472    -0.380875215     0.259017368    -0.194535532
   31    25.878256537    10.251873066    19.303257687    -0.374065839     0.266902164    -0.197073548
   32    28.005131426     0.902860303    18.532186190    -0.371415197     0.268803485    -0.199487939
   33    21.068354757     8.277186891    15.934403575    -0.375092221     0.265921004    -0.196448073
   34    30.665658728     3.261952852    18.652636049    -0.492527088    -0.035735650     0.078358348
   35    28.037947940     7.863597117    10.828848549    -0.383016793     0.254984408    -0.195655535
   36    27.551716309     2.850356993    16.162919256    -0.422494753     0.225961115    -0.142967682
   37    28.057275670     5.463236878    18.099630515    -0.376425986     0.256726604    -0.205900286
   38    26.142323859     6.380443649    14.798769261    -0.396166258     0.241625210    -0.186197620
   39    28.328830560     6.075784362    14.224295252    -0.404914977     0.229275209    -0.182966499
   40    23.095240992     9.094540110    16.771260153    -0.373867616     0.263570187    -0.201875610
   41    26.594613035     2.286444674    14.212237266    -0.421303455     0.224172304    -0.149164930
   42    20.878723315     8.728032140    13.661271316    -0.386768142     0.240379731    -0.206465467
   43    24.416534042     7.312722634    15.805662327    -0.392608027     0.243934086    -0.190670131
   44    29.356929250     4.312064023    15.089001160    -0.406825197     0.230264407    -0.177402259
   45    24.696360060     9.828771473    15.264826412    -0.380543474     0.251586551    -0.204672595
   46    27.788386471     1.507275113    12.564567757    -0.418508233     0.229517022    -0.148905324
   47    27.212850501     2.077008853    20.129332486    -0.380522917     0.253638039    -0.202163435
   48    30.417765607     3.733858720    11.050434578    -0.372794159     0.269862297    -0.195445276
   49    23.657232044     5.586017327    12.140329406     0.384298323    -0.228054170     0.224290202
   50    26.811992069     9.660103663    17.261383317    -0.368558011     0.257016393    -0.219334370
   51    30.088962172     6.093716041    11.189768202    -0.386409729     0.239415124    -0.208249657
   52    29.796414742     9.856097799    11.890946830    -0.368414150     0.254132458    -0.222907397
   53    29.065641406     4.536259418    19.813959637    -0.372113659     0.265880026    -0.202087200
   54    25.224753638     2.642968706    20.125377375    -0.368570195     0.285650025    -0.180444102
   55    23.670976784    10.311277934    13.026783910    -0.370223329     0.261588351    -0.210964977
   56    26.782118317     4.303899584    19.990836622    -0.380854293     0.254839347    -0.200017286
   57    25.671784835     6.230067288    17.620605278    -0.383535958     0.250634516    -0.200206164
   58    24.544745181     0.518199104    17.410934950    -0.370998918     0.267257707    -0.202319354
   59    26.196475222     1.997228878    18.126048662    -0.378338335     0.261542623    -0.196100895
   60    29.301781141     6.676544038    19.371669911    -0.373190174     0.260672125    -0.206831180
   61    29.466658445     2.050040372    20.275079737    -0.391158204     0.251399983    -0.183829562
   62    29.298427640     7.565950834    12.709241805    -0.388896030     0.241133747    -0.201530132
   63    22.561006944     8.099582351    19.903077763    -0.365047770     0.267752972    -0.212246252
   64    23.900966428     9.421274505    10.969896602    -0.373283154     0.252645908    -0.216401784
   65    25.027912138     4.147898421    13.816849173    -0.337087997     0.290988100    -0.227371080
   66    21.426221713     7.029645872    18.410205120    -0.361018351     0.272187165    -0.213494490
   67    28.257205180     3.058549931    18.522001224    -0.379426016     0.263977694    -0.190661154
   68    21.420245986     2.589036041    15.621369157    -0.450425622     0.200602465    -0.082918093
   21    32.314108387     6.802346099    14.687871902     0.378829340    -0.246470460     0.213870623
   22    39.646414057     2.185968553    16.727798622    -0.430403907     0.223814426    -0.121076751
   23    39.530487639     9.713294265    17.592638253    -0.373984137     0.259555248    -0.206801689
   24    34.477278212     4.601007913    18.420749674    -0.383091095     0.245330310    -0.207495185
   25    35.755937022     0.844858196    11.705765745    -0.366253109     0.265089922    -0.213508767
   26    32.315162980     1.427236078    18.242910952    -0.173606426    -0.342908673     0.319803769
   27    30.979786157     3.427494556    13.531114377    -0.384429448     0.253801327    -0.194419356
   28    37.972946874     5.866308303    11.800393242    -0.390133548     0.242770432    -0.197125168
   29    38.685576696     8.519121205    15.879908068    -0.365270329     0.265657415    -0.214484790
   30    37.455543426     9.432782586    12.576953342    -0.379066160     0.260824511    -0.195651274
   31    35.967912487    10.396533278    19.591344557    -0.372849984     0.267123981    -0.199066993
   32    38.094787376     1.047520515    18.820273059    -0.370012948     0.268959270    -0.201869585
   33    31.158010707     8.421847102    16.222490444    -0.374435870     0.266484560    -0.196935925
   34    40.755314678     3.406613063    18.940722919    -0.492248048    -0.034496539     0.080634036
   35    38.127603890     8.008257329    11.116935418    -0.381323082     0.256527376    -0.196942663
   36    37.641372258     2.995017205    16.451006126    -0.420993970     0.227821474    -0.144434945
   37    38.146931619     5.607897089    18.387717385    -0.375021470     0.256787681    -0.208372225
   38    36.231979809     6.525103860    15.086856131    -0.394720459     0.242663911    -0.187909513
   39    38.418486510     6.220444574    14.512382122    -0.403377287     0.230681059    -0.184588768
   40    33.184896942     9.239200322    17.059347022    -0.372814973     0.264110775    -0.203112025
   41    36.684268985     2.431104886    14.500324135    -0.419701203     0.226232095    -0.150565398
   42    30.968379265     8.872692352    13.949358185    -0.386216970     0.241431863    -0.206269502
   43    34.506189992     7.457382846    16.093749196    -0.391166692     0.244955908    -0.192315424
   44    39.446585200     4.456724235    15.377088030    -0.405224908     0.231773185    -0.179092056
   45    34.786016010     9.973431684    15.552913282    -0.379401927     0.252286332    -0.205926648
   46    37.878042420     1.651935325    12.852654626    -0.416943706     0.231473228    -0.150260077
   47    37.302506451     2.221669064    20.417419356    -0.379210446     0.253299575    -0.205033566
   48    40.507421557     3.878518932    11.338521447    -0.370998915     0.271417539    -0.196703646
   49    33.746887994     5.730677539    12.428416275     0.381744991    -0.233960766     0.222560379
   50    36.901648019     9.804763875    17.549470186    -0.367234800     0.257126795    -0.221414572
   51    40.178618122     6.238376253    11.477855072    -0.384755400     0.240847479    -0.209656323
   52    39.886070692    10.000758011    12.179033700    -0.366903505     0.255366313    -0.223986304
   53    39.155297356     4.680919630    20.102046506    -0.370714743     0.265628325    -0.204968711
   54    35.314409587     2.787628918    20.413464245    -0.366783181     0.285963728    -0.183561555
   55    33.760632733    10.455938145    13.314870779    -0.369029792     0.262802948    -0.211545794
   56    36.871774267     4.448559796    20.278923492    -0.379339846     0.254848982    -0.202862707
   57    35.761440785     6.374727500    17.908692148    -0.381994204     0.251206778    -0.202424264
   58    34.634401130     0.662859315    17.699021819    -0.369457219     0.267861026    -0.204332655
   59    36.286131171     2.141889089    18.414135532    -0.376844191     0.262036552    -0.198306079
   60    39.391437091     6.821204249    19.659756781    -0.371883579     0.260610421    -0.209248207
   61    39.556314395     2.194700584    20.563166607    -0.390085321     0.250800398    -0.186902656
   62    39.388083590     7.710611045    12.997328674    -0.387304229     0.242459901    -0.202999090
   63    32.650662894     8.244242563    20.191164632    -0.364441330     0.267645797    -0.213420347
   64    33.990622378     9.565934717    11.257983471    -0.372172410     0.253984417    -0.216747809
   65    35.117568087     4.292558633    14.104936042    -0.307440169     0.328209473    -0.218538519
   66    31.515877663     7.174306084    18.698291990    -0.360542305     0.272281943    -0.214177006
   67    38.346861130     3.203210143    18.810088094    -0.377997196     0.263990562    -0.193460857
   68    31.509901936     2.733696253    15.909456027    -0.447675817     0.208796884    -0.077396535
   21     2.180216008    16.393458985    13.854236717     0.378117993    -0.245932316     0.215740768
   22     9.512521679    11.777081439    15.894163437    -0.432236413     0.220249253    -0.121086537
   23     9.396595261    19.304407151    16.759003068    -0.373863583     0.260141846    -0.206281947
   24     4.343385834    14.192120799    17.587114488    -0.383569308     0.244898632    -0.207121331
   25     5.622044644    10.435971082    10.872130559    -0.366837306     0.263726376    -0.214193346
   26     2.181270601    11.018348964    17.409275767    -0.120534463    -0.357164483     0.328488927
   27     0.845893778    13.018607442    12.697479192    -0.383389323     0.251927514    -0.198859634
   28     7.839054496    15.457421189    10.966758056    -0.390366511     0.241998015    -0.197613126
   29     8.551684317    18.110234091    15.046272882    -0.364991422     0.266390456    -0.214049964
   30     7.321651047    19.023895472    11.743318157    -0.379246113     0.260206967    -0.196124247
   31     5.834020109    19.987646164    18.757709372    -0.372123479     0.268623745    -0.198407158
   32     7.960894997    10.638633401    17.986637874    -0.370693836     0.268216512    -0.201608488
   33     1.024118329    18.012959989    15.388855259    -0.374007867     0.265977080    -0.198429604
   34    10.621422300    12.997725949    18.107087734    -0.491670561    -0.044867088     0.079037991
   35     7.993711512    17.599370215    10.283300233    -0.381596896     0.255840794    -0.197305086
   36     7.507479880    12.586130091    15.617370941    -0.422326324     0.225280340    -0.144531120
   37     8.013039241    15.199009976    17.554082199    -0.375330053     0.257025289    -0.207521931
   38     6.098087431    16.116216746    14.253220946    -0.394828340     0.242331411    -0.188111852
   39     8.284594131    15.811557460    13.678746936    -0.403703168     0.229942812    -0.184797335
   40     3.051004564    18.830313208    16.225711837    -0.372442552     0.263989256    -0.203951510
   41     6.550376607    12.022217772    13.666688950    -0.420996053     0.223732800    -0.150684962
   42     0.834486886    18.463805238    13.115723000    -0.385605841     0.240606817    -0.208366253
   43     4.372297614    17.048495732    15.260114011    -0.391211188     0.244670954    -0.192587463
   44     9.312692822    14.047837121    14.543452845    -0.405670676     0.230823583    -0.179309163
   45     4.652123632    19.564544570    14.719278096    -0.379022668     0.252436721    -0.206440110
   46     7.744150042    11.243048211    12.019019441    -0.418183808     0.229111052    -0.150434132
   47     7.168614072    11.812781950    19.583784171    -0.379730091     0.252768375    -0.204727152
   48    10.373529178    13.469631818    10.504886262    -0.371676364     0.269895679    -0.197517096
   49     3.612995616    15.321790425    11.594781090     0.374534746    -0.236330468     0.232102637
   50     6.767755640    19.395876761    16.715835001    -0.366530645     0.258666653    -0.220786886
   51    10.044725744    15.829489139    10.644219886    -0.384976592     0.240331215    -0.209842633
   52     9.752178314    19.591870897    11.345398515    -0.366790981     0.255066248    -0.224511882
   53     9.021404977    14.272032516    19.268411321    -0.370975146     0.266102398    -0.203879756
   54     5.180517209    12.378741804    19.579829060    -0.367537312     0.285258706    -0.183149653
   55     3.626740355    20.047051031    12.481235594    -0.368526878     0.262697910    -0.212550579
   56     6.737881888    14.039672682    19.445288307    -0.379832589     0.254542816    -0.202324392
   57     5.627548407    15.965840386    17.075056963    -0.382429334     0.250801814    -0.202104564
   58     4.500508752    10.253972201    16.865386634    -0.370423340     0.266640869    -0.204179324
   59     6.152238793    11.733001975    17.580500346    -0.377624881     0.261075012    -0.198089090
   60     9.257544712    16.412317135    18.826121595    -0.371980083     0.261003148    -0.208586131
   61     9.422422016    11.785813470    19.729531422    -0.390623661     0.250190739    -0.186595149
   62     9.254191212    17.301723931    12.163693489    -0.387464797     0.242065831    -0.203162901
   63     2.516770515    17.835355449    19.357529447    -0.364713593     0.266763312    -0.214059175
   64     3.856729999    19.157047603    10.424348286    -0.371654971     0.253744587    -0.217913440
   65     4.983675709    13.883671519    13.271300857    -0.312546401     0.323755127    -0.217938901
   66     1.381985285    16.765418970    17.864656805    -0.360838485     0.270996867    -0.215305100
   67     8.212968751    12.794323029    17.976452909    -0.378503513     0.263803026    -0.192725333
   68     1.376009558    12.324809139    15.075820841    -0.447418311     0.209402117    -0.077250298
   21    12.269871958    16.538119196    14.142323586     0.377624964    -0.247354376     0.214977206
   22    19.602177629    11.921741651    16.182250306    -0.433134167     0.219939006    -0.118412952
   23    19.486251210    19.449067363    17.047089938    -0.374462850     0.259771928    -0.205660203
   24    14.433041784    14.336781011    17.875201358    -0.384398464     0.244317251    -0.206269002
   25    15.711700594    10.580631293    11.160217429    -0.368178738     0.262620486    -0.213248439
   26    12.270926551    11.163009176    17.697362637    -0.131586579    -0.365057126     0.315306623
   27    10.935549728    13.163267653    12.985566062    -0.382309585     0.255095409    -0.196890104
   28    17.928710446    15.602081400    11.254844926    -0.391522595     0.241111286    -0.196406226
   29    18.641340267    18.254894303    15.334359752    -0.365764785     0.265807752    -0.213453416
   30    17.411306997    19.168555683    12.031405026    -0.380069849     0.259821481    -0.195037709
   31    15.923676059    20.132306376    19.045796241    -0.372357344     0.268859061    -0.197648207
   32    18.050550947    10.783293613    18.274724744    -0.372036868     0.267317880    -0.200324037
   33    11.113774279    18.157620200    15.676942129    -0.373358982     0.267579909    -0.197494463
   34    20.711078250    13.142386161    18.395174603    -0.490641959    -0.042942431     0.086176652
   35    18.083367461    17.744030427    10.571387103    -0.382595875     0.255061150    -0.196377713
   36    17.597135830    12.730790302    15.905457810    -0.423332381     0.224621112    -0.142601020
   37    18.102695191    15.343670187    17.842169069    -0.376145268     0.256398391    -0.206820217
   38    16.187743381    16.260876958    14.541307815    -0.395465944     0.241961570    -0.187246590
   39    18.374250081    15.956217672    13.966833806    -0.404491646     0.229329835    -0.183832356
   40    13.140660513    18.974973419    16.513798707    -0.372238356     0.265033333    -0.202967826
   41    16.640032557    12.166877983    13.954775820    -0.421994932     0.223043899    -0.148901634
   42    10.924142836    18.608465450    13.403809870    -0.384818631     0.242596372    -0.207512942
   43    14.461953564    17.193155943    15.548200881    -0.391742439     0.244493822    -0.191730625
   44    19.402348772    14.192497332    14.831539714    -0.406539906     0.230108547    -0.178256448
   45    14.741779581    19.709204782    15.007364966    -0.379049224     0.253123175    -0.205548885
   46    17.833805992    11.387708423    12.307106311    -0.419183373     0.228395358    -0.148730832
   47    17.258270022    11.957442162    19.871871040    -0.380886340     0.252191907    -0.203285114
   48    20.463185128    13.614292029    10.792973132    -0.372996758     0.268812957    -0.196501941
   49    13.702651566    15.466450637    11.882867960     0.378912479    -0.231369633     0.229985709
   50    16.857411590    19.540536972    17.003921871    -0.366775456     0.258973578    -0.220019206
   51    20.134381694    15.974149351    10.932306756    -0.385991348     0.239455282    -0.208978103
   52    19.841834264    19.736531108    11.633485384    -0.367565652     0.254970646    -0.223350535
   53    19.111060927    14.416692728    19.556498191    -0.371888902     0.265268213    -0.203301304
   54    15.270173159    12.523402016    19.867915929    -0.368659028     0.284752755    -0.181676608
   55    13.716396305    20.191711243    12.769322464    -0.368652810     0.263377341    -0.211488727
   56    16.827537838    14.184332894    19.733375176    -0.380933876     0.253819905    -0.201158738
   57    15.717204356    16.110500598    17.363143832    -0.383151075     0.250349709    -0.201296491
   58    14.590164702    10.398632413    17.153473504    -0.371643737     0.265893535    -0.202932404
   59    16.241894743    11.877662187    17.868587216    -0.378870875     0.260200263    -0.196857012
   60    19.347200662    16.556977347    19.114208465    -0.372852311     0.260559316    -0.207581302
   61    19.512077966    11.930473681    20.017618291    -0.391597746     0.249792821    -0.185080393
   62    19.343847161    17.446384143    12.451780359    -0.388413011     0.241380895    -0.202164775
   63    12.606426465    17.980015661    19.645616317    -0.363643631     0.268624486    -0.213551388
   64    13.946385949    19.301707815    10.712435156    -0.371739000     0.254526519    -0.216855637
   65    15.073331659    14.028331731    13.559387727    -0.309591390     0.317187021    -0.231399147
   66    11.471641234    16.910079181    18.152743674    -0.359608846     0.273103388    -0.214699831
   67    18.302624701    12.938983240    18.264539778    -0.379593257     0.262987658    -0.191693639
   68    11.465665507    12.469469350    15.363907711    -0.448833288     0.205985643    -0.078221447
   21    22.359527908    16.682779408    14.430410456     0.378684567    -0.246450792     0.214149493
   22    29.691833578    12.066401863    16.470337176    -0.433954413     0.217166024    -0.120509276
   23    29.575907160    19.593727574    17.335176807    -0.374935175     0.259439026    -0.205219411
   24    24.522697734    14.481441222    18.163288228    -0.385124961     0.243947059    -0.205349937
   25    25.801356544    10.725291505    11.448304299    -0.368298676     0.262537372    -0.213143645
   26    22.360582501    11.307669388    17.985449506    -0.138998549    -0.349650900     0.329277469
   27    21.025205678    13.307927865    13.273652931    -0.383209368     0.253989749    -0.196570058
   28    28.018366396    15.746741612    11.542931795    -0.391994850     0.240747947    -0.195909325
   29    28.730996217    18.399554515    15.622446622    -0.366177575     0.265674600    -0.212910757
   30    27.500962947    19.313215895    12.319491896    -0.380476192     0.259533686    -0.194628192
   31    26.013332008    20.276966587    19.333883111    -0.372917300     0.268289770    -0.197365870
   32    28.140206897    10.927953824    18.562811613    -0.372501886     0.267004947    -0.199876721
   33    21.203430228    18.302280412    15.965028998    -0.374073820     0.267130160    -0.196749218
   34    30.800734199    13.287046373    18.683261473    -0.491626266    -0.048622010     0.077068246
   35    28.173023411    17.888690638    10.859473972    -0.383100835     0.254727721    -0.195825275
   36    27.686791780    12.875450514    16.193544680    -0.424036732     0.222681818    -0.143546710
   37    28.192351141    15.488330399    18.130255939    -0.377060997     0.255823666    -0.205862226
   38    26.277399330    16.405537170    14.829394685    -0.396204191     0.241353283    -0.186469386
   39    28.463906031    16.100877883    14.254920676    -0.405179125     0.228672989    -0.183135307
   40    23.230316463    19.119633631    16.801885576    -0.372951131     0.264557205    -0.202279359
   41    26.729688506    12.311538195    14.242862689    -0.422673346     0.221266475    -0.149627504
   42    21.013798786    18.753125661    13.691896739    -0.385653633     0.241965800    -0.206697428
   43    24.551609513    17.337816155    15.836287750    -0.392471798     0.243924097    -0.190963146
   44    29.492004722    14.337157544    15.119626584    -0.407216125     0.229448302    -0.177562675
   45    24.831435531    19.853864994    15.295451836    -0.379699585     0.252650217    -0.204929484
   46    27.923461942    11.532368635    12.595193180    -0.419748956     0.226967902    -0.149319742
   47    27.347925972    12.102102374    20.159957910    -0.381504851     0.251778791    -0.202636347
   48    30.552841078    13.758952241    11.081060001    -0.373564899     0.268738765    -0.195521719
   49    23.792307516    15.611110848    12.170954829     0.378775636    -0.227670262     0.233870198
   50    26.947067540    19.685197184    17.292008740    -0.367385345     0.258346349    -0.219738873
   51    30.224037643    16.118809562    11.220393626    -0.386551246     0.239018053    -0.208443049
   52    29.931490213    19.881191320    11.921572254    -0.368176171     0.254595709    -0.222771928
   53    29.200716877    14.561352939    19.844585060    -0.372826820     0.264898651    -0.202061542
   54    25.359829109    12.668062227    20.156002799    -0.369349987     0.284177673    -0.181172948
   55    23.806052255    20.336371455    13.057409333    -0.369272674     0.262931774    -0.210961074
   56    26.917193788    14.328993105    20.021462046    -0.381718364     0.253348472    -0.200263931
   57    25.806860306    16.255160809    17.651230702    -0.383933616     0.249907239    -0.200353064
   58    24.679820652    10.543292625    17.441560373    -0.372229235     0.265197159    -0.202770471
   59    26.331550693    12.022322399    18.156674085    -0.379495419     0.259541303    -0.196523636
   60    29.436856612    16.701637559    19.402295334    -0.373895140     0.259948629    -0.206468242
   61    29.601733916    12.075133893    20.305705161    -0.392261690     0.249118206    -0.184583006
   62    29.433503111    17.591044355    12.739867228    -0.388988287     0.240816117    -0.201731779
   63    22.696082415    18.124675872    19.933703186    -0.364520421     0.268031426    -0.212800416
   64    24.036041899    19.446368026    11.000522025    -0.372394546     0.254009784    -0.216336155
   65    25.162987609    14.172991942    13.847474596    -0.340476338     0.290985096    -0.222269066
   66    21.561297184    17.054739393    18.440830544    -0.360498423     0.272447027    -0.214040895
   67    28.392280651    13.083643452    18.552626648    -0.380330180     0.262580114    -0.190789511
   68    21.555321457    12.614129562    15.651994581    -0.449399314     0.206128088    -0.074508174
   21    32.449183858    16.827439620    14.718497325     0.379608032    -0.245512141     0.213591973
   22    39.781489528    12.211062074    16.758424046    -0.431259814     0.222313235    -0.120796518
   23    39.665563110    19.738387786    17.623263677    -0.375368605     0.257185069    -0.207254074
   24    34.612353683    14.626101434    18.451375097    -0.384637078     0.242666825    -0.207767009
   25    35.891012493    10.869951717    11.736391168    -0.366571724     0.264461234    -0.213741495
   26    32.450238451    11.452329599    18.273536376    -0.138521087    -0.357142047     0.321343222
   27    31.114861628    13.452588077    13.561739801    -0.384021641     0.254459208    -0.194365353
   28    38.108022345    15.891401824    11.831018665    -0.390871202     0.240394116    -0.198570825
   29    38.820652167    18.544214726    15.910533491    -0.366564829     0.263328679    -0.215147003
   30    37.590618897    19.457876107    12.607578765    -0.380072624     0.258497444    -0.196783821
   31    36.102987958    20.421626799    19.621969981    -0.374210807     0.265721164    -0.198389856
   32    38.229862847    11.072614036    18.850898483    -0.371232152     0.267137683    -0.202049865
   33    31.293086178    18.446940623    16.253115868    -0.375002416     0.265762964    -0.196833012
   34    40.890390149    13.431706584    18.971348343    -0.491448856    -0.037766460     0.083974501
   35    38.262679361    18.033350850    11.147560842    -0.382250426     0.254273464    -0.198064680
   36    37.776447729    13.020110726    16.481631549    -0.421875981     0.226122382    -0.144531397
   37    38.282007090    15.632990610    18.418342808    -0.376657297     0.254590695    -0.208117415
   38    36.367055280    16.550197381    15.117481555    -0.395937832     0.240053176    -0.188700042
   39    38.553561981    16.245538095    14.543007545    -0.404335883     0.228134209    -0.185653646
   40    33.319972413    19.264293843    17.089972446    -0.373844418     0.262805767    -0.202912493
   41    36.819344456    12.456198407    14.530949559    -0.420428516     0.224826542    -0.150641591
   42    31.103454736    18.897785873    13.979983609    -0.386349708     0.241201902    -0.206289956
   43    34.641265463    17.482476367    16.124374620    -0.392398539     0.242515163    -0.192898373
   44    39.581660671    14.481817756    15.407713454    -0.406185088     0.229130848    -0.180312865
   45    34.921091481    19.998525205    15.583538705    -0.380460220     0.250653701    -0.205967821
   46    38.013117892    11.677028846    12.883280050    -0.417552385     0.230280020    -0.150403187
   47    37.437581922    12.246762585    20.448044779    -0.380490116     0.251290646    -0.205134791
   48    40.642497028    13.903612453    11.369146871    -0.371859215     0.268512252    -0.199052493
   49    33.881963465    15.755771060    12.459041699     0.391091123    -0.224487037     0.215993759
   50    37.036723490    19.829857396    17.580095610    -0.368587771     0.255826213    -0.220671711
   51    40.313693593    16.263469774    11.508480495    -0.385574172     0.238593537    -0.210726558
   52    40.021146163    20.025851532    12.209659124    -0.367527993     0.253604174    -0.224962436
   53    39.290372827    14.706013151    20.132671930    -0.372384108     0.263418046    -0.204795041
   54    35.449485059    12.812722439    20.444089669    -0.368040159     0.284140623    -0.183876448
   55    33.895708204    20.481031666    13.345496203    -0.369997116     0.261111852    -0.211949840
   56    37.006849738    14.473653317    20.309548916    -0.380725436     0.252727274    -0.202921332
   57    35.896516256    16.399821021    17.939317572    -0.383530694     0.248603377    -0.202732750
   58    34.769476601    10.687952836    17.729647243    -0.370981013     0.265771465    -0.204300309
   59    36.421206642    12.166982610    18.444760955    -0.378198701     0.259971821    -0.198444941
   60    39.526512562    16.846297770    19.690382204    -0.373677801     0.258562832    -0.208590899
   61    39.691389866    12.219794105    20.593792030    -0.391434835     0.248603862    -0.187015747
   62    39.523159061    17.735704566    13.027954098    -0.388196680     0.240179525    -0.204002778
   63    32.785738365    18.269336084    20.221790056    -0.365881161     0.266479315    -0.212414102
   64    34.125697849    19.591028238    11.288608895    -0.373039378     0.252322640    -0.217197854
   65    35.252643558    14.317652154    14.135561466    -0.300146878     0.347206204    -0.198392801
   66    31.650953134    17.199399605    18.728917413    -0.361652914     0.271298954    -0.213551042
   67    38.481936601    13.228303664    18.840713518    -0.379393899     0.262020543    -0.193405027
   68    31.644977407    12.758789774    15.940081450    -0.450459486     0.202346903    -0.078370799
   21     2.315291480    26.418552506    13.884862140     0.378621383    -0.247156812     0.213446384
   22     9.647597150    21.802174960    15.924788860    -0.431787003     0.220889861    -0.121522236
   23     9.531670732    29.329500672    16.789628491    -0.374667585     0.259300568    -0.205882045
   24     4.478461305    24.217214320    17.617739912    -0.383775303     0.244953100    -0.206674855
   25     5.757120115    20.461064603    10.902755983    -0.366683433     0.263634945    -0.214569046
   26     2.316346072    21.043442485    17.439901190    -0.166907102    -0.369899670     0.292089461
   27     0.980969250    23.043700963    12.728104616    -0.384585745     0.254701240    -0.192927662
   28     7.974129967    25.482514710    10.997383480    -0.391106365     0.240992977    -0.197378308
   29     8.686759788    28.135327612    15.076898306    -0.366065953     0.265228291    -0.213657838
   30     7.456726518    29.048988993    11.773943580    -0.380147184     0.259092604    -0.195854898
   31     5.969095580    30.012739685    18.788334795    -0.372788406     0.268007183    -0.197992308
   32     8.095970468    20.663726922    18.017263298    -0.370597160     0.268580806    -0.201301007
   33     1.159193800    28.038053510    15.419480683    -0.374334662     0.266815294    -0.196680349
   34    10.756497771    23.022819470    18.137713157    -0.492269308    -0.042408462     0.076631918
   35     8.128786983    27.624463736    10.313925657    -0.382360725     0.254801190    -0.197171575
   36     7.642555351    22.611223612    15.647996364    -0.422159057     0.225470744    -0.144722750
   37     8.148114712    25.224103497    17.584707623    -0.375446205     0.257079534    -0.207244446
   38     6.233162902    26.141310267    14.283846369    -0.395401618     0.241898096    -0.187464322
   39     8.419669602    25.836650981    13.709372360    -0.404247832     0.229303818    -0.184400242
   40     3.186080035    28.855406729    16.256337261    -0.372963939     0.264316509    -0.202570194
   41     6.685452078    22.047311293    13.697314374    -0.420885407     0.223746579    -0.150973316
   42     0.969562358    28.488898759    13.146348424    -0.385880652     0.241782531    -0.206488088
   43     4.507373085    27.073589253    15.290739435    -0.391806047     0.244317376    -0.191825549
   44     9.447768293    24.072930642    14.574078268    -0.406088131     0.230333031    -0.178994761
   45     4.787199103    29.589638091    14.749903520    -0.379623357     0.252256255    -0.205555075
   46     7.879225513    21.268141732    12.049644865    -0.418083622     0.229130035    -0.150683484
   47     7.303689543    21.837875471    19.614409594    -0.379749536     0.253021698    -0.204377862
   48    10.508604649    23.494725339    10.535511686    -0.372180855     0.269198425    -0.197518655
   49     3.748071087    25.346883946    11.625406514     0.383138862    -0.248709650     0.203342378
   50     6.902831111    29.420970282    16.746460425    -0.367271477     0.258015799    -0.220316839
   51    10.179801215    25.854582660    10.674845310    -0.385750928     0.239260259    -0.209644341
   52     9.887253785    29.616964418    11.376023938    -0.367695534     0.254086816    -0.224142553
   53     9.156480448    24.297126037    19.299036745    -0.371193841     0.265946924    -0.203684475
   54     5.315592680    22.403835325    19.610454483    -0.367461105     0.285686960    -0.182634326
   55     3.761815826    30.072144552    12.511861017    -0.369456177     0.261986454    -0.211814144
   56     6.872957359    24.064766203    19.475913730    -0.379907841     0.254752472    -0.201918822
   57     5.762623878    25.990933907    17.105682386    -0.382594007     0.250934239    -0.201627958
   58     4.635584223    20.279065722    16.896012058    -0.370149109     0.267400375    -0.203682784
   59     6.287314264    21.758095496    17.611125770    -0.377464869     0.261596475    -0.197705733
   60     9.392620183    26.437410656    18.856747019    -0.372317998     0.261038044    -0.207938569
   61     9.557497487    21.810906991    19.760156845    -0.390508189     0.250551944    -0.186352026
   62     9.389266683    27.326817452    12.194318913    -0.388289787     0.241108755    -0.202725454
   63     2.651845986    27.860448970    19.388154871    -0.364814561     0.267907815    -0.212451733
   64     3.991805470    29.182141124    10.454973710    -0.372655843     0.252897792    -0.217187315
   65     5.118751180    23.908765040    13.301926281    -0.316334765     0.296237555    -0.249350411
   66     1.517060756    26.790512491    17.895282228    -0.360917706     0.272321609    -0.213493211
   67     8.348044222    22.819416550    18.007078332    -0.378457841     0.264059356    -0.192463813
   68     1.511085029    22.349902660    15.106446265    -0.450036481     0.199046005    -0.088588112
   21    12.404947429    26.563212718    14.172949010     0.378733991    -0.246299495     0.214236138
   22    19.737253100    21.946835172    16.212875730    -0.432764158     0.218634706    -0.122123088
   23    19.621326681    29.474160884    17.077715361    -0.374663147     0.259827101    -0.205225252
   24    14.568117255    24.361874532    17.905826782    -0.383962700     0.245513832    -0.205658948
   25    15.846776065    20.605724814    11.190842853    -0.367080805     0.264087368    -0.213329661
   26    12.406002022    21.188102697    17.727988060    -0.146101516    -0.365010552     0.308903940
   27    11.070625199    23.188361175    13.016191485    -0.383179127     0.254147002    -0.196425706
   28    18.063785917    25.627174921    11.285470349    -0.391363293     0.241968955    -0.195667568
   29    18.776415738    28.279987824    15.364985175    -0.366030654     0.265889420    -0.212895224
   30    17.546382468    29.193649204    12.062030450    -0.380319194     0.259991094    -0.194324322
   31    16.058751530    30.157399897    19.076421665    -0.372596095     0.268586299    -0.197569102
   32    18.185626418    20.808387134    18.305350167    -0.370987344     0.268650478    -0.200487683
   33    11.248849750    28.182713721    15.707567552    -0.374170257     0.266762933    -0.197063838
   34    20.846153721    23.167479682    18.425800027    -0.492224221    -0.047240543     0.074051654
   35    18.218442932    27.769123948    10.602012526    -0.382576100     0.255814407    -0.195434176
   36    17.732211301    22.755883824    15.936083234    -0.422829123     0.224356188    -0.144498560
   37    18.237770662    25.368763708    17.872794493    -0.375599825     0.257605623    -0.206310722
   38    16.322818852    26.285970479    14.571933239    -0.395646470     0.242413759    -0.186277857
   39    18.509325552    25.981311193    13.997459230    -0.404577164     0.229979720    -0.182829557
   40    13.275735984    29.000066940    16.544424130    -0.372804129     0.264559359    -0.202547345
   41    16.775108028    22.191971504    13.985401243    -0.421475006     0.223007698    -0.150420699
   42    11.059218307    28.633558971    13.434435293    -0.385706047     0.241597260    -0.207030455
   43    14.597029035    27.218249464    15.578826304    -0.392008376     0.244768129    -0.190834997
   44    19.537424243    24.217590853    14.862165138    -0.406563458     0.230803737    -0.177301408
   45    14.876855053    29.734298303    15.037990389    -0.379500166     0.252834096    -0.205072047
   46    17.968881463    21.412801944    12.337731734    -0.418629514     0.228599387    -0.149972164
   47    17.393345493    21.982535683    19.902496464    -0.380092372     0.253259853    -0.203443445
   48    20.598260599    23.639385550    10.823598555    -0.372502795     0.270074226    -0.195707895
   49    13.837727037    25.491544158    11.913493383     0.379473100    -0.233241086     0.227153609
   50    16.992487061    29.565630493    17.034547294    -0.367055211     0.258665648    -0.219914880
   51    20.269457165    25.999242872    10.962932180    -0.385989389     0.240238519    -0.208080862
   52    19.976909735    29.761624629    11.664110808    -0.368125436     0.254911519    -0.222494451
   53    19.246136398    24.441786249    19.587123614    -0.371364712     0.266564315    -0.202562871
   54    15.405248630    22.548495537    19.898541353    -0.367741208     0.286062785    -0.181478612
   55    13.851471776    30.216804764    12.799947887    -0.369285785     0.262912151    -0.210962580
   56    16.962613309    24.209426415    19.764000600    -0.380174829     0.255146172    -0.200916725
   57    15.852279828    26.135594119    17.393769256    -0.382854216     0.251396657    -0.200555155
   58    14.725240173    20.423725934    17.184098927    -0.370483632     0.267438438    -0.203023546
   59    16.376970214    21.902755708    17.899212639    -0.377863233     0.261613418    -0.196920789
   60    19.482276133    26.582070868    19.144833888    -0.372366838     0.261755523    -0.206946814
   61    19.647153437    21.955567202    20.048243715    -0.390951283     0.250572827    -0.185392429
   62    19.478922633    27.471477664    12.482405782    -0.388424840     0.242020139    -0.201376254
   63    12.741501936    28.005109182    19.676241740    -0.364072678     0.268335797    -0.213182986
   64    14.081461420    29.326801336    10.743060579    -0.372431737     0.253908885    -0.216390571
   65    15.208407130    24.053425252    13.590013150    -0.315636780     0.318973526    -0.220520549
   66    11.606716706    26.935172702    18.183369098    -0.360055603     0.272772567    -0.214371381
   67    18.437700172    22.964076761    18.295165202    -0.378789691     0.264319392    -0.191451376
   68    11.600740978    22.494562871    15.394533135    -0.448199028     0.207044574    -0.079058057
   21    22.494603379    26.707872929    14.461035879     0.378272907    -0.248220858     0.212828601
   22    29.826909049    22.091495384    16.500962600    -0.432453472     0.219868073    -0.121004235
   23    29.710982631    29.618821095    17.365802231    -0.374293165     0.260718831    -0.204768937
   24    24.657773205    24.506534743    18.193913651    -0.384038303     0.245486639    -0.205550218
   25    25.936432015    20.750385026    11.478929722    -0.367412607     0.263906150    -0.212982442
   26    22.495657972    21.332762909    18.016074930    -0.143374962    -0.359625602     0.316406458
   27    21.160281149    23.333021386    13.304278355    -0.383603344     0.255899713    -0.193297209
   28    28.153441867    25.771835133    11.573557219    -0.390964145     0.242183059    -0.196199907
   29    28.866071688    28.424648036    15.653072045    -0.365636056     0.266715066    -0.212540227
   30    27.636038418    29.338309416    12.350117319    -0.379710907     0.260810197    -0.194416225
   31    26.148407479    30.302060108    19.364508535    -0.372462253     0.269388204    -0.196727899
   32    28.275282368    20.953047345    18.593437037    -0.371556133     0.268061418    -0.200222665
   33    21.338505699    28.327373933    15.995654422    -0.373788343     0.268118091    -0.195946328
   34    30.935809670    23.312139894    18.713886897    -0.491733128    -0.042108285     0.080158736
   35    28.308098882    27.913784159    10.890099396    -0.382151881     0.256184923    -0.195778510
   36    27.821867251    22.900544035    16.224170103    -0.422675841     0.224972350    -0.143988107
   37    28.327426612    25.513423920    18.160881362    -0.375907378     0.257304800    -0.206125891
   38    26.412474801    26.430630691    14.860020109    -0.395279398     0.243028208    -0.186256511
   39    28.598981502    26.125971404    14.285546099    -0.404186316     0.230482697    -0.183060504
   40    23.365391934    29.144727152    16.832511000    -0.372475457     0.265665761    -0.201702101
   41    26.864763978    22.336631716    14.273488113    -0.421386290     0.223420766    -0.150055843
   42    21.148874257    28.778219182    13.722522163    -0.385675725     0.242688929    -0.205806509
   43    24.686684984    27.362909676    15.866913174    -0.391629805     0.245498332    -0.190674238
   44    29.627080193    24.362251065    15.150252007    -0.406172583     0.231278982    -0.177577773
   45    24.966511002    29.878958515    15.326077259    -0.379250284     0.253757136    -0.204393096
   46    28.058537413    21.557462156    12.625818604    -0.418578649     0.228915774    -0.149631156
   47    27.483001443    22.127195895    20.190583333    -0.380579274     0.252613584    -0.203336650
   48    30.687916549    23.784045762    11.111685425    -0.372451684     0.269560567    -0.196511689
   49    23.927382987    25.636204369    12.201580253     0.382276680    -0.234175077     0.221419452
   50    27.082143011    29.710290705    17.322634164    -0.366942119     0.259549061    -0.219061102
   51    30.359113114    26.143903083    11.251019049    -0.385634327     0.240539766    -0.208390946
   52    30.066565684    29.906284841    11.952197678    -0.367412815     0.255784743    -0.222670135
   53    29.335792348    24.586446460    19.875210484    -0.371654698     0.266206478    -0.202501596
   54    25.494904580    22.693155748    20.186628223    -0.368076789     0.285709057    -0.181355487
   55    23.941127726    30.361464976    13.088034757    -0.368958307     0.263885648    -0.210319121
   56    27.052269259    24.354086626    20.052087469    -0.380569612     0.254654032    -0.200793661
   57    25.941935777    26.280254330    17.681856126    -0.382859233     0.251455577    -0.200471695
   58    24.814896123    20.568386146    17.472185797    -0.371030293     0.266874606    -0.202767024
   59    26.466626164    22.047415920    18.187299509    -0.378286078     0.261179380    -0.196684963
   60    29.571932083    26.726731080    19.432920758    -0.372607002     0.261533627    -0.206795030
   61    29.736809387    22.100227414    20.336330584    -0.391428457     0.249972493    -0.185195885
   62    29.568578582    27.616137876    12.770492652    -0.388038148     0.242450195    -0.201604311
   63    22.831157886    28.149769393    19.964328610    -0.363822104     0.269548682    -0.212077779
   64    24.171117370    29.471461547    11.031147449    -0.372181676     0.254898732    -0.215655830
   65    25.298063080    24.198085463    13.878100020    -0.313459206     0.317402750    -0.225829185
   66    21.696372655    27.079832914    18.471455967    -0.359788981     0.273939932    -0.213327924
   67    28.527356122    23.108736973    18.583252072    -0.379222046     0.263706550    -0.191440579
   68    21.690396928    22.639223083    15.682620004    -0.449433210     0.203785882    -0.080505303
   21    32.584259329    26.852533141    14.749122749     0.377983962    -0.248137861     0.213437875
   22    39.916564999    22.236155595    16.789049469    -0.433146866     0.214731272    -0.127570659
   23    39.800638581    29.763481307    17.653889100    -0.374300144     0.260487554    -0.205050327
   24    34.747429155    24.651194955    18.482000521    -0.385310595     0.243179474    -0.205911361
   25    36.026087965    20.895045238    11.767016592    -0.367748914     0.262279318    -0.214406847
   26    32.585313922    21.477423120    18.304161799    -0.139002977    -0.349303031     0.329644604
   27    31.249937099    23.477681598    13.592365224    -0.383135954     0.255682438    -0.194507922
   28    38.243097817    25.916495345    11.861644089    -0.391704276     0.240569541    -0.196708047
   29    38.955727638    28.569308247    15.941158915    -0.365605589     0.266519856    -0.212837308
   30    37.725694368    29.482969628    12.638204189    -0.380177857     0.259757441    -0.194912465
   31    36.238063429    30.446720320    19.652595404    -0.372600796     0.268785628    -0.197288957
   32    38.364938318    21.097707557    18.881523906    -0.372543763     0.265883290    -0.201288899
   33    31.428161649    28.472034144    16.283741291    -0.373844851     0.267837275    -0.196222377
   34    41.025465620    23.456800105    19.001973766    -0.493841208    -0.053325097     0.057247670
   35    38.397754832    28.058444371    11.178186266    -0.382799944     0.254680800    -0.196473644
   36    37.911523200    23.045204247    16.512256973    -0.423183811     0.221323457    -0.148092502
   37    38.417082561    25.658084132    18.448968232    -0.377043323     0.255672802    -0.206081902
   38    36.502130751    26.575290902    15.148106978    -0.396250367     0.241003750    -0.186823016
   39    38.688637452    26.270631616    14.573632969    -0.405062365     0.228330723    -0.183819372
   40    33.455047884    29.289387364    17.120597869    -0.372737506     0.265046149    -0.202032894
   41    36.954419927    22.481291928    14.561574982    -0.421736892     0.220355670    -0.153562276
   42    31.238530207    28.922879394    14.010609033    -0.385376641     0.242990733    -0.206010553
   43    34.776340934    27.507569888    16.155000044    -0.392486588     0.243747018    -0.191158753
   44    39.716736142    24.506911277    15.438338877    -0.407134210     0.228900990    -0.178454677
   45    35.056166952    30.023618726    15.614164129    -0.379538346     0.252971533    -0.204831754
   46    38.148193363    21.702122367    12.913905474    -0.418894751     0.226272451    -0.152734951
   47    37.572657393    22.271856106    20.478670203    -0.381840380     0.250562961    -0.203509525
   48    40.777572499    23.928705974    11.399772295    -0.373105457     0.268154238    -0.197194377
   49    34.017038936    25.780864581    12.489667122     0.379015604    -0.232064641     0.229113890
   50    37.171798961    29.854950917    17.610721034    -0.367088054     0.258852204    -0.219640381
   51    40.448769064    26.288563295    11.539105919    -0.386219712     0.238982670    -0.209097149
   52    40.156221634    30.050945053    12.240284547    -0.367920999     0.254436269    -0.223374850
   53    39.425448298    24.731106672    20.163297354    -0.373089795     0.264628149    -0.201930552
   54    35.584560530    22.837815960    20.474715092    -0.369686633     0.283211488    -0.181997381
   55    34.030783676    30.506125187    13.376121626    -0.368946758     0.263530677    -0.210783945
   56    37.141925209    24.498746838    20.340174339    -0.381881506     0.252524525    -0.200992238
   57    36.031591727    26.424914542    17.969942995    -0.384106459     0.249285876    -0.200795369
   58    34.904552072    20.713046357    17.760272666    -0.372201477     0.264201788    -0.204116330
   59    36.556282113    22.192076131    18.475386379    -0.379432816     0.258506562    -0.198002767
   60    39.661588033    26.871391291    19.721007628    -0.373695814     0.260159811    -0.206563092
   61    39.826465337    22.244887626    20.624417454    -0.392487430     0.248000020    -0.185606055
   62    39.658234532    27.760798087    13.058579522    -0.388681186     0.240915016    -0.202205070
   63    32.920813836    28.294429605    20.252415479    -0.364164175     0.268966241    -0.212230098
   64    34.260773320    29.616121759    11.319234319    -0.372073992     0.254656112    -0.216127761
   65    35.387719029    24.342745675    14.166186889    -0.303825779     0.334833995    -0.213485577
   66    31.786028605    27.224493126    18.759542837    -0.360116428     0.273483012    -0.213361666
   67    38.617012072    23.253397185    18.871338941    -0.380398959     0.261945201    -0.191523742
   68    31.780052878    22.783883295    15.970706874    -0.448872447     0.205812817    -0.078451330
   21     2.450366951    36.443646027    13.915487564     0.377788473    -0.247267878     0.214789353
   22     9.782672621    31.827268481    15.955414284    -0.432304597     0.219264446    -0.122620708
   23     9.666746203    39.354594193    16.820253915    -0.374537521     0.259693304    -0.205623524
   24     4.613536776    34.242307841    17.648365336    -0.384313129     0.244647573    -0.206036366
   25     5.892195586    30.486158124    10.933381407    -0.367704420     0.262510164    -0.214200544
   26     2.451421543    31.068536007    17.470526614    -0.181074194    -0.339189856     0.319628500
   27     1.116044721    33.068794484    12.758730039    -0.383158332     0.254287892    -0.196283878
   28     8.109205438    35.507608231    11.028008903    -0.391559733     0.240407702    -0.197193084
   29     8.821835260    38.160421133    15.107523729    -0.365751725     0.265823648    -0.213456000
   30     7.591801989    39.074082514    11.804569004    -0.380198907     0.259254288    -0.195540291
   31     6.104171051    40.037833206    18.818960219    -0.372344292     0.268601124    -0.198023141
   32     8.231045939    30.688820443    18.047888721    -0.371404581     0.267868606    -0.200761168
   33     1.294269271    38.063147031    15.450106106    -0.373233862     0.267893413    -0.197305863
   34    10.891573242    33.047912991    18.168338581    -0.493134786    -0.043128884     0.070412943
   35     8.263862454    37.649557257    10.344551080    -0.382697987     0.254473457    -0.196940372
   36     7.777630822    32.636317133    15.678621788    -0.422704872     0.224219782    -0.145072672
   37     8.283190183    35.249197018    17.615333047    -0.375964872     0.257140130    -0.206226499
   38     6.368238373    36.166403788    14.314471793    -0.395595335     0.241789328    -0.187195757
   39     8.554745073    35.861744502    13.739997784    -0.404659617     0.228824422    -0.184092308
   40     3.321155506    38.880500250    16.286962684    -0.372195454     0.265182108    -0.202852147
   41     6.820527549    32.072404814    13.727939797    -0.421411121     0.222724073    -0.151018721
   42     1.104637829    38.513992280    13.176973847    -0.384651476     0.243088101    -0.207247237
   43     4.642448556    37.098682774    15.321364858    -0.391811412     0.244432257    -0.191668173
   44     9.582843764    34.098024163    14.604703692    -0.406691233     0.229570059    -0.178605232
   45     4.922274574    39.614731612    14.780528943    -0.379078343     0.253014038    -0.205629537
   46     8.014300984    31.293235253    12.080270288    -0.418612833     0.228194061    -0.150634546
   47     7.438765014    31.862968992    19.645035018    -0.380281176     0.252777654    -0.203690168
   48    10.643680120    33.519818860    10.566137109    -0.372998821     0.268228089    -0.197295645
   49     3.883146558    35.371977467    11.656031937     0.376385726    -0.233840693     0.231629696
   50     7.037906582    39.446063803    16.777085848    -0.366827817     0.258552520    -0.220426738
   51    10.314876686    35.879676181    10.705470734    -0.386103048     0.238813235    -0.209505787
   52    10.022329256    39.642057939    11.406649362    -0.367845097     0.254075056    -0.223910363
   53     9.291555919    34.322219558    19.329662168    -0.371739799     0.266158469    -0.202408476
   54     5.450668151    32.428928846    19.641079907    -0.368271478     0.285287667    -0.181623417
   55     3.896891297    40.097238073    12.542486441    -0.368687041     0.263239200    -0.211601015
   56     7.008032830    34.089859724    19.506539154    -0.380600364     0.254405493    -0.201050261
   57     5.897699349    36.016027428    17.136307810    -0.383086312     0.250704907    -0.200977430
   58     4.770659694    30.304159243    16.926637481    -0.370815677     0.266444438    -0.203723085
   59     6.422389735    31.783189017    17.641751193    -0.378205972     0.260752507    -0.197404086
   60     9.527695654    36.462504177    18.887372442    -0.372705321     0.261370858    -0.206823640
   61     9.692572958    31.836000512    19.790782269    -0.390946436     0.250329897    -0.185730522
   62     9.524342154    37.351910974    12.224944336    -0.388572113     0.240791402    -0.202561630
   63     2.786921457    37.885542491    19.418780294    -0.363711994     0.268749178    -0.213277905
   64     4.126880941    39.207234645    10.485599133    -0.371837360     0.254324332    -0.216924207
   65     5.253826651    33.933858561    13.332551704    -0.314201807     0.317274025    -0.224976483
   66     1.652136227    36.815606012    17.925907652    -0.359563033     0.273356093    -0.214454824
   67     8.483119693    32.844510071    18.037703756    -0.379219833     0.263646182    -0.191528089
   68     1.646160500    32.374996181    15.137071689    -0.445995674     0.212893872    -0.075921393
   21    12.540022900    36.588306239    14.203574433     0.378694393    -0.246683447     0.213864054
   22    19.872328571    31.971928693    16.243501154    -0.432825264     0.218719985    -0.121753271
   23    19.756402152    39.499254405    17.108340785    -0.375316125     0.258284271    -0.205978255
   24    14.703192726    34.386968053    17.936452205    -0.384297604     0.244740413    -0.205955047
   25    15.981851536    30.630818335    11.221468276    -0.367596092     0.263780699    -0.212821183
   26    12.541077493    31.213196218    17.758613484    -0.184692245    -0.354849240     0.299951316
   27    11.205700670    33.213454696    13.046816909    -0.383955885     0.253827665    -0.195318701
   28    18.198861388    35.652268442    11.316095773    -0.391815886     0.240606266    -0.196440667
   29    18.911491209    38.305081345    15.395610599    -0.366790859     0.264071788    -0.213847039
   30    17.681457939    39.218742725    12.092655873    -0.380883629     0.258365833    -0.195383616
   31    16.193827001    40.182493418    19.107047089    -0.373470773     0.267212051    -0.197780943
   32    18.320701889    30.833480655    18.335975591    -0.371259764     0.268358248    -0.200374746
   33    11.383925221    38.207807242    15.738192976    -0.374407042     0.266589237    -0.196849042
   34    20.981229192    33.192573203    18.456425451    -0.492100906    -0.046619729     0.075254894
   35    18.353518403    37.794217469    10.632637950    -0.383132191     0.254403539    -0.196185023
   36    17.867286772    32.780977345    15.966708657    -0.423005748     0.224065859    -0.144432088
   37    18.372846133    35.393857229    17.903419916    -0.375974950     0.256888825    -0.206521108
   38    16.457894323    36.311064000    14.602558662    -0.396054546     0.241266034    -0.186899699
   39    18.644401023    36.006404714    14.028084653    -0.404967860     0.228731376    -0.183529263
   40    13.410811455    39.025160461    16.575049554    -0.373344168     0.263777978    -0.202571741
   41    16.910183499    32.217065025    14.016026667    -0.421673465     0.222696228    -0.150325909
   42    11.194293778    38.658652492    13.465060717    -0.385909181     0.241455820    -0.206816807
   43    14.732104506    37.243342985    15.609451728    -0.392367582     0.243757741    -0.191389248
   44    19.672499714    34.242684374    14.892790561    -0.406910567     0.229629378    -0.178028478
   45    15.011930524    39.759391824    15.068615813    -0.380169230     0.251568009    -0.205389613
   46    18.103956934    31.437895465    12.368357158    -0.418877566     0.228281497    -0.149763624
   47    17.528420964    32.007629204    19.933121887    -0.380307000     0.252833266    -0.203572898
   48    20.733336070    33.664479071    10.854223979    -0.372923794     0.269020653    -0.196356137
   49    13.972802508    35.516637679    11.944118807     0.381987932    -0.230804717     0.225420502
   50    17.127562532    39.590724014    17.065172718    -0.367981975     0.257060269    -0.220248234
   51    20.404532636    36.024336393    10.993557603    -0.386474613     0.238893817    -0.208727376
   52    20.111985206    39.786718150    11.694736231    -0.368320752     0.253541797    -0.223732833
   53    19.381211869    34.466879770    19.617749038    -0.371692226     0.265951321    -0.202767809
   54    15.540324101    32.573589058    19.929166776    -0.368052842     0.285480199    -0.181764028
   55    13.986547247    40.241898285    12.830573311    -0.369922135     0.261442664    -0.211672737
   56    17.097688780    34.234519936    19.794626023    -0.380478488     0.254590668    -0.201046542
   57    15.987355299    36.160687640    17.424394680    -0.383196975     0.250562035    -0.200944631
   58    14.860315644    30.448819455    17.214724351    -0.370579465     0.267341238    -0.202976655
   59    16.512045685    31.927849229    17.929838063    -0.378079586     0.261304886    -0.196915168
   60    19.617351604    36.607164389    19.175459312    -0.372767939     0.260954959    -0.207235550
   61    19.782228908    31.980660723    20.078869138    -0.391137865     0.250111094    -0.185622226
   62    19.613998104    37.496571185    12.513031206    -0.388904382     0.240613382    -0.202135059
   63    12.876577407    38.030202703    19.706867164    -0.364568062     0.268296556    -0.212384289
   64    14.216536891    39.351894857    10.773686003    -0.372992966     0.252468101    -0.217108509
   65    15.343482601    34.078518773    13.620638574    -0.317504810     0.309554916    -0.231011796
   66    11.741792177    36.960266223    18.213994521    -0.360416337     0.272945894    -0.213542977
   67    18.572775643    32.989170282    18.325790626    -0.379108351     0.263746473    -0.191610689
   68    11.735816449    32.519656392    15.425158558    -0.448682979     0.205163618    -0.081187893
   21    22.629678850    36.732966450    14.491661303     0.378936936    -0.246903463     0.213179452
   22    29.961984520    32.116588905    16.531588023    -0.431635611     0.221382645    -0.121162798
   23    29.846058102    39.643914616    17.396427654    -0.374456697     0.260629673    -0.204583371
   24    24.792848676    34.531628264    18.224539075    -0.383750731     0.246298091    -0.205116130
   25    26.071507486    30.775478547    11.509555146    -0.367002517     0.264879207    -0.212480960
   26    22.630733443    31.357856430    18.046700353    -0.150831187    -0.359737642     0.312791915
   27    21.295356620    33.358114907    13.334903778    -0.383997458     0.254390332    -0.194503242
   28    28.288517338    35.796928654    11.604182643    -0.390792433     0.243034423    -0.195487963
   29    29.001147159    38.449741557    15.683697469    -0.366041880     0.266453809    -0.212169060
   30    27.771113889    39.363402937    12.380742743    -0.379820011     0.260935791    -0.194034204
   31    26.283482950    40.327153629    19.395133958    -0.372899505     0.268805834    -0.196696169
   32    28.410357839    30.978140866    18.624062460    -0.371011285     0.269288274    -0.199585700
   33    21.473581170    38.352467454    16.026279845    -0.374355476     0.266980304    -0.196416635
   34    31.070885142    33.337233415    18.744512320    -0.492673556    -0.039824206     0.075410876
   35    28.443174353    37.938877680    10.920724820    -0.381887585     0.256744767    -0.195560724
   36    27.956942722    32.925637556    16.254795527    -0.422012275     0.226271401    -0.143898898
   37    28.462502083    35.538517441    18.191506786    -0.375343573     0.258492182    -0.205667193
   38    26.547550273    36.455724212    14.890645532    -0.395132121     0.243458182    -0.186007314
   39    28.734056973    36.151064925    14.316171523    -0.403928272     0.231075575    -0.182882558
   40    23.500467405    39.169820673    16.863136423    -0.372948199     0.264953341    -0.201765627
   41    26.999839449    32.361725237    14.304113536    -0.420781815     0.224586494    -0.150011901
   42    21.283949728    38.803312703    13.753147587    -0.386125416     0.241429914    -0.206443115
   43    24.821760455    37.388003197    15.897538598    -0.391585160     0.245721452    -0.190478425
   44    29.762155664    34.387344586    15.180877431    -0.405821515     0.232070832    -0.177347193
   45    25.101586473    39.904052036    15.356702683    -0.379622347     0.253227622    -0.204359108
   46    28.193612884    31.582555677    12.656444028    -0.417955823     0.230080530    -0.149585694
   47    27.618076914    32.152289416    20.221208757    -0.380002400     0.254097993    -0.202564524
   48    30.822992020    33.809139283    11.142310849    -0.371788553     0.271359699    -0.195287442
   49    24.062458458    35.661297890    12.232205676     0.392585714    -0.233080975     0.203837475
   50    27.217218482    39.735384226    17.353259587    -0.367473043     0.258822476    -0.219030794
   51    30.494188585    36.168996604    11.281644473    -0.385344770     0.241220908    -0.208139093
   52    30.201641155    39.931378362    11.982823101    -0.367620449     0.255631355    -0.222503518
   53    29.470867819    34.611539981    19.905835907    -0.371188216     0.267299120    -0.201917036
   54    25.629980051    32.718249269    20.217253646    -0.367627651     0.286651750    -0.180777997
   55    24.076203197    40.386558497    13.118660180    -0.369393912     0.263293465    -0.210296670
   56    27.187344730    34.379180147    20.082712893    -0.380116875     0.255811447    -0.200179083
   57    26.077011248    36.305347851    17.712481549    -0.382543332     0.252259104    -0.200064848
   58    24.949971594    30.593479667    17.502811220    -0.370622099     0.267899709    -0.202160842
   59    26.601701635    32.072509441    18.217924933    -0.377924701     0.262147940    -0.196090228
   60    29.707007554    36.751824601    19.463546182    -0.372051756     0.262553662    -0.206501974
   61    29.871884858    32.125320935    20.366956008    -0.390740841     0.251623352    -0.184410639
   62    29.703654053    37.641231397    12.801118076    -0.387932616     0.242942923    -0.201213870
   63    22.966233357    38.174862914    19.994954033    -0.364261819     0.268846246    -0.212214569
   64    24.306192841    39.496555068    11.061772872    -0.372550074     0.254324433    -0.215697763
   65    25.433138551    34.223178984    13.908725443    -0.316784408     0.308278949    -0.233691525
   66    21.831448126    37.104926435    18.502081391    -0.360296854     0.273133063    -0.213505286
   67    28.662431593    33.133830494    18.613877495    -0.378660881     0.264982588    -0.190788273
   68    21.825472399    32.664316604    15.713245428    -0.449364540     0.204175261    -0.079899771
   21    32.719334800    36.877626662    14.779748173     0.378186701    -0.247873711     0.213385667
   22    40.051640470    32.261249116    16.819674893    -0.430337906     0.224892442    -0.119300778
   23    39.935714052    39.788574828    17.684514524    -0.373235776     0.260869686    -0.206499547
   24    34.882504626    34.676288476    18.512625944    -0.383535592     0.245744266    -0.206180032
   25    36.161163436    30.920138759    11.797642015    -0.367066441     0.264386415    -0.212983689
   26    32.720389393    31.502516641    18.334787223    -0.159455211    -0.350145140     0.319331202
   27    31.385012570    33.502775119    13.622990648    -0.382722182     0.256812242    -0.193832928
   28    38.378173288    35.941588866    11.892269512    -0.390303844     0.242722870    -0.196846431
   29    39.090803109    38.594401768    15.971784338    -0.364441183     0.267032195    -0.214187840
   30    37.860769839    39.508063149    12.668829613    -0.378929459     0.261289291    -0.195295601
   31    36.373138900    40.471813841    19.683220828    -0.371436254     0.269197227    -0.198916972
   32    38.500013789    31.122801078    18.912149330    -0.371112348     0.268708874    -0.200177836
   33    31.563237120    38.497127665    16.314366715    -0.373349836     0.268324893    -0.196498478
   34    41.160541091    33.481893626    19.032599190    -0.492333947    -0.028260619     0.082514378
   35    38.532830303    38.083537892    11.208811689    -0.381443569     0.256579265    -0.196641513
   36    38.046598671    33.070297768    16.542882397    -0.421274468     0.228214436    -0.142989489
   37    38.552158033    35.683177653    18.479593655    -0.375269805     0.257544774    -0.206986143
   38    36.637206222    36.600384423    15.178732402    -0.394702723     0.243300415    -0.187122068
   39    38.823712923    36.295725137    14.604258392    -0.403564906     0.230871184    -0.183939835
   40    33.590123355    39.314480885    17.151223293    -0.371797083     0.265808227    -0.202763201
   41    37.089495398    32.506385449    14.592200406    -0.420150868     0.226272442    -0.149244865
   42    31.373605678    38.947972915    14.041234456    -0.385291363     0.243215090    -0.205905284
   43    34.911416405    37.532663409    16.185625467    -0.391062493     0.245711610    -0.191561820
   44    39.851811613    34.532004798    15.468964301    -0.405500525     0.231828052    -0.178395848
   45    35.191242423    40.048712247    15.644789552    -0.378455866     0.253948723    -0.205623937
   46    38.283268834    31.727215888    12.944530897    -0.417421688     0.231404717    -0.149033525
   47    37.707732864    32.296949627    20.509295627    -0.380213426     0.253497336    -0.202920801
   48    40.912647970    33.953799495    11.430397718    -0.371640203     0.270465839    -0.196803935
   49    34.152114407    35.805958102    12.520292546     0.380797640    -0.231813351     0.226397277
   50    37.306874432    39.880044438    17.641346457    -0.365803577     0.259296926    -0.221252903
   51    40.583844535    36.313656816    11.569731342    -0.384919640     0.240919931    -0.209271253
   52    40.291297105    40.076038574    12.270909971    -0.366372453     0.256275038    -0.223817628
   53    39.560523769    34.756200193    20.193922777    -0.371142661     0.266219866    -0.203421012
   54    35.719636001    32.862909481    20.505340516    -0.367708368     0.286019832    -0.181612807
   55    34.165859147    40.531218708    13.406747050    -0.368209176     0.264177459    -0.211263515
   56    37.277000680    34.523840359    20.370799763    -0.380179265     0.255069315    -0.201005898
   57    36.166667198    36.450008063    18.000568419    -0.382293563     0.251733494    -0.201201093
   58    35.039627543    30.738139878    17.790898090    -0.370690746     0.267254681    -0.202887423
   59    36.691357584    32.217169652    18.506011802    -0.377967821     0.261609239    -0.196725525
   60    39.796663504    36.896484812    19.751633051    -0.372001894     0.261605789    -0.207790765
   61    39.961540808    32.269981147    20.655042877    -0.390940574     0.251219163    -0.184538343
   62    39.793310003    37.785891608    13.089204945    -0.387287777     0.242824740    -0.202593988
   63    33.055889307    38.319523126    20.283040903    -0.363351032     0.269595443    -0.212824634
   64    34.395848791    39.641215280    11.349859742    -0.371380306     0.255335112    -0.216519397
   65    35.522794500    34.367839196    14.196812313    -0.314250804     0.315265076    -0.227715532
   66    31.921104076    37.249586647    18.790168261    -0.359418515     0.274204112    -0.213612818
   67    38.752087543    33.278490706    18.901964365    -0.378653167     0.264272038    -0.191786520
   68    31.915128349    32.808976816    16.001332297    -0.447998671     0.207432947    -0.079175522
   21     2.332011708     6.400501200    23.835596655     0.378451294    -0.245703219     0.215417145
   22     9.664317379     1.784123655    25.875523375    -0.430452088     0.223680696    -0.121152576
   23     9.548390960     9.311449367    26.740363006    -0.374602241     0.258943312    -0.206449804
   24     4.495181534     4.199163015    27.568474427    -0.383958514     0.245114972    -0.206141964
   25     5.773840344     0.443013297    20.853490498    -0.366900347     0.264217168    -0.213479328
   26     2.333066301     1.025391180    27.390635705    -0.157781725    -0.354958164     0.314816818
   27     0.997689478     3.025649657    22.678839130    -0.382533823     0.254394479    -0.197360896
   28     7.990850196     5.464463404    20.948117995    -0.390817621     0.241735314    -0.197042190
   29     8.703480017     8.117276307    25.027632821    -0.365854352     0.265023930    -0.214272979
   30     7.473446747     9.030937687    21.724678095    -0.379559620     0.259946407    -0.195863115
   31     5.985815809     9.994688379    28.739069310    -0.372855640     0.267603651    -0.198411083
   32     8.112690697     0.645675616    27.967997812    -0.370966807     0.268856731    -0.200249061
   33     1.175914029     8.020002204    25.370215197    -0.373953733     0.266354740    -0.198024640
   34    10.773218000     3.004768165    28.088447672    -0.493093758    -0.032424236     0.076205086
   35     8.145507211     7.606412431    20.264660171    -0.382046155     0.255527119    -0.196841629
   36     7.659275580     2.593172306    25.598730879    -0.421369227     0.227306903    -0.144151122
   37     8.164834941     5.206052191    27.535442138    -0.375834296     0.256937585    -0.206716375
   38     6.249883131     6.123258962    24.234580884    -0.395301887     0.242024610    -0.187511350
   39     8.436389831     5.818599676    23.660106875    -0.404074641     0.229691886    -0.184296830
   40     3.202800263     8.837355423    26.207071775    -0.372669967     0.264104160    -0.203386550
   41     6.702172307     2.029259987    23.648048888    -0.420161412     0.225555889    -0.150296138
   42     0.986282586     8.470847453    23.097082939    -0.385350373     0.241132584    -0.208231041
   43     4.524093314     7.055537947    25.241473950    -0.391680781     0.244386371    -0.191993404
   44     9.464488522     4.054879336    24.524812783    -0.405988901     0.230606587    -0.178867588
   45     4.803919332     9.571586786    24.700638035    -0.379318966     0.252257271    -0.206114994
   46     7.895945742     1.250090427    22.000379380    -0.417462494     0.230725106    -0.149969968
   47     7.320409772     1.819824166    29.565144109    -0.380210426     0.253232085    -0.203257332
   48    10.525324878     3.476674033    20.486246201    -0.372057730     0.269827271    -0.196891568
   49     3.764791316     5.328832640    21.576141028     0.378840614    -0.231490509     0.229982464
   50     6.919551340     9.402918976    26.697194939    -0.367157115     0.257802994    -0.220756131
   51    10.196521444     5.836531355    20.625579825    -0.385495930     0.239840577    -0.209450199
   52     9.903974014     9.598913112    21.326758453    -0.367079360     0.255019809    -0.224092929
   53     9.173200677     4.279074732    29.249771259    -0.371693742     0.265783770    -0.202984605
   54     5.332312909     2.385784020    29.561188998    -0.368049250     0.285750999    -0.181345295
   55     3.778536055    10.054093247    22.462595532    -0.368696862     0.262646974    -0.212318607
   56     6.889677588     4.046714898    29.426648245    -0.380283955     0.254899910    -0.201022759
   57     5.779344107     5.972882602    27.056416901    -0.382817637     0.250949090    -0.201184520
   58     4.652304452     0.261014417    26.846746572    -0.370344589     0.267632824    -0.203021074
   59     6.304034493     1.740044191    27.561860285    -0.377741142     0.261840598    -0.196853069
   60     9.409340412     6.419359351    28.807481534    -0.372770591     0.260836863    -0.207379405
   61     9.574217716     1.792855685    29.710891360    -0.391008265     0.250776761    -0.184996089
   62     9.405986912     7.308766147    22.145053428    -0.387984202     0.241560521    -0.202772714
   63     2.668566215     7.842397665    29.338889385    -0.364295533     0.267859868    -0.213400693
   64     4.008525699     9.164089819    20.405708224    -0.371720489     0.253785076    -0.217754479
   65     5.135471409     3.890713734    23.252660795    -0.302686904     0.326699890    -0.227261566
   66     1.533780985     6.772461185    27.846016743    -0.360151352     0.272434311    -0.214640512
   67     8.364764451     2.801365244    27.957812847    -0.378874147     0.264081255    -0.191612816
   68     1.527805257     2.331851354    25.057180780    -0.448109792     0.206372494    -0.081289656
   21    12.421667658     6.545161412    24.123683524     0.378397122    -0.247022762     0.213998534
   22    19.753973328     1.928783866    26.163610245    -0.431988524     0.219858745    -0.122670484
   23    19.638046910     9.456109578    27.028449876    -0.374900897     0.259779291    -0.204851257
   24    14.584837484     4.343823226    27.856561296    -0.384463176     0.245099049    -0.205218231
   25    15.863496294     0.587673509    21.141577367    -0.367778149     0.263170631    -0.213261465
   26    12.422722251     1.170051392    27.678722575    -0.180539977    -0.344346663     0.314373492
   27    11.087345428     3.170309869    22.966926000    -0.383762305     0.253347576    -0.196319890
   28    18.080506146     5.609123616    21.236204864    -0.391855637     0.240964268    -0.195921875
   29    18.793135967     8.261936519    25.315719690    -0.366505489     0.265453142    -0.212622567
   30    17.563102697     9.175597899    22.012764964    -0.380588181     0.259439400    -0.194534918
   31    16.075471758    10.139348591    29.027156180    -0.372708183     0.268502328    -0.197471795
   32    18.202346647     0.790335828    28.256084682    -0.371389706     0.268557209    -0.199866735
   33    11.265569978     8.164662416    25.658302067    -0.373909353     0.267216315    -0.196944756
   34    20.862873950     3.149428376    28.376534542    -0.492843141    -0.043868456     0.071980533
   35    18.235163161     7.751072642    20.552747041    -0.383041121     0.254793011    -0.195857144
   36    17.748931530     2.737832518    25.886817749    -0.422556590     0.224616492    -0.144890855
   37    18.254490891     5.350712403    27.823529007    -0.376202163     0.257322281    -0.205565504
   38    16.339539081     6.267919174    24.522667754    -0.395887951     0.241925286    -0.186399802
   39    18.526045781     5.963259887    23.948193744    -0.404947374     0.229037317    -0.183192608
   40    13.292456213     8.982015635    26.495158645    -0.372819324     0.264695254    -0.202341726
   41    16.791828257     2.173920199    23.936135758    -0.421317951     0.222978261    -0.150903543
   42    11.075938536     8.615507665    23.385169808    -0.385425135     0.242057051    -0.207016543
   43    14.613749263     7.200198159    25.529560819    -0.392164527     0.244461405    -0.190907320
   44    19.554144472     4.199539548    24.812899653    -0.406985083     0.229736917    -0.177719135
   45    14.893575281     9.716246998    24.988724904    -0.379572616     0.252799445    -0.204980656
   46    17.985601692     1.394750638    22.288466249    -0.418598161     0.228335129    -0.150461451
   47    17.410065722     1.964484377    29.853230979    -0.380603865     0.253317801    -0.202412424
   48    20.614980828     3.621334245    20.774333070    -0.373152888     0.268982407    -0.195972923
   49    13.854447266     5.473492852    21.864227898     0.384898657    -0.231788001     0.219379457
   50    17.009207290     9.547579188    26.985281809    -0.367164397     0.258551236    -0.219867151
   51    20.286177393     5.981191566    20.913666694    -0.386464266     0.239194284    -0.208402173
   52    19.993629963     9.743573324    21.614845323    -0.368257247     0.254377851    -0.222886763
   53    19.262856627     4.423734943    29.537858129    -0.371941448     0.266378099    -0.201748029
   54    15.421968859     2.530444231    29.849275868    -0.368469736     0.285729485    -0.180523448
   55    13.868192005    10.198753458    22.750682402    -0.369259949     0.262842124    -0.211095022
   56    16.979333538     4.191375109    29.714735115    -0.380741934     0.254957846    -0.200080176
   57    15.869000056     6.117542813    27.344503771    -0.383308459     0.250987903    -0.200199145
   58    14.741960402     0.405674629    27.134833442    -0.370770251     0.267163150    -0.202862693
   59    16.393690443     1.884704402    27.849947154    -0.378283170     0.261262134    -0.196580621
   60    19.498996362     6.564019562    29.095568403    -0.372979654     0.261416439    -0.206270753
   61    19.663873666     1.937515897    29.998978229    -0.391326754     0.250842365    -0.184232136
   62    19.495642861     7.453426359    22.433140297    -0.388987439     0.241024717    -0.201484137
   63    12.758222165     7.987057876    29.626976255    -0.364318809     0.268384298    -0.212700903
   64    14.098181649     9.308750030    20.693795094    -0.372373172     0.253864073    -0.216543883
   65    15.225127359     4.035373946    23.540747665    -0.318494014     0.314976740    -0.222151337
   66    11.623436934     6.917121397    28.134103612    -0.360295384     0.272811586    -0.213918384
   67    18.454420401     2.946025456    28.245899717    -0.379379041     0.263980210    -0.190751125
   68    11.617461207     2.476511566    25.345267649    -0.446321246     0.211125286    -0.078888901
   21    22.511323608     6.689821624    24.411770394     0.379949092    -0.246182505     0.212209476
   22    29.843629278     2.073444078    26.451697114    -0.431539049     0.223242489    -0.118054395
   23    29.727702860     9.600769790    27.316536745    -0.375148225     0.259452416    -0.204812727
   24    24.674493434     4.488483438    28.144648166    -0.384443466     0.245734591    -0.204493843
   25    25.953152244     0.732333720    21.429664237    -0.367276135     0.264684974    -0.212250101
   26    22.512378201     1.314711603    27.966809444    -0.136800062    -0.363256275     0.315167609
   27    21.177001378     3.314970081    23.255012870    -0.384898156     0.253499319    -0.193885288
   28    28.170162096     5.753783827    21.524291734    -0.391612541     0.241488479    -0.195762438
   29    28.882791917     8.406596730    25.603806560    -0.366516747     0.265503945    -0.212539712
   30    27.652758647     9.320258110    22.300851834    -0.380662543     0.259553833    -0.194236548
   31    26.165127708    10.284008803    29.315243049    -0.373557829     0.267689722    -0.196968935
   32    28.292002597     0.934996040    28.544171552    -0.371130428     0.269654608    -0.198868293
   33    21.355225928     8.309322627    25.946388936    -0.374762771     0.266880134    -0.195775023
   34    30.952529899     3.294088588    28.664621411    -0.491531776    -0.038886850     0.082971837
   35    28.324819111     7.895732854    20.840833911    -0.382887830     0.255257169    -0.195552262
   36    27.838587479     2.882492730    26.174904618    -0.422274645     0.227403066    -0.141322220
   37    28.344146841     5.495372614    28.111615877    -0.376089317     0.257720493    -0.205272924
   38    26.429195030     6.412579385    24.810754623    -0.395879482     0.242398336    -0.185802267
   39    28.615701731     6.107920099    24.236280614    -0.404710232     0.229960979    -0.182558417
   40    23.382112163     9.126675846    26.783245515    -0.373470132     0.264442626    -0.201469994
   41    26.881484206     2.318580410    24.224222628    -0.421101484     0.225865650    -0.147167415
   42    21.165594486     8.760167877    23.673256678    -0.386461601     0.241518340    -0.205709315
   43    24.703405213     7.344858371    25.817647689    -0.392333105     0.244750208    -0.190189565
   44    29.643800421     4.344199759    25.100986522    -0.406568670     0.231159351    -0.176825540
   45    24.983231231     9.860907209    25.276811774    -0.380235011     0.252342647    -0.204314770
   46    28.075257642     1.539410850    22.576553119    -0.418223326     0.231116367    -0.147222535
   47    27.499721672     2.109144589    30.141317848    -0.380221028     0.254330756    -0.201860933
   48    30.704636778     3.765994456    21.062419940    -0.372659652     0.270137241    -0.195321927
   49    23.944103215     5.618153064    22.152314767     0.399908580    -0.226925429     0.196412771
   50    27.098863240     9.692239399    27.273368679    -0.368142417     0.257620872    -0.219323156
   51    30.375833343     6.125851778    21.201753564    -0.386244032     0.239702246    -0.208226754
   52    30.083285913     9.888233536    21.902932192    -0.368267078     0.254533738    -0.222692468
   53    29.352512577     4.568395155    29.825944999    -0.371729590     0.266814380    -0.201561898
   54    25.511624809     2.675104443    30.137362737    -0.368024453     0.286741889    -0.179825167
   55    23.957847955    10.343413670    23.038769271    -0.369913306     0.262446496    -0.210442350
   56    27.068989488     4.336035321    30.002821984    -0.380493106     0.255838418    -0.199428434
   57    25.958656006     6.262203025    27.632590640    -0.383283730     0.251538640    -0.199554241
   58    24.831616351     0.550334840    27.422920312    -0.370859131     0.268120402    -0.201432259
   59    26.483346392     2.029364614    28.138034024    -0.378170217     0.262424999    -0.195244479
   60    29.588652312     6.708679774    29.383655273    -0.372909308     0.261562313    -0.206213009
   61    29.753529616     2.082176108    30.287065099    -0.390953740     0.251868464    -0.183623119
   62    29.585298811     7.598086570    22.721227167    -0.388743842     0.241459014    -0.201434281
   63    22.847878115     8.131718088    29.915063125    -0.364940633     0.268342060    -0.211685790
   64    24.187837599     9.453410242    20.981881964    -0.373053440     0.253478887    -0.215823040
   65    25.314783308     4.180034158    23.828834535    -0.345539820     0.351579428    -0.083630968
   66    21.713092884     7.061781608    28.422190482    -0.360818469     0.272953081    -0.212853584
   67    28.544076351     3.090685667    28.533986586    -0.378995070     0.264985883    -0.190118960
   68    21.707117157     2.621171777    25.633354519    -0.448377184     0.205769253    -0.081344428
   21    32.600979558     6.834481835    24.699857264     0.378850577    -0.246610528     0.213671449
   22    39.933285228     2.218104290    26.739783984    -0.431537012     0.220365784    -0.123347995
   23    39.817358810     9.745430001    27.604623615    -0.375048820     0.257977625    -0.206847594
   24    34.764149383     4.633143649    28.432735035    -0.383448013     0.244863538    -0.207387245
   25    36.042808193     0.876993932    21.717751106    -0.366122060     0.264552255    -0.214398558
   26    32.602034150     1.459371815    28.254896314    -0.151073236    -0.348705440     0.324932906
   27    31.266657328     3.459630292    23.543099739    -0.383811074     0.254890590    -0.194215978
   28    38.259818045     5.898444039    21.812378603    -0.390385042     0.241107766    -0.198661935
   29    38.972447867     8.551256942    25.891893429    -0.366206046     0.263966285    -0.214976586
   30    37.742414596     9.464918322    22.588938704    -0.379585941     0.259094706    -0.196937673
   31    36.254783658    10.428669014    29.603329919    -0.373583097     0.266308498    -0.198784942
   32    38.381658547     1.079656251    28.832258421    -0.370511745     0.268463214    -0.201614854
   33    31.444881878     8.453982839    26.234475806    -0.374470138     0.266596645    -0.196718948
   34    41.042185849     3.438748800    28.952708281    -0.492766323    -0.041916555     0.073650207
   35    38.414475061     8.040393065    21.128920780    -0.381722822     0.254959693    -0.198200004
   36    37.928243429     3.027152941    26.462991488    -0.421753105     0.225323097    -0.146129465
   37    38.433802790     5.640032826    28.399702747    -0.375485164     0.256770380    -0.207556892
   38    36.518850980     6.557239597    25.098841493    -0.395088972     0.241602487    -0.188501835
   39    38.705357681     6.252580310    24.524367483    -0.403762568     0.229201291    -0.185587061
   40    33.471768113     9.271336058    27.071332384    -0.373234674     0.263623843    -0.202973759
   41    36.971140156     2.463240622    24.512309497    -0.420358748     0.223934732    -0.152157020
   42    31.255250436     8.904828088    23.961343547    -0.386152646     0.241692284    -0.206084872
   43    34.793061163     7.489518582    26.105734558    -0.391577895     0.243952054    -0.192754113
   44    39.733456371     4.488859971    25.389073392    -0.405627642     0.230198638    -0.180207668
   45    35.072887181    10.005567421    25.564898643    -0.379790616     0.251448359    -0.206234844
   46    38.164913591     1.684071062    22.864639988    -0.417518197     0.229450662    -0.151759509
   47    37.589377621     2.253804801    30.429404718    -0.379476776     0.253239623    -0.204614441
   48    40.794292728     3.910654668    21.350506809    -0.371416856     0.269491564    -0.198554316
   49    34.033759165     5.762813275    22.440401637     0.381492953    -0.234638365     0.222279024
   50    37.188519189     9.836899611    27.561455548    -0.367972034     0.256218019    -0.221244004
   51    40.465489293     6.270511990    21.489840433    -0.385099019     0.239286772    -0.210809359
   52    40.172941863    10.032893747    22.191019062    -0.367017403     0.253965207    -0.225388331
   53    39.442168527     4.713055366    30.114031868    -0.371224809     0.265776901    -0.203849895
   54    35.601280758     2.819764655    30.425449607    -0.367050218     0.285925548    -0.183086641
   55    34.047503904    10.488073882    23.326856141    -0.369288178     0.261826178    -0.212304721
   56    37.158645437     4.480695532    30.290908854    -0.379738148     0.254658125    -0.202356561
   57    36.048311956     6.406863237    27.920677510    -0.382384466     0.250687255    -0.202331461
   58    34.921272301     0.694995052    27.711007181    -0.370085374     0.267140824    -0.204138670
   59    36.573002342     2.174024826    28.426120893    -0.377392975     0.261357465    -0.198158569
   60    39.678308261     6.853339986    29.671742142    -0.372491097     0.260766531    -0.207969226
   61    39.843185566     2.226836320    30.575151969    -0.390243333     0.250819400    -0.186546964
   62    39.674954761     7.742746782    23.009314036    -0.387695045     0.240924214    -0.204078601
   63    32.937534065     8.276378300    30.203149994    -0.364766325     0.268128684    -0.212255828
   64    34.277493549     9.598070453    21.269968833    -0.372360794     0.253015351    -0.217556133
   65    35.404439258     4.324694369    24.116921404    -0.311131629     0.322663169    -0.221552677
   66    31.802748834     7.206441820    28.710277352    -0.360678512     0.272838171    -0.213237762
   67    38.633732300     3.235345879    28.822073456    -0.378541340     0.263731209    -0.192749329
   68    31.796773107     2.765831989    25.921441389    -0.447627674     0.209747836    -0.075068705
   21     2.467087179    16.425594721    23.866222078     0.380927199    -0.245006561     0.211816557
   22     9.799392850    11.809217176    25.906148799    -0.431645330     0.219305469    -0.124849591
   23     9.683466431    19.336542888    26.770988430    -0.374059234     0.259543208    -0.206680943
   24     4.630257005    14.224256536    27.599099850    -0.384143954     0.244503471    -0.206522336
   25     5.908915815    10.468106818    20.884115921    -0.366628983     0.263844934    -0.214403917
   26     2.468141772    11.050484701    27.421261129    -0.131858914    -0.353616983     0.327975999
   27     1.132764949    13.050743178    22.709464554    -0.384898318     0.250581305    -0.197641833
   28     8.125925667    15.489556925    20.978743418    -0.390529327     0.241780599    -0.197557553
   29     8.838555488    18.142369828    25.058258244    -0.365401673     0.265488035    -0.214470791
   30     7.608522218    19.056031208    21.755303518    -0.379459584     0.260002416    -0.195982569
   31     6.120891280    20.019781900    28.769694734    -0.372543117     0.267573819    -0.199037377
   32     8.247766168    10.670769137    27.998623236    -0.371409360     0.267501090    -0.201241781
   33     1.310989500    18.045095725    25.400840621    -0.375147704     0.265662550    -0.196691661
   34    10.908293471    13.029861686    28.119073096    -0.493798043    -0.040918093     0.067001507
   35     8.280582682    17.631505952    20.295285595    -0.381940041     0.255656441    -0.196879631
   36     7.794351051    12.618265827    25.629356302    -0.421948972     0.224600521    -0.146675392
   37     8.299910412    15.231145712    27.566067561    -0.375938419     0.256540359    -0.207020168
   38     6.384958602    16.148352483    24.265206308    -0.395390751     0.241974223    -0.187388979
   39     8.571465302    15.843693197    23.690732298    -0.404051750     0.229715206    -0.184317953
   40     3.337875734    18.862448944    26.237697199    -0.373177993     0.263797788    -0.202851948
   41     6.837247778    12.054353508    23.678674312    -0.420542026     0.223295043    -0.152590065
   42     1.121358057    18.495940974    23.127708362    -0.386988315     0.239993696    -0.206501986
   43     4.659168785    17.080631468    25.272099373    -0.391878061     0.244266971    -0.191742620
   44     9.599563993    14.079972857    24.555438207    -0.405944653     0.230615797    -0.178956120
   45     4.938994803    19.596680307    24.731263458    -0.379611138     0.251942914    -0.205961530
   46     8.031021213    11.275183948    22.031004803    -0.417780567     0.228821562    -0.151987140
   47     7.455485243    11.844917687    29.595769533    -0.380345797     0.252319568    -0.204136988
   48    10.660400349    13.501767554    20.516871624    -0.371687008     0.269918538    -0.197465822
   49     3.899866787    15.353926161    21.606766452     0.431705201    -0.209225017     0.140909587
   50     7.054626811    19.428012497    26.727820363    -0.366742269     0.257862503    -0.221375333
   51    10.331596915    15.861624876    20.656205248    -0.385293205     0.239971852    -0.209672735
   52    10.039049485    19.624006633    21.357383877    -0.366946135     0.255093711    -0.224226966
   53     9.308276148    14.304168253    29.280396683    -0.371786933     0.265456434    -0.203242118
   54     5.467388380    12.410877541    29.591814422    -0.368175384     0.284955560    -0.182338190
   55     3.913611526    20.079186768    22.493220956    -0.369229817     0.262070903    -0.212104182
   56     7.024753059    14.071808419    29.457273669    -0.380518616     0.253994529    -0.201723479
   57     5.914419578    15.997976123    27.087042325    -0.382986138     0.250476876    -0.201452111
   58     4.787379923    10.286107938    26.877371996    -0.370983136     0.265964449    -0.204045154
   59     6.439109964    11.765137712    27.592485708    -0.378277699     0.260294825    -0.197870126
   60     9.544415883    16.444452872    28.838106957    -0.372749677     0.260660311    -0.207638822
   61     9.709293187    11.817949206    29.741516783    -0.391043697     0.249877616    -0.186134371
   62     9.541062383    17.333859668    22.175678851    -0.387687090     0.241639895    -0.203245865
   63     2.803641686    17.867491186    29.369514809    -0.365166419     0.267084384    -0.212883579
   64     4.143601170    19.189183340    20.436333648    -0.372417425     0.252972807    -0.217508668
   65     5.270546880    13.915807255    23.283286219    -0.316969547     0.302056251    -0.241438041
   66     1.668856456    16.797554706    27.876642166    -0.361362124     0.271372859    -0.213949028
   67     8.499839922    12.826458765    27.988438271    -0.379137685     0.263246275    -0.192239473
   68     1.662880728    12.356944875    25.087806203    -0.448419145     0.206860442    -0.078288109
   21    12.556743129    16.570254933    24.154308948     0.377828193    -0.247270966     0.214715920
   22    19.889048799    11.953877388    26.194235668    -0.431857545     0.222303306    -0.118660444
   23    19.773122381    19.481203099    27.059075299    -0.374774590     0.259430249    -0.205523606
   24    14.719912955    14.368916747    27.887186720    -0.384072409     0.244719730    -0.206399221
   25    15.998571765    10.612767030    21.172202791    -0.367770130     0.263241604    -0.213187686
   26    12.557797722    11.195144913    27.709347998    -0.181848009    -0.348614845     0.308867271
   27    11.222420899    13.195403390    22.997551424    -0.382905100     0.255889505    -0.194690126
   28    18.215581617    15.634217137    21.266830288    -0.391270733     0.241141851    -0.196870061
   29    18.928211438    18.287030040    25.346345114    -0.366151394     0.265388589    -0.213312105
   30    17.698178168    19.200691420    22.043390388    -0.379868092     0.259954786    -0.195253021
   31    16.210547229    20.164442112    29.057781603    -0.372652335     0.268295023    -0.197858581
   32    18.337422118    10.815429349    28.286710106    -0.371437641     0.268166443    -0.200301867
   33    11.400645449    18.189755937    25.688927490    -0.373609412     0.267229636    -0.197495137
   34    20.997949421    13.174521897    28.407159965    -0.490983224    -0.037206940     0.086897166
   35    18.370238632    17.776166163    20.583372465    -0.382457681     0.255147981    -0.196534042
   36    17.884007001    12.762926039    25.917443172    -0.422389227     0.226249539    -0.142823272
   37    18.389566362    15.375805924    27.854154431    -0.375842179     0.256691854    -0.207007123
   38    16.474614552    16.293012695    24.553293177    -0.395293871     0.242165829    -0.187345848
   39    18.661121252    15.988353408    23.978819168    -0.404273480     0.229502629    -0.184096432
   40    13.427531684    19.007109156    26.525784069    -0.372488407     0.264628234    -0.203037642
   41    16.926903728    12.199013720    23.966761181    -0.421160024     0.224437452    -0.149171258
   42    11.211014007    18.640601186    23.415795232    -0.385057010     0.242305978    -0.207410010
   43    14.748824734    17.225291680    25.560186243    -0.391608455     0.244671000    -0.191778309
   44    19.689219943    14.224633069    24.843525076    -0.406143518     0.230477377    -0.178683019
   45    15.028650752    19.741340519    25.019350328    -0.379144267     0.252910947    -0.205634817
   46    18.120677163    11.419844159    22.319091673    -0.418443977     0.229550865    -0.149033682
   47    17.545141193    11.989577899    29.883856402    -0.380548310     0.252691519    -0.203297761
   48    20.750056299    13.646427766    20.804958494    -0.372554620     0.269012783    -0.197066430
   49    13.989522737    15.498586373    21.894853321     0.379942067    -0.230574225     0.229084160
   50    17.144282761    19.572672709    27.015907233    -0.366969236     0.258459958    -0.220299863
   51    20.421252864    16.006285087    20.944292118    -0.385917325     0.239408603    -0.209168207
   52    20.128705434    19.768666845    21.645470746    -0.367331843     0.255087827    -0.223601247
   53    19.397932098    14.448828464    29.568483553    -0.371701618     0.265376420    -0.203502490
   54    15.557044330    12.555537752    29.879901291    -0.368178145     0.285337150    -0.181734875
   55    14.003267476    20.223846979    22.781307825    -0.368699135     0.263231544    -0.211589465
   56    17.114409009    14.216468630    29.745360538    -0.380532087     0.254390231    -0.201198760
   57    16.004075527    16.142636334    27.375129194    -0.382869339     0.250698956    -0.201397870
   58    14.877035873    10.430768150    27.165458866    -0.370647854     0.267189556    -0.203051496
   59    16.528765914    11.909797924    27.880572578    -0.378091748     0.261313822    -0.196879953
   60    19.634071833    16.589113083    29.126193827    -0.372659068     0.260782774    -0.207647692
   61    19.798949137    11.962609418    30.029603653    -0.391366628     0.250177300    -0.185049941
   62    19.630718332    17.478519880    22.463765721    -0.388304079     0.241328433    -0.202436484
   63    12.893297636    18.012151397    29.657601678    -0.364319584     0.268084755    -0.213076992
   64    14.233257120    19.333843551    20.724420518    -0.371829375     0.254280420    -0.216989364
   65    15.360202830    14.060467467    23.571373089    -0.313127849     0.318953785    -0.224096929
   66    11.758512405    16.942214918    28.164729036    -0.360235562     0.272583528    -0.214309496
   67    18.589495872    12.971118977    28.276525140    -0.379242531     0.263356150    -0.191881841
   68    11.752536678    12.501605087    25.375893073    -0.448026550     0.205392766    -0.084178512
   21    22.646399079    16.714915145    24.442395818     0.378769503    -0.246775437     0.213624782
   22    29.978704749    12.098537599    26.482322538    -0.432467995     0.221117392    -0.118652990
   23    29.862778331    19.625863311    27.347162169    -0.375203061     0.258643990    -0.205732714
   24    24.809568905    14.513576959    28.175273589    -0.384837585     0.244336198    -0.205426035
   25    26.088227715    10.757427241    21.460289660    -0.368327413     0.262951602    -0.212582623
   26    22.647453672    11.339805124    27.997434868    -0.129231247    -0.350979387     0.331832420
   27    21.312076849    13.340063602    23.285638293    -0.383177047     0.253583559    -0.197156611
   28    28.305237567    15.778877348    21.554917157    -0.392125750     0.240727359    -0.195672520
   29    29.017867388    18.431690251    25.634431983    -0.366502210     0.264866452    -0.213358600
   30    27.787834118    19.345351631    22.331477258    -0.380813216     0.259127442    -0.194510317
   31    26.300203179    20.309102324    29.345868473    -0.372859765     0.268158553    -0.197652691
   32    28.427078068    10.960089561    28.574796975    -0.372010172     0.267649568    -0.199930339
   33    21.490301399    18.334416148    25.977014360    -0.374167432     0.266965559    -0.196794623
   34    31.087605370    13.319182109    28.695246835    -0.490863835    -0.035888040     0.088117785
   35    28.459894582    17.920826375    20.871459334    -0.383311888     0.254517443    -0.195685635
   36    27.973662950    12.907586251    26.205530042    -0.423149706     0.225005666    -0.142536930
   37    28.479222312    15.520466135    28.142241300    -0.376559698     0.256280900    -0.206210800
   38    26.564270501    16.437672906    24.841380047    -0.396159187     0.241577394    -0.186274693
   39    28.750777202    16.133013620    24.266906037    -0.405174965     0.228897948    -0.182863274
   40    23.517187634    19.151769367    26.813870938    -0.372963593     0.264465316    -0.202376517
   41    27.016559677    12.343673931    24.254848051    -0.421955070     0.223150099    -0.148855473
   42    21.300669957    18.785261398    23.703882101    -0.385773420     0.241784383    -0.206686188
   43    24.838480684    17.369951892    25.848273112    -0.392435882     0.244100632    -0.190811319
   44    29.778875892    14.369293280    25.131611946    -0.407127687     0.229796428    -0.177315110
   45    25.118306702    19.886000730    25.307437197    -0.379721324     0.252559028    -0.205001594
   46    28.210333113    11.564504371    22.607178542    -0.419187926     0.228449048    -0.148635511
   47    27.634797143    12.134238110    30.171943272    -0.380981923     0.252311551    -0.202957276
   48    30.839712249    13.791087977    21.093045363    -0.373454873     0.268827283    -0.195610199
   49    24.079178686    15.643246585    22.182940191     0.382965612    -0.236794509     0.217406764
   50    27.233938711    19.717332920    27.303994102    -0.367268850     0.258387367    -0.219885334
   51    30.510908814    16.150945299    21.232378987    -0.386760179     0.238896874    -0.208194255
   52    30.218361384    19.913327057    21.933557616    -0.368395755     0.254288579    -0.222759705
   53    29.487588048    14.593488676    29.856570422    -0.372256211     0.265111822    -0.202832530
   54    25.646700280    12.700197964    30.167988161    -0.368519711     0.285173346    -0.181299160
   55    24.092923426    20.368507191    23.069394695    -0.369350186     0.262810903    -0.210975992
   56    27.204064959    14.361128842    30.033447408    -0.381118014     0.253991768    -0.200592226
   57    26.093731477    16.287296546    27.663216064    -0.383630393     0.250328214    -0.200408351
   58    24.966691823    10.575428361    27.453545735    -0.371782774     0.266023454    -0.202507014
   59    26.618421863    12.054458135    28.168659447    -0.378948668     0.260475701    -0.196342344
   60    29.723727783    16.733773295    29.414280696    -0.373407211     0.260291761    -0.206918472
   61    29.888605087    12.107269629    30.317690523    -0.391735584     0.249828893    -0.184739698
   62    29.720374282    17.623180091    22.751852590    -0.389229774     0.240753865    -0.201339910
   63    22.982953586    18.156811609    29.945688548    -0.364384939     0.268079495    -0.212971831
   64    24.322913070    19.478503763    21.012507387    -0.372492811     0.253846353    -0.216358810
   65    25.449858780    14.205127679    23.859459958    -0.316940762     0.314944641    -0.224406833
   66    21.848168355    17.086875129    28.452815906    -0.360264872     0.272616188    -0.214218664
   67    28.679151822    13.115779188    28.564612010    -0.379783600     0.262965298    -0.191346987
   68    21.842192628    12.646265298    25.663979942    -0.447918881     0.209239570    -0.074749438
   21    32.736055029    16.859575356    24.730482687     0.380885212    -0.245455919     0.211371348
   22    40.068360699    12.243197811    26.770409407    -0.432275584     0.219851869    -0.121667480
   23    39.952434281    19.770523523    27.635249039    -0.376241750     0.258206990    -0.204380273
   24    34.899224854    14.658237170    28.463360459    -0.385510433     0.242436254    -0.206413102
   25    36.177883664    10.902087453    21.748376530    -0.367246979     0.262641850    -0.214822985
   26    32.737109622    11.484465336    28.285521738    -0.148691471    -0.333884216     0.341192287
   27    31.401732799    13.484723813    23.573725163    -0.384355143     0.253413162    -0.195071508
   28    38.394893516    15.923537560    21.843004027    -0.392150968     0.238899958    -0.197849511
   29    39.107523338    18.576350463    25.922518853    -0.367620273     0.264092236    -0.212392622
   30    37.877490067    19.490011843    22.619564127    -0.381380299     0.257368045    -0.195731339
   31    36.389859129    20.453762535    29.633955342    -0.374383439     0.267115839    -0.196178920
   32    38.516734018    11.104749772    28.862883845    -0.372148892     0.266174439    -0.201634249
   33    31.579957349    18.479076360    26.265101230    -0.375504686     0.265662629    -0.196009180
   34    41.177261320    13.463842321    28.983333704    -0.491565573    -0.039467682     0.082495995
   35    38.549550532    18.065486586    21.159546204    -0.383548625     0.252879189    -0.197338714
   36    38.063318900    13.052246462    26.493616911    -0.422908338     0.223740060    -0.145220258
   37    38.568878261    15.665126347    28.430328170    -0.377240022     0.254861318    -0.206726085
   38    36.653926451    16.582333118    25.129466916    -0.396875249     0.239605283    -0.187294808
   39    38.840433152    16.277673831    24.554992907    -0.405534265     0.226858919    -0.184599542
   40    33.606843584    19.296429579    27.101957808    -0.374375356     0.262901261    -0.201806888
   41    37.106215627    12.488334143    24.542934921    -0.421607413     0.221958483    -0.151596905
   42    31.390325907    18.929921609    23.991968971    -0.386767555     0.241010334    -0.205730108
   43    34.928136634    17.514612103    26.136359982    -0.393317594     0.242169425    -0.191455581
   44    39.868531842    14.513953492    25.419698815    -0.407423756     0.227628399    -0.179419049
   45    35.207962652    20.030660942    25.595524067    -0.381083131     0.250855234    -0.204566123
   46    38.299989062    11.709164583    22.895265412    -0.418752669     0.227447333    -0.151373421
   47    37.724453093    12.278898322    30.460030141    -0.381306996     0.250986823    -0.203986738
   48    40.929368199    13.935748189    21.381132233    -0.373084658     0.267092158    -0.198669618
   49    34.168834636    15.787906796    22.471027061     0.417370438    -0.228170446     0.154078440
   50    37.323594660    19.861993132    27.592080972    -0.368940254     0.257012042    -0.218695905
   51    40.600564764    16.295605511    21.520465857    -0.386908330     0.237175506    -0.209880259
   52    40.308017334    20.057987268    22.221644485    -0.368882234     0.252350316    -0.224154445
   53    39.577243998    14.738148888    30.144657292    -0.373076295     0.263585760    -0.203314104
   54    35.736356229    12.844858176    30.456075030    -0.369405890     0.283153923    -0.182655807
   55    34.182579375    20.513167403    23.357481564    -0.370881366     0.260734371    -0.210866309
   56    37.293720908    14.505789054    30.321534277    -0.381636311     0.252247967    -0.201803590
   57    36.183387427    16.431956758    27.951302933    -0.384395549     0.248407705    -0.201329764
   58    35.056347772    10.720088573    27.741632605    -0.371585194     0.264612153    -0.204706747
   59    36.708077813    12.199118347    28.456746317    -0.379006309     0.258904661    -0.198299254
   60    39.813383732    16.878433507    29.702367566    -0.373996516     0.259180322    -0.207249045
   61    39.978261037    12.251929841    30.605777392    -0.392078032     0.248594392    -0.185676182
   62    39.810030232    17.767840303    23.039939460    -0.389521430     0.239048159    -0.202802941
   63    33.072609536    18.301471821    30.233775418    -0.365319098     0.267579867    -0.211997574
   64    34.412569020    19.623163974    21.300594257    -0.373955334     0.251814228    -0.216210551
   65    35.539514729    14.349787890    24.147546828    -0.352031356     0.277899333    -0.221011053
   66    31.937824305    17.231535341    28.740902775    -0.361223388     0.272055587    -0.213315311
   67    38.768807772    13.260439400    28.852698879    -0.380297545     0.261430244    -0.192426623
   68    31.931848578    12.790925510    25.952066812    -0.448371732     0.208242901    -0.074817672
   21     2.602162650    26.450688242    23.896847502     0.379000628    -0.246454908     0.213584882
   22     9.934468321    21.834310697    25.936774222    -0.431359063     0.220901093    -0.123012463
   23     9.818541902    29.361636409    26.801613853    -0.374157666     0.259373336    -0.206716022
   24     4.765332476    24.249350057    27.629725274    -0.383634144     0.244941888    -0.206950031
   25     6.043991286    20.493200339    20.914741345    -0.366893750     0.263694222    -0.214136250
   26     2.603217243    21.075578222    27.451886552    -0.179758551    -0.324813261     0.334937619
   27     1.267840420    23.075836699    22.740089977    -0.384943237     0.252798025    -0.194709689
   28     8.261001138    25.514650446    21.009368842    -0.390768234     0.241667319    -0.197223462
   29     8.973630959    28.167463349    25.088883668    -0.365509186     0.265351486    -0.214456577
   30     7.743597689    29.081124729    21.785928942    -0.379836331     0.259791938    -0.195531354
   31     6.255966751    30.044875421    28.800320157    -0.372526994     0.268322419    -0.198057362
   32     8.382841639    20.695862658    28.029248660    -0.370920899     0.267791159    -0.201756245
   33     1.446064971    28.070189246    25.431466044    -0.374389647     0.267003578    -0.196319844
   34    11.043368942    23.054955207    28.149698519    -0.492762967    -0.042799633     0.073163173
   35     8.415658154    27.656599473    20.325911019    -0.382046389     0.255498992    -0.196877683
   36     7.929426522    22.643359348    25.659981726    -0.421703798     0.225689650    -0.145705485
   37     8.434985883    25.256239233    27.596692985    -0.375363978     0.256969928    -0.207529131
   38     6.520034073    26.173446004    24.295831731    -0.395227473     0.242189392    -0.187455441
   39     8.706540773    25.868786718    23.721357722    -0.403963963     0.229812678    -0.184388853
   40     3.472951205    28.887542465    26.268322623    -0.372882772     0.264598849    -0.202350902
   41     6.972323249    22.079447029    23.709299735    -0.420362948     0.224168482    -0.151800802
   42     1.256433528    28.521034495    23.158333786    -0.386262022     0.241747759    -0.205814653
   43     4.794244256    27.105724989    25.302724797    -0.391675661     0.244576055    -0.191762170
   44     9.734639464    24.105066378    24.586063630    -0.405807112     0.230821693    -0.179002608
   45     5.074070274    29.621773828    24.761888882    -0.379553709     0.252641420    -0.205210368
   46     8.166096684    21.300277469    22.061630227    -0.417559679     0.229676677    -0.151302805
   47     7.590560714    21.870011208    29.626394956    -0.380043445     0.252387419    -0.204615666
   48    10.795475820    23.526861075    20.547497048    -0.371815172     0.269812624    -0.197369262
   49     4.034942258    25.379019682    21.637391875     0.375797997    -0.234092416     0.232328660
   50     7.189702282    29.453106018    26.758445787    -0.367000228     0.258439094    -0.220272711
   51    10.466672386    25.886718397    20.686830672    -0.385374731     0.239899469    -0.209605728
   52    10.174124956    29.649100154    21.388009300    -0.367412837     0.254829921    -0.223762192
   53     9.443351619    24.329261774    29.311022107    -0.371235111     0.265752549    -0.203862883
   54     5.602463851    22.435971062    29.622439845    -0.367765238     0.284976554    -0.183131356
   55     4.048686997    30.104280289    22.523846379    -0.369376586     0.262677593    -0.211095761
   56     7.159828530    24.096901940    29.487899092    -0.380075494     0.254192171    -0.202309068
   57     6.049495049    26.023069644    27.117667748    -0.382458605     0.250982337    -0.201824880
   58     4.922455394    20.311201459    26.907997420    -0.370561854     0.265911743    -0.204877664
   59     6.574185435    21.790231233    27.623111132    -0.377857907     0.260448383    -0.198469247
   60     9.679491354    26.469546393    28.868732381    -0.372202316     0.261045374    -0.208136371
   61     9.844368658    21.843042727    29.772142207    -0.390803216     0.249953692    -0.186536855
   62     9.676137854    27.358953189    22.206304275    -0.387911553     0.241573368    -0.202896366
   63     2.938717157    27.892584707    29.400140232    -0.364808757     0.267824781    -0.212566360
   64     4.278676641    29.214276861    20.466959072    -0.372586594     0.253705450    -0.216362599
   65     5.405622351    23.940900776    23.313911642    -0.314897646     0.295708049    -0.251786064
   66     1.803931927    26.822648227    27.907267590    -0.360909133     0.272249340    -0.213599848
   67     8.634915393    22.851552286    28.019063694    -0.378656754     0.263543515    -0.192779350
   68     1.797956199    22.382038396    25.118431627    -0.449077790     0.206769723    -0.074668735
   21    12.691818600    26.595348454    24.184934372     0.378791013    -0.246102025     0.214362220
   22    20.024124270    21.978970909    26.224861092    -0.432915194     0.219696636    -0.119657106
   23    19.908197852    29.506296620    27.089700723    -0.373898337     0.260440558    -0.205841563
   24    14.854988426    24.394010268    27.917812143    -0.384066913     0.244769826    -0.206350040
   25    16.133647236    20.637860551    21.202828214    -0.366919864     0.264192120    -0.213476784
   26    12.692873193    21.220238434    27.739973422    -0.146604036    -0.365708761     0.307838202
   27    11.357496370    23.220496911    23.028176847    -0.382774088     0.255320358    -0.195692392
   28    18.350657088    25.659310658    21.297455711    -0.390824805     0.242400704    -0.196208742
   29    19.063286909    28.312123561    25.376970537    -0.365132259     0.266530207    -0.213635396
   30    17.833253639    29.225784941    22.074015812    -0.379723266     0.260406736    -0.194932226
   31    16.345622700    30.189535633    29.088407027    -0.372329803     0.268807828    -0.197769738
   32    18.472497589    20.840522870    28.317335529    -0.371282172     0.268036027    -0.200764133
   33    11.535720921    28.214849458    25.719552914    -0.373693685     0.267063777    -0.197560039
   34    21.133024892    23.199615419    28.437785389    -0.491061932    -0.045600020     0.082333574
   35    18.505314103    27.801259684    20.613997888    -0.382009137     0.256164230    -0.196083927
   36    18.019082472    22.788019560    25.948068596    -0.422963787     0.224809146    -0.143396245
   37    18.524641833    25.400899445    27.884779854    -0.375825353     0.256798660    -0.206905176
   38    16.609690023    26.318106216    24.583918601    -0.395344489     0.242255075    -0.187123527
   39    18.796196723    26.013446929    24.009444591    -0.404158174     0.230094534    -0.183610119
   40    13.562607155    29.032202677    26.556409492    -0.372434019     0.264637378    -0.203125477
   41    17.061979199    22.224107241    23.997386605    -0.421514299     0.223394528    -0.149735036
   42    11.346089478    28.665694707    23.446420655    -0.385367116     0.241838259    -0.207379947
   43    14.883900205    27.250385201    25.590811666    -0.391719418     0.244601452    -0.191640359
   44    19.824295414    24.249726590    24.874150500    -0.406192070     0.230853873    -0.178085630
   45    15.163726223    29.766434040    25.049975751    -0.379214181     0.252851605    -0.205578868
   46    18.255752634    21.444937680    22.349717096    -0.418599607     0.228949251    -0.149521269
   47    17.680216664    22.014671420    29.914481826    -0.380353295     0.252482470    -0.203921489
   48    20.885131770    23.671521287    20.835583917    -0.372072300     0.270359474    -0.196132502
   49    14.124598208    25.523679894    21.925478745     0.401307645    -0.209692483     0.212087803
   50    17.279358232    29.597766230    27.046532656    -0.366760104     0.258791875    -0.220258466
   51    20.556328336    26.031378608    20.974917541    -0.385408880     0.240643839    -0.208687657
   52    20.263780905    29.793760366    21.676096170    -0.367343971     0.255408784    -0.223214605
   53    19.533007569    24.473921985    29.599108976    -0.371564680     0.265646950    -0.203399574
   54    15.692119801    22.580631273    29.910526715    -0.368087676     0.285048520    -0.182369965
   55    14.138342947    30.248940500    22.811933249    -0.368870357     0.263113668    -0.211437598
   56    17.249484480    24.241562151    29.775985962    -0.380480771     0.254170673    -0.201572946
   57    16.139150998    26.167729855    27.405754618    -0.382879789     0.250759231    -0.201302943
   58    15.012111344    20.455861671    27.196084289    -0.370695129     0.266991618    -0.203225483
   59    16.663841385    21.934891445    27.911198001    -0.378094747     0.261078302    -0.197186416
   60    19.769147304    26.614206605    29.156819250    -0.372538733     0.260946944    -0.207657374
   61    19.934024608    21.987702939    30.060229077    -0.391219344     0.249803692    -0.185864307
   62    19.765793803    27.503613401    22.494391144    -0.387898897     0.242344507    -0.201998974
   63    13.028373107    28.037244918    29.688227102    -0.363821790     0.268474663    -0.213436314
   64    14.368332591    29.358937072    20.755045941    -0.372021324     0.254178174    -0.216780051
   65    15.495278301    24.085560988    23.601998512    -0.306867436     0.319995664    -0.231160445
   66    11.893587876    26.967308439    28.195354460    -0.359713844     0.272964907    -0.214700046
   67    18.724571343    22.996212498    28.307150564    -0.379169685     0.263409804    -0.191952143
   68    11.887612149    22.526698608    25.406518496    -0.447988101     0.206706641    -0.081111193
   21    22.781474550    26.740008666    24.473021241     0.378105950    -0.248170962     0.213183171
   22    30.113780220    22.123631120    26.512947961    -0.433652275     0.215159058    -0.125109090
   23    29.997853802    29.650956832    27.377787592    -0.374024389     0.260879658    -0.205055018
   24    24.944644376    24.538670480    28.205899013    -0.383958822     0.245735673    -0.205401077
   25    26.223303186    20.782520762    21.490915084    -0.367596399     0.263601835    -0.213042156
   26    22.782529143    21.364898645    28.028060291    -0.149663500    -0.355173839     0.318515904
   27    21.447152320    23.365157123    23.316263717    -0.382777607     0.255228389    -0.195805447
   28    28.440313038    25.803970869    21.585542581    -0.391190736     0.242049849    -0.195912426
   29    29.152942859    28.456783772    25.665057407    -0.365249816     0.266999455    -0.212847041
   30    27.922909589    29.370445152    22.362102681    -0.379788763     0.260838258    -0.194226410
   31    26.435278650    30.334195845    29.376493896    -0.371989188     0.269565884    -0.197378515
   32    28.562153539    20.985183082    28.605422399    -0.371465504     0.268019165    -0.200447265
   33    21.625376870    28.359509669    26.007639784    -0.373505043     0.268140168    -0.196455677
   34    31.222680841    23.344275630    28.725872258    -0.493074066    -0.057444477     0.059817198
   35    28.594970053    27.945919896    20.902084758    -0.382286485     0.256127351    -0.195590959
   36    28.108738421    22.932679772    26.236155465    -0.423319187     0.222381063    -0.146107936
   37    28.614297783    25.545559656    28.172866724    -0.375635702     0.258051871    -0.205686780
   38    26.699345972    26.462766427    24.872005470    -0.395366216     0.242885380    -0.186258550
   39    28.885852673    26.158107141    24.297531461    -0.404388005     0.230178056    -0.182998371
   40    23.652263105    29.176862888    26.844496362    -0.372247311     0.265765004    -0.201992331
   41    27.151635148    22.368767453    24.285473475    -0.421887202     0.221436125    -0.151582424
   42    21.435745428    28.810354919    23.734507525    -0.385212748     0.242928351    -0.206390298
   43    24.973556155    27.395045413    25.878898536    -0.391659469     0.245437122    -0.190692108
   44    29.913951363    24.394386801    25.162237369    -0.406443663     0.230877130    -0.177480421
   45    25.253382173    29.911094251    25.338062621    -0.379000633     0.253922720    -0.204650367
   46    28.345408584    21.589597892    22.637803966    -0.419001893     0.227365738    -0.150805288
   47    27.769872614    22.159331631    30.202568695    -0.380379535     0.252760311    -0.203527970
   48    30.974787720    23.816181498    21.123670787    -0.372472030     0.269892275    -0.196017211
   49    24.214254157    25.668340106    22.213565615     0.383036002    -0.234947149     0.219278952
   50    27.369014182    29.742426441    27.334619526    -0.366474607     0.259659260    -0.219712155
   51    30.645984285    26.176038820    21.263004411    -0.385777630     0.240415793    -0.208268736
   52    30.353436855    29.938420578    21.964183039    -0.367443517     0.255804148    -0.222597169
   53    29.622663519    24.618582197    29.887195846    -0.371404413     0.267227915    -0.201613501
   54    25.781775751    22.725291485    30.198613584    -0.367935757     0.285679008    -0.181688699
   55    24.227998897    30.393600712    23.100020118    -0.368697467     0.264187235    -0.210397915
   56    27.339140430    24.386222363    30.064072831    -0.380425181     0.254922897    -0.200726176
   57    26.228806948    26.312390067    27.693841487    -0.382772420     0.251755998    -0.200260312
   58    25.101767294    20.600521882    27.484171159    -0.370997772     0.266659938    -0.203108667
   59    26.753497335    22.079551656    28.199284871    -0.378300990     0.260900563    -0.197026033
   60    29.858803254    26.758866816    29.444906120    -0.372316235     0.262338036    -0.206299238
   61    30.023680558    22.132363150    30.348315946    -0.391074077     0.250085489    -0.185791051
   62    29.855449753    27.648273612    22.782478014    -0.388165303     0.242284570    -0.201558639
   63    23.118029057    28.181905130    29.976313972    -0.363909038     0.268902603    -0.212747744
   64    24.457988541    29.503597284    21.043132811    -0.371881456     0.255270173    -0.215734377
   65    25.584934251    24.230221200    23.890085382    -0.303412839     0.333024841    -0.216875780
   66    21.983243826    27.111968650    28.483441329    -0.359937194     0.273239667    -0.213975000
   67    28.814227293    23.140872709    28.595237433    -0.379095093     0.264188149    -0.191027570
   68    21.977268099    22.671358819    25.694605366    -0.449528718     0.205152799    -0.076395422
   21    32.871130500    26.884668877    24.761108111     0.378577057    -0.247349972     0.213301203
   22    40.203436170    22.268291332    26.801034831    -0.433320065     0.219650675    -0.118267924
   23    40.087509752    29.795617044    27.665874462    -0.374908491     0.260051228    -0.204492010
   24    35.034300325    24.683330692    28.493985883    -0.385392139     0.243947387    -0.204847678
   25    36.312959135    20.927180974    21.779001954    -0.368890296     0.261284889    -0.213658972
   26    32.872185093    21.509558857    28.316147161    -0.153388228    -0.376320136     0.291299170
   27    31.536808270    23.509817334    23.604350586    -0.382940641     0.257696283    -0.192221463
   28    38.529968987    25.948631081    21.873629450    -0.392254522     0.240674420    -0.195479446
   29    39.242598809    28.601443984    25.953144276    -0.366481842     0.265871597    -0.212139938
   30    38.012565538    29.515105364    22.650189551    -0.380628173     0.259711716    -0.194092809
   31    36.524934600    30.478856056    29.664580766    -0.372781327     0.268531796    -0.197293579
   32    38.651809489    21.129843293    28.893509268    -0.373010474     0.266760736    -0.199253346
   33    31.715032820    28.504169881    26.295726653    -0.374022164     0.267649998    -0.196140000
   34    41.312336791    23.488935842    29.013959128    -0.491161290    -0.035840681     0.086464054
   35    38.684626003    28.090580107    21.190171627    -0.383292958     0.254768998    -0.195395153
   36    38.198394371    23.077339983    26.524242335    -0.423953169     0.223706607    -0.142193755
   37    38.703953732    25.690219868    28.460953594    -0.377110652     0.255756580    -0.205854629
   38    36.789001922    26.607426639    25.160092340    -0.396385200     0.241376939    -0.186053612
   39    38.975508623    26.302767353    24.585618331    -0.405332968     0.228749929    -0.182698263
   40    33.741919055    29.321523100    27.132583231    -0.372848935     0.265015807    -0.201867020
   41    37.241291098    22.513427664    24.573560344    -0.422801865     0.221697505    -0.148623012
   42    31.525401378    28.955015130    24.022594394    -0.385539096     0.242735283    -0.206007737
   43    35.063212105    27.539705624    26.166985405    -0.392624788     0.244033827    -0.190507918
   44    40.003607313    24.539047013    25.450324239    -0.407417170     0.229429783    -0.177124884
   45    35.343038123    30.055754463    25.626149490    -0.379696101     0.252928505    -0.204592381
   46    38.435064533    21.734258104    22.925890835    -0.419941420     0.227005677    -0.148719959
   47    37.859528564    22.303991843    30.490655565    -0.381906897     0.251608356    -0.202089973
   48    41.064443670    23.960841710    21.411757656    -0.373949374     0.268483961    -0.195136434
   49    34.303910107    25.813000317    22.501652484     0.385356830    -0.223048941     0.227484689
   50    37.458670131    29.887086653    27.622706395    -0.367254680     0.258624062    -0.219630588
   51    40.735640235    26.320699032    21.551091281    -0.386674979     0.239208818    -0.207994235
   52    40.443092805    30.083080789    22.252269909    -0.368073851     0.254816148    -0.222688956
   53    39.712319469    24.763242409    30.175282715    -0.373013092     0.264492749    -0.202249398
   54    35.871431700    22.869951697    30.486700454    -0.369811463     0.283985163    -0.180532295
   55    34.317654846    30.538260924    23.388106988    -0.369180148     0.263375143    -0.210569591
   56    37.428796380    24.530882575    30.352159701    -0.381979106     0.253229334    -0.199917151
   57    36.318462898    26.457050279    27.981928357    -0.384156823     0.249900235    -0.199933509
   58    35.191423243    20.745182094    27.772258028    -0.372477948     0.265838857    -0.201469304
   59    36.843153284    22.224211868    28.487371740    -0.379810337     0.259823073    -0.195540478
   60    39.948459204    26.903527028    29.732992989    -0.373741852     0.260083828    -0.206575484
   61    40.113336508    22.277023362    30.636402816    -0.392589995     0.249177707    -0.183803064
   62    39.945105703    27.792933824    23.070564883    -0.389080656     0.241087818    -0.201228496
   63    33.207685007    28.326565342    30.264400841    -0.364167505     0.269237631    -0.211879981
   64    34.547644491    29.648257496    21.331219680    -0.372272279     0.254558038    -0.215901727
   65    35.674590200    24.374881411    24.178172251    -0.349424937     0.303435812    -0.189285291
   66    32.072899776    27.256628862    28.771528199    -0.360048065     0.273879166    -0.212968526
   67    38.903883243    23.285532921    28.883324303    -0.380691047     0.262153879    -0.190655894
   68    32.066924049    22.816019031    25.982692236    -0.450793154     0.198576634    -0.085748774
   21     2.737238121    36.475781763    23.927472926     0.377975226    -0.247802915     0.213842100
   22    10.069543792    31.859404218    25.967399646    -0.431647758     0.218484866    -0.126271836
   23     9.953617373    39.386729930    26.832239277    -0.373978340     0.260906896    -0.205104346
   24     4.900407947    34.274443578    27.660350697    -0.383819530     0.245619047    -0.205800517
   25     6.179066757    30.518293860    20.945366768    -0.367266268     0.263727985    -0.213455002
   26     2.738292714    31.100671743    27.482511976    -0.136758410    -0.354888336     0.324578814
   27     1.402915891    33.100930220    22.770715401    -0.382097558     0.255146797    -0.197234805
   28     8.396076609    35.539743967    21.039994265    -0.391151228     0.242111140    -0.195915575
   29     9.108706430    38.192556870    25.119509091    -0.365345833     0.267030425    -0.212643302
   30     7.878673160    39.106218250    21.816554366    -0.379849998     0.260405242    -0.194687156
   31     6.391042222    40.069968942    28.830945581    -0.372324656     0.269013750    -0.197499249
   32     8.517917110    30.720956179    28.059874083    -0.370989201     0.268240149    -0.201032921
   33     1.581140442    38.095282767    25.462091468    -0.373458515     0.267724095    -0.197110493
   34    11.178444413    33.080048728    28.180323943    -0.494459037    -0.045914122     0.058327991
   35     8.550733625    37.681692994    20.356536442    -0.382312226     0.255969815    -0.195746815
   36     8.064501993    32.668452869    25.690607150    -0.421940260     0.224465074    -0.146907615
   37     8.570061354    35.281332754    27.627318408    -0.375611799     0.257633453    -0.206254165
   38     6.655109544    36.198539525    24.326457155    -0.395272864     0.242811754    -0.186552446
   39     8.841616244    35.893880239    23.751983145    -0.404225265     0.230261414    -0.183252875
   40     3.608026677    38.912635986    26.298948046    -0.372285606     0.265276803    -0.202562694
   41     7.107398720    32.104540550    23.739925159    -0.420735407     0.223081019    -0.152369865
   42     1.391508999    38.546128016    23.188959209    -0.384918894     0.242746068    -0.207151614
   43     4.929319727    37.130818510    25.333350220    -0.391541856     0.245329066    -0.191072301
   44     9.869714935    34.130159899    24.616689054    -0.406157149     0.231129977    -0.177806930
   45     5.209145745    39.646867349    24.792514305    -0.379070092     0.253388632    -0.205183007
   46     8.301172155    31.325370990    22.092255650    -0.418095452     0.228571892    -0.151496150
   47     7.725636185    31.895104729    29.657020380    -0.379952546     0.253103527    -0.203898669
   48    10.930551291    33.551954596    20.578122471    -0.372485881     0.270035307    -0.195793772
   49     4.170017729    35.404113203    21.668017299     0.391420295    -0.231093495     0.208292941
   50     7.324777753    39.478199539    26.789071210    -0.366901791     0.258988605    -0.219790761
   51    10.601747857    35.911811918    20.717456095    -0.385762712     0.240406102    -0.208307553
   52    10.309200427    39.674193675    21.418634724    -0.367451969     0.255504563    -0.222927049
   53     9.578427090    34.354355295    29.341647530    -0.371341677     0.266709757    -0.202413598
   54     5.737539322    32.461064583    29.653065269    -0.367575649     0.285843499    -0.182158272
   55     4.183762468    40.129373810    22.554471803    -0.368718882     0.263424576    -0.211314644
   56     7.294904001    34.121995461    29.518524516    -0.380094933     0.255022119    -0.201225149
   57     6.184570520    36.048163165    27.148293172    -0.382630201     0.251638734    -0.200679038
   58     5.057530865    30.336294980    26.938622843    -0.370856120     0.266618291    -0.203421791
   59     6.709260906    31.815324754    27.653736555    -0.377942502     0.261086176    -0.197467653
   60     9.814566825    36.494639914    28.899357804    -0.372448009     0.261664413    -0.206915963
   61     9.979444129    31.868136248    29.802767630    -0.390560661     0.250638151    -0.186125998
   62     9.811213325    37.384046710    22.236929698    -0.388167501     0.242249880    -0.201596098
   63     3.073792628    37.917678228    29.430765656    -0.363944850     0.268419522    -0.213295819
   64     4.413752112    39.239370382    20.497584495    -0.371824882     0.254466995    -0.216778241
   65     5.540697822    33.965994297    23.344537066    -0.319666957     0.303471951    -0.236046206
   66     1.939007398    36.847741748    27.937893014    -0.359836183     0.272964599    -0.214495336
   67     8.769990864    32.876645807    28.049689118    -0.378771429     0.264178465    -0.191681881
   68     1.933031670    32.407131917    25.149057050    -0.448735052     0.208471901    -0.071946645
   21    12.826894071    36.620441975    24.215559795     0.379588430    -0.245973137     0.213095847
   22    20.159199741    32.004064430    26.255486515    -0.431287964     0.220833701    -0.123382206
   23    20.043273323    39.531390141    27.120326146    -0.374478710     0.260099583    -0.205216722
   24    14.990063897    34.419103789    27.948437567    -0.384181452     0.245047940    -0.205806023
   25    16.268722707    30.662954072    21.233453638    -0.367026273     0.264133023    -0.213366962
   26    12.827948664    31.245331955    27.770598845    -0.170349449    -0.369284947     0.290877454
   27    11.492571841    33.245590432    23.058802271    -0.383611006     0.256680016    -0.192244545
   28    18.485732559    35.684404179    21.328081135    -0.391361535     0.241385396    -0.196390528
   29    19.198362380    38.337217082    25.407595961    -0.365826427     0.266025695    -0.213075937
   30    17.968329110    39.250878462    22.104641235    -0.380242581     0.259570211    -0.195035600
   31    16.480698171    40.214629154    29.119032450    -0.372838346     0.268550373    -0.197160506
   32    18.607573060    30.865616391    28.347960953    -0.370838203     0.268742402    -0.200640346
   33    11.670796392    38.239942979    25.750178338    -0.374012274     0.267629320    -0.196187069
   34    21.268100363    33.224708940    28.468410812    -0.493398089    -0.036835399     0.072121283
   35    18.640389574    37.826353205    20.644623312    -0.382597691     0.255292900    -0.196072799
   36    18.154157943    32.813113081    25.978694019    -0.421979941     0.225356458    -0.145421441
   37    18.659717304    35.425992966    27.915405278    -0.375907196     0.257277162    -0.206160719
   38    16.744765494    36.343199737    24.614544024    -0.395697685     0.242012382    -0.186690517
   39    18.931272194    36.038540450    24.040070015    -0.404503113     0.229555062    -0.183525762
   40    13.697682626    39.057296198    26.587034916    -0.372901656     0.264861927    -0.201971568
   41    17.197054670    32.249200762    24.028012029    -0.420805026     0.223681212    -0.151293904
   42    11.481164949    38.690788228    23.477046079    -0.385627348     0.242669284    -0.205920293
   43    15.018975677    37.275478722    25.621437090    -0.392129011     0.244395901    -0.191064081
   44    19.959370885    34.274820111    24.904775923    -0.406411841     0.230434552    -0.178127294
   45    15.298801694    39.791527561    25.080601175    -0.379696655     0.252806078    -0.204742612
   46    18.390828105    31.470031201    22.380342520    -0.418092744     0.229088543    -0.150721254
   47    17.815292135    32.039764941    29.945107249    -0.380091069     0.253225027    -0.203489226
   48    21.020207241    33.696614808    20.866209341    -0.372415759     0.269756368    -0.196310990
   49    14.259673679    35.548773415    21.956104168     0.412850585    -0.186178357     0.211877356
   50    17.414433703    39.622859751    27.077158080    -0.367234540     0.258780298    -0.219480181
   51    20.691403807    36.056472129    21.005542965    -0.385942327     0.239772278    -0.208704995
   52    20.398856377    39.818853887    21.706721593    -0.367768359     0.254624828    -0.223411350
   53    19.668083040    34.499015506    29.629734400    -0.371725737     0.266059418    -0.202564464
   54    15.827195272    32.605724794    29.941152138    -0.367735730     0.285805566    -0.181894506
   55    14.273418418    40.274034022    22.842558672    -0.369590165     0.262634859    -0.210774859
   56    17.384559951    34.266655672    29.806611385    -0.380332346     0.254799481    -0.201058527
   57    16.274226469    36.192823376    27.436380041    -0.383059590     0.250948419    -0.200724293
   58    15.147186815    30.480955192    27.226709713    -0.370341275     0.267671906    -0.202975592
   59    16.798916856    31.959984966    27.941823425    -0.377739647     0.261678037    -0.197071977
   60    19.904222775    36.639300126    29.187444674    -0.372803379     0.261391131    -0.206621193
   61    20.069100079    32.012796460    30.090854500    -0.390839317     0.250851132    -0.185252093
   62    19.900869274    37.528706922    22.525016568    -0.388356050     0.241578298    -0.202038373
   63    13.163448578    38.062338439    29.718852526    -0.364219944     0.268869243    -0.212257303
   64    14.503408062    39.384030593    20.785671365    -0.372670409     0.253778992    -0.216131879
   65    15.630353772    34.110654509    23.632623936    -0.315191908     0.313584656    -0.228732866
   66    12.028663347    36.992401960    28.225979883    -0.360157778     0.273366000    -0.213441808
   67    18.859646814    33.021306019    28.337775987    -0.378963208     0.263917552    -0.191662235
   68    12.022687620    32.551792129    25.437143920    -0.448178981     0.203848661    -0.087070803
   21    22.916550021    36.765102187    24.503646665     0.378693593    -0.247116362     0.213365100
   22    30.248855691    32.148724641    26.543573385    -0.432055094     0.220874795    -0.120593203
   23    30.132929273    39.676050353    27.408413016    -0.374095299     0.261656326    -0.203933015
   24    25.079719847    34.563764001    28.236524437    -0.383640439     0.246504296    -0.205074731
   25    26.358378657    30.807614283    21.521540508    -0.366959648     0.264997865    -0.212407034
   26    22.917604614    31.389992166    28.058685715    -0.175792405    -0.340525325     0.321153442
   27    21.582227791    33.390250644    23.346889140    -0.384064658     0.254455739    -0.194284882
   28    28.575388509    35.829064391    21.616168004    -0.390702269     0.243169653    -0.195500019
   29    29.288018330    38.481877293    25.695682830    -0.365313268     0.267962894    -0.211523295
   30    28.057985060    39.395538673    22.392728105    -0.379649887     0.261383515    -0.193764345
   31    26.570354121    40.359289366    29.407119320    -0.372687977     0.269619031    -0.195982780
   32    28.697229010    31.010276603    28.636047822    -0.370619470     0.269462315    -0.200078158
   33    21.760452341    38.384603190    26.038265207    -0.374027048     0.267716922    -0.196039325
   34    31.357756312    33.369369151    28.756497682    -0.492146543    -0.042998773     0.077090111
   35    28.730045524    37.971013417    20.932710181    -0.381860416     0.257069407    -0.195186943
   36    28.243813893    32.957773293    26.266780889    -0.422235893     0.226203334    -0.143348882
   37    28.749373254    35.570653177    28.203492148    -0.375228430     0.258538772    -0.205818678
   38    26.834421443    36.487859948    24.902630894    -0.395151222     0.243660448    -0.185701638
   39    29.020928144    36.183200662    24.328156885    -0.403956769     0.231303852    -0.182530701
   40    23.787338576    39.201956410    26.875121785    -0.372535800     0.265861715    -0.201332128
   41    27.286710619    32.393860974    24.316098898    -0.420899370     0.224824217    -0.149324452
   42    21.570820899    38.835448440    23.765132948    -0.385748567     0.242206861    -0.206237436
   43    25.108631626    37.420138934    25.909523959    -0.391539024     0.246048658    -0.190150600
   44    30.049026835    34.419480322    25.192862793    -0.405906920     0.232207049    -0.176973045
   45    25.388457644    39.936187772    25.368688044    -0.379297804     0.254033105    -0.203961656
   46    28.480484055    31.614691413    22.668429389    -0.418067211     0.230314540    -0.148912794
   47    27.904948085    32.184425152    30.233194119    -0.379724707     0.254234658    -0.202913492
   48    31.109863191    33.841275019    21.154296210    -0.371981115     0.271112619    -0.195263920
   49    24.349329628    35.693433627    22.244191038     0.383767026    -0.229032701     0.224202791
   50    27.504089653    39.767519962    27.365244949    -0.367134915     0.259846508    -0.218384401
   51    30.781059756    36.201132341    21.293629834    -0.385238209     0.241593712    -0.207903825
   52    30.488512326    39.963514099    21.994808463    -0.367260263     0.256515672    -0.222080187
   53    29.757738990    34.643675718    29.917821269    -0.370907336     0.267478392    -0.202195592
   54    25.916851222    32.750385006    30.229239008    -0.367322922     0.286673263    -0.181362376
   55    24.363074368    40.418694233    23.130645542    -0.369042856     0.263904496    -0.210147061
   56    27.474215901    34.411315884    30.094698255    -0.379785730     0.255996009    -0.200571291
   57    26.363882419    36.337483588    27.724466911    -0.382471847     0.252436628    -0.199977587
   58    25.236842765    30.625615403    27.514796582    -0.370057790     0.268020198    -0.203033016
   59    26.888572806    32.104645177    28.229910294    -0.377480382     0.262330853    -0.196700496
   60    29.993878725    36.783960337    29.475531543    -0.371981780     0.262531638    -0.206655980
   61    30.158756029    32.157456671    30.378941370    -0.390522342     0.251787976    -0.184648627
   62    29.990525224    37.673367133    22.813103437    -0.387687629     0.243391330    -0.201144134
   63    23.253104528    38.206998651    30.006939395    -0.364569747     0.268814408    -0.211725562
   64    24.593064012    39.528690805    21.073758234    -0.372241547     0.254861197    -0.215596849
   65    25.720009722    34.255314721    23.920710805    -0.309342796     0.320966613    -0.226467366
   66    22.118319297    37.137062171    28.514066753    -0.360422212     0.273330841    -0.213040090
   67    28.949302764    33.165966230    28.625862857    -0.378441232     0.265094389    -0.191068570
   68    22.112343570    32.696452340    25.725230790    -0.447469874     0.207459612    -0.082044022
   21    33.006205971    36.909762398    24.791733534     0.377549064    -0.248370681     0.213936227
   22    40.338511641    32.293384853    26.831660255    -0.432611164     0.221954816    -0.116548876
   23    40.222585223    39.820710565    27.696499886    -0.373649138     0.260144975    -0.206666188
   24    35.169375796    34.708424213    28.524611306    -0.383618596     0.245426302    -0.206404224
   25    36.448034606    30.952274495    21.809627377    -0.367293476     0.264259012    -0.212750270
   26    33.007260564    31.534652378    28.346772585    -0.157116972    -0.352049226     0.318395351
   27    31.671883741    33.534910855    23.634976010    -0.382750970     0.257036787    -0.193478126
   28    38.665044458    35.973724602    21.904254874    -0.390479281     0.242234119    -0.197100388
   29    39.377674280    38.626537505    25.983769700    -0.364796320     0.266320347    -0.214469386
   30    38.147641010    39.540198885    22.680814974    -0.379101009     0.260570582    -0.195921914
   31    36.660010071    40.503949577    29.695206190    -0.371935643     0.268645819    -0.198729216
   32    38.786884960    31.154936814    28.924134692    -0.371326413     0.268429547    -0.200155622
   33    31.850108291    38.529263402    26.326352077    -0.373189995     0.268570639    -0.196466383
   34    41.447412262    33.514029363    29.044584552    -0.490097496    -0.040503749     0.090354253
   35    38.819701474    38.115673629    21.220797051    -0.381586566     0.256120074    -0.196962435
   36    38.333469842    33.102433504    26.554867758    -0.422896671     0.226219653    -0.141361501
   37    38.839029203    35.715313389    28.491579017    -0.375396787     0.257214498    -0.207166489
   38    36.924077393    36.632520160    25.190717763    -0.394667702     0.243154634    -0.187385243
   39    39.110584094    36.327860874    24.616243754    -0.403654327     0.230640951    -0.184032431
   40    33.876994526    39.346616621    27.163208655    -0.371946591     0.265605797    -0.202754270
   41    37.376366569    32.538521185    24.604185768    -0.421608167     0.224512020    -0.147786692
   42    31.660476849    38.980108651    24.053219818    -0.384939987     0.243900929    -0.205751169
   43    35.198287576    37.564799145    26.197610829    -0.391043757     0.245528578    -0.191834556
   44    40.138682784    34.564140534    25.480949662    -0.405692014     0.231545241    -0.178327764
   45    35.478113594    40.080847984    25.656774914    -0.378631753     0.253606581    -0.205722380
   46    38.570140004    31.759351625    22.956516259    -0.418620163     0.230021481    -0.147808246
   47    37.994604035    32.329085364    30.521280988    -0.380282453     0.252945044    -0.203479878
   48    41.199519141    33.985935231    21.442383080    -0.372044998     0.269912110    -0.196799319
   49    34.438985578    35.838093838    22.532277908     0.381366298    -0.216077749     0.240562161
   50    37.593745603    39.912180174    27.653331819    -0.366377645     0.258687528    -0.221016253
   51    40.870715706    36.345792553    21.581716704    -0.385079031     0.240503609    -0.209456806
   52    40.578168276    40.108174310    22.282895332    -0.366699082     0.255440665    -0.224236148
   53    39.847394940    34.788335930    30.205908139    -0.371278493     0.265840337    -0.203669330
   54    36.006507172    32.895045218    30.517325877    -0.367828230     0.285671182    -0.181918578
   55    34.452730317    40.563354445    23.418732412    -0.368096635     0.263903405    -0.211801464
   56    37.563871851    34.555976096    30.382785124    -0.380249969     0.254677146    -0.201369095
   57    36.453538369    36.482143800    28.012553781    -0.382362997     0.251435308    -0.201441863
   58    35.326498714    30.770275615    27.802883452    -0.370859783     0.267121205    -0.202754243
   59    36.978228755    32.249305389    28.517997164    -0.378153437     0.261417992    -0.196623019
   60    40.083534675    36.928620549    29.763618413    -0.372197070     0.261242727    -0.207897999
   61    40.248411979    32.302116883    30.667028239    -0.391152901     0.250307103    -0.185326096
   62    40.080181174    37.818027345    23.101190307    -0.387508452     0.242373094    -0.202712809
   63    33.342760478    38.351658863    30.295026265    -0.363489646     0.269571648    -0.212617977
   64    34.682719962    39.673351017    21.361845104    -0.371256896     0.255043827    -0.217073636
   65    35.809665671    34.399974932    24.208797675    -0.366530303     0.271361108    -0.204984600
   66    32.207975247    37.281722383    28.802153622    -0.359442837     0.274205822    -0.213569694
   67    39.038958714    33.310626442    28.913949727    -0.378991784     0.263768529    -0.191810821
   68    32.201999520    32.841112552    26.013317659    -0.448576557     0.206459053    -0.078445725
   21     2.618882879     6.432636937    33.847582017     0.378337713    -0.246985541     0.214146485
   22     9.951188550     1.816259391    35.887508737    -0.432503085     0.220327597    -0.119986796
   23     9.835262131     9.343585103    36.752348368    -0.374756636     0.259133505    -0.205930306
   24     4.782052705     4.231298751    37.580459788    -0.384428210     0.244122478    -0.206444101
   25     6.060711515     0.475149034    30.865475860    -0.367007595     0.264266711    -0.213233512
   26     2.619937472     1.057526916    37.402621067    -0.171276170    -0.341040811     0.323041234
   27     1.284560649     3.057785394    32.690824492    -0.383282186     0.254485116    -0.195785831
   28     8.277721367     5.496599141    30.960103356    -0.391302082     0.241336994    -0.196568400
   29     8.990351188     8.149412043    35.039618182    -0.366062176     0.265183081    -0.213720418
   30     7.760317918     9.063073424    31.736663457    -0.380099000     0.259569056    -0.195316806
   31     6.272686979    10.026824116    38.751054672    -0.372952280     0.267880757    -0.197854737
   32     8.399561868     0.677811353    37.979983174    -0.371393748     0.267629936    -0.201099233
   33     1.462785200     8.052137940    35.382200559    -0.374022250     0.267143230    -0.196829498
   34    11.060089171     3.036903901    38.100433034    -0.491331200    -0.043346755     0.081943339
   35     8.432378382     7.638548167    30.276645533    -0.382504106     0.255194775    -0.196382881
   36     7.946146751     2.625308043    35.610716241    -0.422746403     0.225183780    -0.143449448
   37     8.451706112     5.238187928    37.547427500    -0.376151506     0.256221882    -0.207027514
   38     6.536754302     6.155394698    34.246566246    -0.395741079     0.241624293    -0.187100775
   39     8.723261002     5.850735412    33.672092237    -0.404586839     0.229314888    -0.183641423
   40     3.489671434     8.869491160    36.219057137    -0.372862183     0.264450888    -0.202582131
   41     6.989043478     2.061395724    33.660034250    -0.421343235     0.223802100    -0.149607815
   42     1.273153757     8.502983190    33.109068300    -0.385487112     0.242153897    -0.206787757
   43     4.810964485     7.087673684    35.253459311    -0.392067768     0.244099408    -0.191568120
   44     9.751359693     4.087015073    34.536798145    -0.406507357     0.230303889    -0.178078319
   45     5.090790502     9.603722522    34.712623396    -0.379601593     0.252420299    -0.205393824
   46     8.182816913     1.282226163    32.012364741    -0.418444468     0.229367267    -0.149314715
   47     7.607280943     1.851959902    39.577129471    -0.380719742     0.251770133    -0.204118295
   48    10.812196049     3.508809770    30.498231562    -0.372506970     0.269595098    -0.196359468
   49     4.051662487     5.360968377    31.588126390     0.379500685    -0.229406500     0.230980275
   50     7.206422511     9.435054713    36.709180301    -0.367456788     0.257928529    -0.220109934
   51    10.483392615     5.868667091    30.637565186    -0.385951568     0.239528448    -0.208967725
   52    10.190845185     9.631048849    31.338743815    -0.367824549     0.254488294    -0.223474404
   53     9.460071848     4.311210468    39.261756621    -0.371914377     0.265054353    -0.203533501
   54     5.619184080     2.417919756    39.573174360    -0.368478671     0.284540270    -0.182374075
   55     4.065407226    10.086228983    32.474580894    -0.369234363     0.262534446    -0.211522221
   56     7.176548759     4.078850634    39.438633607    -0.380759534     0.253687962    -0.201654643
   57     6.066215277     6.005018338    37.068402263    -0.383222828     0.250195194    -0.201352002
   58     4.939175623     0.293150153    36.858731934    -0.370596720     0.266449544    -0.204114457
   59     6.590905664     1.772179927    37.573845646    -0.378101680     0.260624170    -0.197773004
   60     9.696211583     6.451495087    38.819466895    -0.372965571     0.260317266    -0.207681497
   61     9.861088887     1.824991422    39.722876722    -0.391694550     0.248997564    -0.185945133
   62     9.692858082     7.340901883    32.157038789    -0.388453513     0.241276404    -0.202211684
   63     2.955437386     7.874533401    39.350874747    -0.363873485     0.268999354    -0.212686235
   64     4.295396870     9.196225555    30.417693586    -0.372366829     0.253547697    -0.216925126
   65     5.422342580     3.922849471    33.264646157    -0.311745208     0.319770168    -0.224859878
   66     1.820652155     6.804596922    37.858002105    -0.359744524     0.273651895    -0.213772117
   67     8.651635622     2.833500981    37.969798209    -0.379351787     0.262966440    -0.192200086
   68     1.814676428     2.363987091    35.069166142    -0.446580615     0.209835130    -0.080839178
   21    12.708538829     6.577297148    34.135668886     0.378892690    -0.246604670     0.213603525
   22    20.040844499     1.960919603    36.175595606    -0.432598053     0.221758916    -0.116969688
   23    19.924918081     9.488245315    37.040435238    -0.374860435     0.259655306    -0.205082365
   24    14.871708655     4.375958963    37.868546658    -0.384044259     0.245532158    -0.205484711
   25    16.150367465     0.619809245    31.153562729    -0.367542307     0.264055372    -0.212573313
   26    12.709593422     1.202187128    37.690707937    -0.141627625    -0.353274005     0.324251589
   27    11.374216599     3.202445605    32.978911362    -0.383531478     0.254218984    -0.195643333
   28    18.367377317     5.641259352    31.248190226    -0.391370471     0.242202356    -0.195364207
   29    19.080007138     8.294072255    35.327705052    -0.365994803     0.266008637    -0.212807917
   30    17.849973868     9.207733635    32.024750326    -0.380156972     0.260323503    -0.194196679
   31    16.362342929    10.171484328    39.039141541    -0.372851175     0.268185924    -0.197631757
   32    18.489217818     0.822471564    38.268070044    -0.371334407     0.268631406    -0.199869772
   33    11.552441149     8.196798152    35.670287429    -0.374236829     0.266921691    -0.196722157
   34    21.149745120     3.181564113    38.388519904    -0.490134511    -0.041255666     0.089811644
   35    18.522034332     7.783208379    30.564732403    -0.382588165     0.255980154    -0.195193384
   36    18.035802701     2.769968254    35.898803110    -0.422774300     0.226451769    -0.141355890
   37    18.541362062     5.382848139    37.835514369    -0.375974878     0.257081933    -0.206280806
   38    16.626410251     6.300054910    34.534653115    -0.395487396     0.242886377    -0.185999805
   39    18.812916952     5.995395624    33.960179106    -0.404312990     0.230683144    -0.182527514
   40    13.579327384     9.014151371    36.507144007    -0.372940294     0.264626308    -0.202208936
   41    17.078699427     2.206055935    33.948121120    -0.421397610     0.224878318    -0.147830297
   42    11.362809707     8.647643401    33.397155170    -0.385832321     0.241749662    -0.206616847
   43    14.900620434     7.232333895    35.541546181    -0.391857075     0.245212671    -0.190574864
   44    19.841015643     4.231675284    34.824885014    -0.406145768     0.231862982    -0.176876151
   45    15.180446452     9.748382734    35.000710266    -0.379546102     0.252911945    -0.204890958
   46    18.272472863     1.426886375    32.300451611    -0.418545998     0.230179597    -0.147772126
   47    17.696936893     1.996620114    39.865216340    -0.380436459     0.252961200    -0.203171681
   48    20.901851999     3.653469981    30.786318432    -0.372507311     0.270495444    -0.195116679
   49    14.141318436     5.505628588    31.876213260     0.382083356    -0.232997464     0.222989889
   50    17.296078461     9.579714924    36.997267171    -0.367304977     0.258275501    -0.219956404
   51    20.573048564     6.013327303    30.925652056    -0.385965602     0.240483029    -0.207842409
   52    20.280501134     9.775709060    31.626830684    -0.367731125     0.255423775    -0.222559015
   53    19.549727798     4.455870680    39.549843491    -0.371705312     0.265805953    -0.202934364
   54    15.708840030     2.562579968    39.861261229    -0.368162445     0.285632129    -0.181302787
   55    14.155063176    10.230889195    32.762667764    -0.369136626     0.263171220    -0.210900593
   56    17.266204709     4.223510846    39.726720476    -0.380461854     0.254830033    -0.200774579
   57    16.155871227     6.149678550    37.356489133    -0.382918656     0.251423102    -0.200398920
   58    15.028831573     0.437810365    37.146818804    -0.370940902     0.267082592    -0.202656695
   59    16.680561614     1.916840139    37.861932516    -0.378195082     0.261537339    -0.196384063
   60    19.785867533     6.596155299    39.107553765    -0.372933397     0.260892933    -0.207015842
   61    19.950744837     1.969651633    40.010963591    -0.391298196     0.250325877    -0.184993722
   62    19.782514032     7.485562095    32.445125659    -0.388340031     0.242299895    -0.201203332
   63    13.045093336     8.019193613    39.638961617    -0.364497957     0.267891276    -0.213015267
   64    14.385052820     9.340885767    30.705780456    -0.372281581     0.254220758    -0.216282757
   65    15.511998530     4.067509683    33.552733027    -0.303651963     0.322843016    -0.231447343
   66    11.910308105     6.949257133    38.146088974    -0.360476665     0.272345134    -0.214207148
   67    18.741291572     2.978161192    38.257885079    -0.379057920     0.264094957    -0.191230089
   68    11.904332378     2.508647302    35.357253011    -0.448902620     0.206303513    -0.076975963
   21    22.798194779     6.721957360    34.423755756     0.378651838    -0.247567782     0.212915427
   22    30.130500449     2.105579815    36.463682476    -0.431257898     0.223161114    -0.119229789
   23    30.014574031     9.632905526    37.328522107    -0.375254665     0.258973803    -0.205223063
   24    24.961364604     4.520619174    38.156633528    -0.384669369     0.244762457    -0.205233565
   25    26.240023414     0.764469457    31.441649599    -0.367108678     0.265217660    -0.211874519
   26    22.799249372     1.346847340    37.978794806    -0.139100022    -0.344874468     0.334234625
   27    21.463872549     3.347105817    33.266998231    -0.382801323     0.255853958    -0.194940758
   28    28.457033266     5.785919564    31.536277096    -0.391396643     0.242229324    -0.195278320
   29    29.169663088     8.438732467    35.615791922    -0.366567738     0.265231350    -0.212791974
   30    27.939629818     9.352393847    32.312837196    -0.380329364     0.260152140    -0.194088739
   31    26.451998879    10.316144539    39.327228411    -0.373695761     0.267530167    -0.196924067
   32    28.578873768     0.967131776    38.556156913    -0.371569350     0.268226823    -0.199976474
   33    21.642097099     8.341458364    35.958374298    -0.374506418     0.267144852    -0.195904494
   34    31.239401070     3.326224325    38.676606773    -0.491852755    -0.036668620     0.082074844
   35    28.611690282     7.927868590    30.852819272    -0.382631592     0.255969342    -0.195122425
   36    28.125458650     2.914628466    36.186889980    -0.421966370     0.227258005    -0.142471688
   37    28.631018011     5.527508351    38.123601239    -0.376586010     0.256383833    -0.206034724
   38    26.716066201     6.444715122    34.822739985    -0.395860482     0.242405739    -0.185833086
   39    28.902572902     6.140055835    34.248265976    -0.404486113     0.230441820    -0.182448765
   40    23.668983334     9.158811583    36.795230876    -0.373423233     0.264444557    -0.201554374
   41    27.168355377     2.350716147    34.236207989    -0.420676837     0.225745165    -0.148560154
   42    21.452465657     8.792303613    33.685242040    -0.385851690     0.242499644    -0.205699771
   43    24.990276384     7.376994107    35.829633050    -0.392310120     0.244692191    -0.190311590
   44    29.930671592     4.376335496    35.112971884    -0.406294596     0.231567383    -0.176921589
   45    25.270102402     9.893042946    35.288797136    -0.380217259     0.252477659    -0.204180968
   46    28.362128812     1.571546586    32.588538481    -0.417848811     0.231175616    -0.148189762
   47    27.786592843     2.141280326    40.153303210    -0.381018967     0.252355550    -0.202832993
   48    30.991507949     3.798130193    31.074405302    -0.372287114     0.270826524    -0.195077672
   49    24.230974386     5.650288800    32.164300129     0.381897522    -0.239083786     0.216779211
   50    27.385734411     9.724375136    37.285354040    -0.368134263     0.257779814    -0.219150021
   51    30.662704514     6.157987514    31.213738926    -0.386017671     0.240464380    -0.207767272
   52    30.370157084     9.920369272    31.914917554    -0.367993015     0.255331067    -0.222232283
   53    29.639383748     4.600530891    39.837930360    -0.372410903     0.265158703    -0.202486991
   54    25.798495980     2.707240179    40.149348099    -0.368841336     0.284781198    -0.181261517
   55    24.244719125    10.375549407    33.050754633    -0.369873383     0.262808000    -0.210061028
   56    27.355860659     4.368171057    40.014807346    -0.381088480     0.254085548    -0.200529560
   57    26.245527177     6.294338761    37.644576002    -0.383528713     0.250665799    -0.200180876
   58    25.118487522     0.582470577    37.434905673    -0.371137304     0.266744172    -0.202742813
   59    26.770217563     2.061500351    38.150019386    -0.378440464     0.261095518    -0.196499226
   60    29.875523483     6.740815511    39.395640635    -0.373348141     0.260464788    -0.206807301
   61    30.040400787     2.114311845    40.299050461    -0.391973259     0.249602241    -0.184541826
   62    29.872169982     7.630222307    32.733212529    -0.388491217     0.242130735    -0.201115094
   63    23.134749286     8.163853824    39.927048486    -0.364777821     0.268010259    -0.212385599
   64    24.474708770     9.485545978    30.993867325    -0.373017246     0.253913112    -0.215374710
   65    25.601654479     4.212169894    33.840819896    -0.324407293     0.308084641    -0.223257166
   66    21.999964055     7.093917345    38.434175844    -0.360661544     0.272597548    -0.213573939
   67    28.830947522     3.122821404    38.545971948    -0.379568692     0.263411898    -0.191159043
   68    21.993988328     2.653307514    35.645339881    -0.448924765     0.207799398    -0.072704646
   21    32.887850729     6.866617572    34.711842625     0.378559581    -0.247646292     0.212988163
   22    40.220156399     2.250240026    36.751769346    -0.430393857     0.222889212    -0.122806867
   23    40.104229981     9.777565738    37.616608977    -0.374411469     0.260257823    -0.205138777
   24    35.051020554     4.665279386    38.444720397    -0.383512522     0.245942861    -0.205986053
   25    36.329679364     0.909129668    31.729736468    -0.366457375     0.264283684    -0.214156781
   26    32.888905321     1.491507551    38.266881676    -0.145919722    -0.354660323     0.320816911
   27    31.553528499     3.491766029    33.555085101    -0.383387921     0.255502461    -0.194247766
   28    38.546689216     5.930579776    31.824363965    -0.390968948     0.241417702    -0.197131365
   29    39.259319038     8.583392678    35.903878791    -0.365880103     0.265992547    -0.213025151
   30    38.029285767     9.497054058    32.600924065    -0.380241684     0.259212424    -0.195512611
   31    36.541654829    10.460804751    39.615315281    -0.372225510     0.269552397    -0.196950945
   32    38.668529717     1.111791988    38.844243783    -0.370312426     0.269398822    -0.200731118
   33    31.731753049     8.486118575    36.246461168    -0.374179565     0.267483037    -0.196067534
   34    41.329057020     3.470884536    38.964693643    -0.493160545    -0.034617647     0.074795020
   35    38.701346232     8.072528802    31.140906142    -0.382242744     0.255157177    -0.196939837
   36    38.215114600     3.059288678    36.474976850    -0.421084617     0.227032651    -0.145409493
   37    38.720673961     5.672168562    38.411688108    -0.375154891     0.258116230    -0.206482008
   38    36.805722151     6.589375333    35.110826855    -0.395122191     0.242805017    -0.186880116
   39    38.992228851     6.284716047    34.536352845    -0.403949251     0.230033618    -0.184145424
   40    33.758639284     9.303471795    37.083317746    -0.372724719     0.265125376    -0.201952516
   41    37.258011327     2.495376359    34.524294859    -0.419809215     0.225313526    -0.151637851
   42    31.542121607     8.936963825    33.973328909    -0.385881272     0.242477932    -0.205669873
   43    35.079932334     7.521654319    36.117719920    -0.391531451     0.245271161    -0.191167939
   44    40.020327542     4.520995708    35.401058754    -0.405741529     0.231073337    -0.178826521
   45    35.359758352    10.037703157    35.576884005    -0.379420779     0.253225601    -0.204735604
   46    38.451784762     1.716206798    32.876625350    -0.417091760     0.230552980    -0.151260660
   47    37.876248792     2.285940537    40.441390080    -0.379516409     0.254061358    -0.203519340
   48    41.081163898     3.942790405    31.362492171    -0.371789685     0.269889293    -0.197312441
   49    34.320630336     5.794949012    32.452386999     0.383052426    -0.227456693     0.227011656
   50    37.475390360     9.869035348    37.573440910    -0.366750822     0.259554248    -0.219375082
   51    40.752360464     6.302647726    31.501825795    -0.385569621     0.239743778    -0.209425376
   52    40.459813034    10.065029484    32.203004424    -0.367890623     0.254136330    -0.223765983
   53    39.729039697     4.745191103    40.126017230    -0.370916860     0.267006971    -0.202800297
   54    35.888151929     2.851900391    40.437434969    -0.367425696     0.286429535    -0.181539197
   55    34.334375075    10.520209618    33.338841503    -0.369497687     0.262596070    -0.210985220
   56    37.445516608     4.512831269    40.302894216    -0.379798125     0.255562378    -0.201100113
   57    36.335183127     6.438998973    37.932662872    -0.382405493     0.251787341    -0.200920815
   58    35.208143472     0.727130788    37.722992543    -0.370090978     0.267840908    -0.203209044
   59    36.859873513     2.206160562    38.438106255    -0.377342025     0.262183750    -0.197161551
   60    39.965179432     6.885475722    39.683727504    -0.371932598     0.262235077    -0.207120513
   61    40.130056736     2.258972057    40.587137330    -0.390212110     0.251751646    -0.185352686
   62    39.961825932     7.774882518    33.021299398    -0.388067035     0.241647116    -0.202510858
   63    33.224405235     8.308514036    40.215135356    -0.364259757     0.268782238    -0.212299172
   64    34.564364719     9.630206190    31.281954195    -0.372722241     0.253562048    -0.216297061
   65    35.691310429     4.356830106    34.128906766    -0.310228841     0.312001319    -0.237514722
   66    32.089620005     7.238577557    38.722262713    -0.360496931     0.272939769    -0.213414726
   67    38.920603471     3.267481616    38.834058818    -0.378166216     0.264920463    -0.191852707
   68    32.083644278     2.797967725    35.933426750    -0.447317870     0.209976080    -0.076267742
   21     2.753958350    16.457730458    33.878207440     0.379221303    -0.246077441     0.213628407
   22    10.086264021    11.841352912    35.918134160    -0.431856547     0.219434367    -0.123888988
   23     9.970337602    19.368678624    36.782973792    -0.374527502     0.259011460    -0.206499913
   24     4.917128176    14.256392272    37.611085212    -0.384270470     0.244611144    -0.206159147
   25     6.195786986    10.500242555    30.896101283    -0.367366858     0.263294673    -0.213816526
   26     2.755012943    11.082620437    37.433246491    -0.121866863    -0.360612805     0.324201901
   27     1.419636120    13.082878915    32.721449916    -0.384929101     0.252407686    -0.195243302
   28     8.412796838    15.521692662    30.990728780    -0.391289513     0.241164741    -0.196804687
   29     9.125426659    18.174505564    35.070243606    -0.365762467     0.265126294    -0.214303211
   30     7.895393389    19.088166945    31.767288880    -0.379950731     0.259538943    -0.195645033
   31     6.407762451    20.051917637    38.781680095    -0.372554225     0.267812720    -0.198694982
   32     8.534637339    10.702904874    38.010608598    -0.371546732     0.267709264    -0.200710677
   33     1.597860671    18.077231461    35.412825983    -0.374542405     0.266641450    -0.196520543
   34    11.195164642    13.061997422    38.131058457    -0.493411860    -0.040676677     0.069929565
   35     8.567453853    17.663641688    30.307270957    -0.382410999     0.255082787    -0.196709429
   36     8.081222222    12.650401564    35.641341664    -0.422272554     0.224499210    -0.145897205
   37     8.586781583    15.263281449    37.578052923    -0.375961747     0.256642250    -0.206851445
   38     6.671829773    16.180488219    34.277191669    -0.395609601     0.241856232    -0.187079145
   39     8.858336473    15.875828933    33.702717660    -0.404499078     0.229251074    -0.183914221
   40     3.624746905    18.894584681    36.249682561    -0.373052484     0.264152926    -0.202620522
   41     7.124118949    12.086489245    33.690659674    -0.420974368     0.223034422    -0.151776901
   42     1.408229228    18.528076711    33.139693724    -0.386588849     0.241083766    -0.205979804
   43     4.946039956    17.112767205    35.284084735    -0.391981294     0.244275353    -0.191520800
   44     9.886435164    14.112108594    34.567423568    -0.406501040     0.230061005    -0.178406385
   45     5.225865974    19.628816043    34.743248820    -0.379647251     0.252220054    -0.205555368
   46     8.317892384    11.307319684    32.042990165    -0.418212363     0.228541455    -0.151219123
   47     7.742356414    11.877053423    39.607754894    -0.380464166     0.252508980    -0.203681697
   48    10.947271520    13.533903291    30.528856986    -0.372611544     0.269397037    -0.196432873
   49     4.186737958    15.386061898    31.618751814     0.376563852    -0.230658135     0.234513305
   50     7.341497982    19.460148234    36.739805725    -0.367021065     0.257887206    -0.220883968
   51    10.618468086    15.893760612    30.668190610    -0.385790794     0.239564521    -0.209223096
   52    10.325920656    19.656142370    31.369369238    -0.367407363     0.254725743    -0.223889762
   53     9.595147319    14.336303989    39.292382045    -0.371712204     0.265655898    -0.203118146
   54     5.754259551    12.443013277    39.603799783    -0.368192538     0.285168456    -0.181970345
   55     4.200482697    20.111322504    32.505206318    -0.369455847     0.262245369    -0.211494074
   56     7.311624230    14.103944155    39.469259030    -0.380630373     0.254207347    -0.201243990
   57     6.201290749    16.030111859    37.099027686    -0.383063737     0.250606909    -0.201142613
   58     5.074251094    10.318243674    36.889357358    -0.371296760     0.266124599    -0.203264394
   59     6.725981135    11.797273448    37.604471070    -0.378467587     0.260489866    -0.197249372
   60     9.831287054    16.476588608    38.850092319    -0.372745086     0.260688272    -0.207611961
   61     9.996164358    11.850084943    39.753502145    -0.391207191     0.249961124    -0.185678136
   62     9.827933554    17.365995404    32.187664213    -0.388273960     0.241324075    -0.202499439
   63     3.090512857    17.899626922    39.381500171    -0.363849668     0.268792401    -0.212988414
   64     4.430472341    19.221319076    30.448319010    -0.372700134     0.253195963    -0.216763500
   65     5.557418051    13.947942992    33.295271581    -0.313071032     0.314051069    -0.230994492
   66     1.955727626    16.829690443    37.888627528    -0.359908261     0.273337194    -0.213899093
   67     8.786711093    12.858594502    38.000423632    -0.379257493     0.263289422    -0.191943830
   68     1.949751899    12.389080612    35.099791565    -0.449421819     0.204971970    -0.077501744
   21    12.843614300    16.602390669    34.166294310     0.378681831    -0.246876655     0.213663258
   22    20.175919970    11.986013124    36.206221030    -0.433040256     0.218950474    -0.120568764
   23    20.059993552    19.513338836    37.071060661    -0.374904635     0.259044014    -0.205773451
   24    15.006784126    14.401052484    37.899172082    -0.384290393     0.244706248    -0.206009093
   25    16.285442936    10.644902766    31.184188153    -0.367317527     0.264037621    -0.212983496
   26    12.844668893    11.227280649    37.721333360    -0.180817443    -0.344164851     0.314413116
   27    11.509292070    13.227539126    33.009536785    -0.383919745     0.254835603    -0.194073297
   28    18.502452788    15.666352873    31.278815650    -0.391176859     0.241173874    -0.197017328
   29    19.215082609    18.319165776    35.358330476    -0.366163042     0.265099899    -0.213650814
   30    17.985049339    19.232827156    32.055375750    -0.379940652     0.259686069    -0.195469297
   31    16.497418400    20.196577849    39.069766965    -0.372959276     0.267988135    -0.197696074
   32    18.624293289    10.847565085    38.298695467    -0.371448241     0.268118230    -0.200346747
   33    11.687516620    18.221891673    35.700912852    -0.374105395     0.266850514    -0.197068406
   34    21.284820591    13.206657634    38.419145327    -0.491670020    -0.046360678     0.078174668
   35    18.657109803    17.808301900    30.595357826    -0.382343282     0.255112391    -0.196802648
   36    18.170878172    12.795061775    35.929428534    -0.423163073     0.224160697    -0.143822794
   37    18.676437533    15.407941660    37.866139793    -0.376095951     0.256726138    -0.206503090
   38    16.761485722    16.325148431    34.565278539    -0.395504476     0.242030357    -0.187076229
   39    18.947992423    16.020489145    33.990804530    -0.404311856     0.229493990    -0.184022910
   40    13.714402855    19.039244892    36.537769430    -0.372902623     0.264349640    -0.202639833
   41    17.213774899    12.231149456    33.978746543    -0.421846519     0.222684098    -0.149857623
   42    11.497885178    18.672736922    33.427780593    -0.385615167     0.241802168    -0.206960514
   43    15.035695905    17.257427416    35.572171604    -0.391878833     0.244477373    -0.191472699
   44    19.976091114    14.256768805    34.855510438    -0.406300326     0.230316109    -0.178534410
   45    15.315521923    19.773476255    35.031335690    -0.379619976     0.252434099    -0.205342883
   46    18.407548334    11.451979896    32.331077034    -0.418930772     0.228357111    -0.149499291
   47    17.832012364    12.021713635    39.895841764    -0.380606220     0.252547131    -0.203368759
   48    21.036927470    13.678563502    30.816943855    -0.372369614     0.269263189    -0.197074112
   49    14.276393908    15.530722109    31.906838683     0.384215604    -0.241642012     0.209731991
   50    17.431153932    19.604808445    37.027892594    -0.367489537     0.257899076    -0.220089770
   51    20.708124035    16.038420824    30.956277480    -0.385725376     0.239555803    -0.209353651
   52    20.415576605    19.800802581    31.657456108    -0.367533583     0.254651905    -0.223766558
   53    19.684803269    14.480964201    39.580468914    -0.371848730     0.265722058    -0.202781435
   54    15.843915501    12.587673489    39.891886653    -0.368464018     0.285115165    -0.181503747
   55    14.290138647    20.255982716    32.793293187    -0.369189227     0.262755913    -0.211325921
   56    17.401280180    14.248604367    39.757345900    -0.380688474     0.254332338    -0.200975988
   57    16.290946698    16.174772071    37.387114556    -0.383099202     0.250670756    -0.200995458
   58    15.163907044    10.462903886    37.177444227    -0.370809808     0.266830146    -0.203228344
   59    16.815637085    11.941933660    37.892557939    -0.378253779     0.260988624    -0.197000042
   60    19.920943004    16.621248820    39.138179189    -0.372850747     0.260763560    -0.207327486
   61    20.085820308    11.994745154    40.041589015    -0.391399679     0.249907478    -0.185344393
   62    19.917589503    17.510655616    32.475751082    -0.388308763     0.241289251    -0.202474199
   63    13.180168807    18.044287134    39.669587040    -0.364379141     0.268121823    -0.212928462
   64    14.520128291    19.365979288    30.736405879    -0.372294021     0.253858439    -0.216686536
   65    15.647074001    14.092603204    33.583358450    -0.359201623     0.280782451    -0.205269114
   66    12.045383576    16.974350654    38.176714398    -0.360297309     0.272627089    -0.214150226
   67    18.876367043    13.003254713    38.288510502    -0.379275619     0.263543644    -0.191558745
   68    12.039407849    12.533740823    35.387878435    -0.448248536     0.205417164    -0.082927912
   21    22.933270250    16.747050881    34.454381179     0.379090282    -0.246135401     0.213794111
   22    30.265575920    12.130673336    36.494307900    -0.432295791     0.218040620    -0.124814410
   23    30.149649502    19.657999047    37.359147531    -0.374977692     0.259080042    -0.205594898
   24    25.096440076    14.545712695    38.187258951    -0.385112235     0.244113585    -0.205175837
   25    26.375098886    10.789562978    31.472275022    -0.367987158     0.263527356    -0.212458900
   26    22.934324843    11.371940861    38.009420230    -0.136436252    -0.361574968     0.317251779
   27    21.598948020    13.372199338    33.297623655    -0.382891779     0.254745690    -0.196210395
   28    28.592108738    15.811013085    31.566902519    -0.391755981     0.240853108    -0.196257565
   29    29.304738559    18.463825988    35.646417345    -0.366357800     0.265123106    -0.213287836
   30    28.074705289    19.377487368    32.343462619    -0.380339090     0.259462816    -0.194990316
   31    26.587074350    20.341238060    39.357853835    -0.372963977     0.268168869    -0.197441964
   32    28.713949239    10.992225297    38.586782337    -0.372213545     0.267429925    -0.199845720
   33    21.777172570    18.366551885    35.988999722    -0.374287151     0.266800288    -0.196791094
   34    31.374476541    13.351317846    38.707232197    -0.493967076    -0.045904334     0.062364414
   35    28.746765753    17.952962111    30.883444696    -0.382932477     0.254782213    -0.196083508
   36    28.260534121    12.939721987    36.217515403    -0.422680451     0.223687407    -0.145962941
   37    28.766093482    15.552601872    38.154226662    -0.376752069     0.256394202    -0.205717990
   38    26.851141672    16.469808643    34.853365409    -0.396117627     0.241406238    -0.186584709
   39    29.037648373    16.165149356    34.278891399    -0.404978440     0.228830483    -0.183382313
   40    23.804058805    19.183905104    36.825856300    -0.373094888     0.264350257    -0.202284814
   41    27.303430848    12.375809668    34.266833413    -0.421352192     0.222524589    -0.151476526
   42    21.587541128    18.817397134    33.715867463    -0.385787875     0.241663472    -0.206800585
   43    25.125351855    17.402087628    35.860258474    -0.392439858     0.243923129    -0.191030011
   44    30.065747063    14.401429017    35.143597308    -0.406983979     0.229607708    -0.177888565
   45    25.405177873    19.918136467    35.319422559    -0.379813191     0.252394228    -0.205034373
   46    28.497204284    11.596640107    32.619163904    -0.418618029     0.228179813    -0.150641689
   47    27.921668314    12.166373847    40.183928634    -0.381233042     0.251904637    -0.202991187
   48    31.126583420    13.823223714    31.105030725    -0.372990352     0.268849779    -0.196463721
   49    24.366049857    15.675382321    32.194925553     0.385192269    -0.232939783     0.217637252
   50    27.520809882    19.749468657    37.315979464    -0.367502824     0.258140269    -0.219784613
   51    30.797779985    16.183081035    31.244364349    -0.386425132     0.239051799    -0.208638095
   52    30.505232555    19.945462793    31.945542978    -0.367871360     0.254635930    -0.223229042
   53    29.774459219    14.625624412    39.868555784    -0.372692298     0.265346349    -0.201722002
   54    25.933571451    12.732333700    40.179973523    -0.369336623     0.284237601    -0.181106172
   55    24.379794596    20.400642928    33.081380057    -0.369303307     0.262756416    -0.211125870
   56    27.490936130    14.393264578    40.045432770    -0.381493127     0.253671638    -0.200284034
   57    26.380602648    16.319432282    37.675201426    -0.383879671     0.250087232    -0.200231801
   58    25.253562993    10.607564098    37.465531097    -0.371776459     0.266228418    -0.202249089
   59    26.905293034    12.086593872    38.180644809    -0.379087586     0.260245315    -0.196379680
   60    30.010598954    16.765909032    39.426266058    -0.373433441     0.260578438    -0.206509911
   61    30.175476258    12.139405366    40.329675884    -0.391937054     0.249142836    -0.185238206
   62    30.007245453    17.655315828    32.763837952    -0.388862066     0.240905760    -0.201868047
   63    23.269824757    18.188947345    39.957673910    -0.364504657     0.268202676    -0.212611571
   64    24.609784241    19.510639499    31.024492749    -0.372404542     0.253829456    -0.216530517
   65    25.736729950    14.237263415    33.871445320    -0.301004290     0.334054773    -0.218640860
   66    22.135039526    17.119010866    38.464801267    -0.360468883     0.272688895    -0.213782486
   67    28.966022993    13.147914925    38.576597372    -0.379974878     0.263086297    -0.190800137
   68    22.129063799    12.678401035    35.675965304    -0.449558335     0.204443257    -0.078104152
   21    33.022926200    16.891711093    34.742468049     0.379151539    -0.246511394     0.213251595
   22    40.355231870    12.275333547    36.782394769    -0.432899135     0.219419274    -0.120222796
   23    40.239305452    19.802659259    37.647234400    -0.375346909     0.259572860    -0.204295444
   24    35.186096025    14.690372907    38.475345821    -0.384272996     0.245215142    -0.205435632
   25    36.464754835    10.934223190    31.760361892    -0.367974910     0.262399463    -0.213871428
   26    33.023980792    11.516601072    38.297507099    -0.177173858    -0.358987513     0.299561997
   27    31.688603970    13.516859550    33.585710525    -0.384697084     0.254295455    -0.193240718
   28    38.681764687    15.955673297    31.854989389    -0.392518764     0.239609140    -0.196256158
   29    39.394394509    18.608486199    35.934504215    -0.367065114     0.265198448    -0.211974020
   30    38.164361238    19.522147580    32.631549489    -0.381399964     0.258487468    -0.194211988
   31    36.676730300    20.485898272    39.645940704    -0.373172727     0.268550562    -0.196526618
   32    38.803605188    11.136885509    38.874869207    -0.370840185     0.269293486    -0.199896411
   33    31.866828520    18.511212096    36.277086591    -0.374770754     0.266575485    -0.196174395
   34    41.464132491    13.495978057    38.995319066    -0.491271921    -0.047108461     0.080204066
   35    38.836421703    18.097622323    31.171531566    -0.383748354     0.253777654    -0.195790968
   36    38.350190071    13.084382199    36.505602273    -0.423204982     0.224270760    -0.143527590
   37    38.855749432    15.697262083    38.442313532    -0.375567181     0.257764006    -0.206172282
   38    36.940797622    16.614468854    35.141452278    -0.396237750     0.241458941    -0.186261175
   39    39.127304322    16.309809568    34.566978269    -0.405432031     0.228233640    -0.183123657
   40    33.893714755    19.328565316    37.113943170    -0.373556371     0.264180808    -0.201653511
   41    37.393086798    12.520469880    34.554920282    -0.421889882     0.222620101    -0.149830632
   42    31.677197078    18.962057346    34.003954333    -0.386242229     0.241419698    -0.206236443
   43    35.215007805    17.546747840    36.148345344    -0.392513916     0.244118490    -0.190627879
   44    40.155403013    14.546089229    35.431684177    -0.407459713     0.228929957    -0.177672893
   45    35.494833823    20.062796678    35.607509429    -0.380303205     0.252363315    -0.204162264
   46    38.586860233    11.741300319    32.907250774    -0.419091070     0.227944112    -0.149680181
   47    38.011324263    12.311034058    40.472015503    -0.379750560     0.254406679    -0.202649338
   48    41.216239369    13.967883926    31.393117595    -0.373698935     0.267434072    -0.197048530
   49    34.455705807    15.820042533    32.483012422     0.378031315    -0.234381018     0.228380962
   50    37.610465831    19.894128869    37.604066334    -0.367759226     0.258523819    -0.218903146
   51    40.887435935    16.327741247    31.532451219    -0.387022285     0.238181432    -0.208526632
   52    40.594888505    20.090123005    32.233629847    -0.368946731     0.253627965    -0.222600909
   53    39.864115169    14.770284624    40.156642654    -0.371070324     0.267071312    -0.202434505
   54    36.023227400    12.876993912    40.468060392    -0.367359377     0.286777324    -0.181123865
   55    34.469450546    20.545303139    33.369466926    -0.370309064     0.262177500    -0.210081307
   56    37.580592079    14.537924790    40.333519639    -0.379982472     0.255777765    -0.200477070
   57    36.470258598    16.464092494    37.963288295    -0.383178754     0.251000300    -0.200431764
   58    35.343218943    10.752224309    37.753617967    -0.370418727     0.268081409    -0.202292672
   59    36.994948984    12.231254083    38.468731679    -0.377816861     0.262153385    -0.196290658
   60    40.100254903    16.910569243    39.714352928    -0.372265883     0.261763510    -0.207118269
   61    40.265132207    12.284065578    40.617762754    -0.390488713     0.251995843    -0.184436059
   62    40.096901403    17.799976039    33.051924822    -0.389375947     0.240251199    -0.201657466
   63    33.359480706    18.333607557    40.245760779    -0.364871805     0.268114401    -0.212092513
   64    34.699440191    19.655299711    31.312579619    -0.373454325     0.253187551    -0.215471416
   65    35.826385900    14.381923627    34.159532189    -0.314051838     0.322373398    -0.217822945
   66    32.224695476    17.263671078    38.752888137    -0.360971954     0.272529088    -0.213136447
   67    39.055678942    13.292575137    38.864684241    -0.378631068     0.264848896    -0.191032920
   68    32.218719749    12.823061247    35.964052174    -0.448740383     0.203432670    -0.085130591
   21     2.889033821    26.482823979    33.908832864     0.379405055    -0.246179361     0.213184255
   22    10.221339492    21.866446433    35.948759584    -0.432604484     0.218510987    -0.122907725
   23    10.105413073    29.393772145    36.813599215    -0.374753456     0.258876792    -0.206258705
   24     5.052203647    24.281485793    37.641710636    -0.383990970     0.244386949    -0.206944327
   25     6.330862457    20.525336076    30.926726707    -0.367214617     0.263194455    -0.214201083
   26     2.890088414    21.107713958    37.463871914    -0.161351459    -0.342686876     0.326391501
   27     1.554711591    23.107972436    32.752075339    -0.384793960     0.252627995    -0.195224754
   28     8.547872309    25.546786183    31.021354203    -0.390666404     0.241714868    -0.197366876
   29     9.260502130    28.199599085    35.100869030    -0.366011974     0.264862030    -0.214203968
   30     8.030468860    29.113260466    31.797914304    -0.379529049     0.260139221    -0.195666264
   31     6.542837922    30.077011158    38.812305519    -0.373136644     0.267157630    -0.198483868
   32     8.669712810    20.727998395    38.041234021    -0.371178058     0.267602446    -0.201533571
   33     1.732936142    28.102324982    35.443451406    -0.374529357     0.266425388    -0.196838191
   34    11.330240113    23.087090943    38.161683881    -0.492045787    -0.047876526     0.074825006
   35     8.702529324    27.688735209    30.337896380    -0.381856296     0.255584051    -0.197135898
   36     8.216297693    22.675495085    35.671967088    -0.422530127     0.224139990    -0.145703659
   37     8.721857054    25.288374970    37.608678347    -0.375801066     0.256302624    -0.207563300
   38     6.806905244    26.205581740    34.307817093    -0.395345363     0.241831945    -0.187668204
   39     8.993411944    25.900922454    33.733343084    -0.404058343     0.229517020    -0.184550245
   40     3.759822376    28.919678202    36.280307984    -0.373052480     0.263941802    -0.202895471
   41     7.259194420    22.111582766    33.721285097    -0.421098166     0.222815782    -0.151754609
   42     1.543304699    28.553170232    33.170319147    -0.386300708     0.241371135    -0.206183748
   43     5.081115427    27.137860726    35.314710158    -0.391795514     0.244206350    -0.191988370
   44    10.021510635    24.137202115    34.598048992    -0.405994078     0.230405801    -0.179114420
   45     5.360941445    29.653909564    34.773874244    -0.379710757     0.252061939    -0.205632002
   46     8.452967855    21.332413205    32.073615588    -0.418247778     0.228407112    -0.151324113
   47     7.877431885    21.902146944    39.638380318    -0.380181246     0.252190674    -0.204602260
   48    11.082346991    23.558996812    30.559482409    -0.371995644     0.269581144    -0.197345503
   49     4.321813429    25.411155419    31.649377237     0.389757496    -0.231538211     0.210900809
   50     7.476573453    29.485241755    36.770431148    -0.367495614     0.257213986    -0.220879921
   51    10.753543557    25.918854133    30.698816034    -0.385366491     0.239748364    -0.209793683
   52    10.460996127    29.681235891    31.399994662    -0.366796068     0.255366327    -0.224162181
   53     9.730222790    24.361397510    39.323007468    -0.371524836     0.265292764    -0.203933924
   54     5.889335022    22.468106798    39.634425207    -0.368099321     0.284627297    -0.183003257
   55     4.335558168    30.136416025    32.535831741    -0.369302090     0.262572881    -0.211356212
   56     7.446699701    24.129037676    39.499884454    -0.380361540     0.253834768    -0.202220201
   57     6.336366220    26.055205380    37.129653110    -0.382850632     0.250343922    -0.201874502
   58     5.209326565    20.343337195    36.919982781    -0.370758871     0.266174909    -0.204178298
   59     6.861056606    21.822366969    37.635096493    -0.378000234     0.260522506    -0.198100598
   60     9.966362525    26.501682129    38.880717742    -0.372619060     0.260360084    -0.208249040
   61    10.131239829    21.875178464    39.784127569    -0.391039309     0.249510322    -0.186635629
   62     9.963009025    27.391088925    32.218289636    -0.387891869     0.241522114    -0.202994990
   63     3.225588328    27.924720443    39.412125594    -0.364724575     0.267462326    -0.213166340
   64     4.565547812    29.246412597    30.478944433    -0.372440203     0.253741576    -0.216572178
   65     5.692493522    23.973036513    33.325897004    -0.315896175     0.314048268    -0.227119554
   66     2.090803098    26.854783964    37.919252952    -0.360682942     0.272142720    -0.214117153
   67     8.921786564    22.883688023    38.031049056    -0.378998705     0.263103741    -0.192708077
   68     2.084827370    22.414174133    35.130416989    -0.448192269     0.208959323    -0.073889722
   21    12.978689771    26.627484190    34.196919733     0.378201487    -0.246899552     0.214486005
   22    20.310995441    22.011106645    36.236846454    -0.432605382     0.219108106    -0.121836862
   23    20.195069023    29.538432357    37.101686085    -0.374353489     0.260392435    -0.205073756
   24    15.141859597    24.426146005    37.929797505    -0.384298231     0.244643044    -0.206069530
   25    16.420518407    20.669996287    31.214813576    -0.367232782     0.263648159    -0.213611170
   26    12.979744364    21.252374170    37.751958784    -0.142889751    -0.360469362     0.315664946
   27    11.644367541    23.252632647    33.040162209    -0.382601188     0.255464337    -0.195842547
   28    18.637528259    25.691446394    31.309441073    -0.391039672     0.241441437    -0.196961945
   29    19.350158080    28.344259297    35.388955899    -0.365681677     0.266277761    -0.213009541
   30    18.120124810    29.257920677    32.086001173    -0.379794139     0.260072006    -0.195240783
   31    16.632493871    30.221671370    39.100392389    -0.372568511     0.268696907    -0.197470700
   32    18.759368760    20.872658606    38.329320891    -0.371590162     0.267725194    -0.200609003
   33    11.822592091    28.246985194    35.731538276    -0.373884136     0.267098431    -0.197152431
   34    21.419896063    23.231751155    38.449770751    -0.491918360    -0.044084659     0.077928621
   35    18.792185274    27.833395421    30.625983250    -0.382282152     0.255423134    -0.196518138
   36    18.305953643    22.820155296    35.960053957    -0.422745119     0.224315712    -0.144806858
   37    18.811513004    25.433035181    37.896765216    -0.375982870     0.257086682    -0.206260319
   38    16.896561194    26.350241952    34.595903963    -0.395448691     0.242120074    -0.187078066
   39    19.083067894    26.045582666    34.021429953    -0.404265224     0.229611211    -0.183979131
   40    13.849478326    29.064338413    36.568394854    -0.372630608     0.264827337    -0.202516448
   41    17.348850370    22.256242977    34.009371967    -0.421374792     0.222831697    -0.150961318
   42    11.632960649    28.697830443    33.458406017    -0.385265789     0.242024985    -0.207350375
   43    15.170771376    27.282520937    35.602797028    -0.391819562     0.244567448    -0.191478966
   44    20.111166585    24.281862326    34.886135862    -0.406186539     0.230454461    -0.178614773
   45    15.450597394    29.798569776    35.061961113    -0.379301768     0.252932244    -0.205317920
   46    18.542623805    21.477073417    32.361702458    -0.418521406     0.228392555    -0.150587759
   47    17.967087835    22.046807156    39.926467187    -0.380619964     0.252435246    -0.203481916
   48    21.172002941    23.703657023    30.847569279    -0.372280083     0.269367190    -0.197101133
   49    14.411469379    25.555815631    31.937464107     0.376821639    -0.230244231     0.234505962
   50    17.566229403    29.629901966    37.058518018    -0.367103736     0.258675806    -0.219821916
   51    20.843199506    26.063514345    30.986902903    -0.385637912     0.239899256    -0.209121371
   52    20.550652076    29.825896102    31.688081532    -0.367298017     0.255138606    -0.223598878
   53    19.819878740    24.506057722    39.611094338    -0.371807946     0.265911485    -0.202607831
   54    15.978990972    22.612767010    39.922512077    -0.368408650     0.284941088    -0.181889095
   55    14.425214118    30.281076237    32.823918611    -0.368762495     0.263220017    -0.211493370
   56    17.536355651    24.273697888    39.787971324    -0.380686954     0.254265997    -0.201062790
   57    16.426022169    26.199865592    37.417739980    -0.383057662     0.250718152    -0.201015511
   58    15.298982515    20.487997407    37.208069651    -0.371091241     0.266506566    -0.203139215
   59    16.950712556    21.967027181    37.923183363    -0.378422256     0.260684464    -0.197079189
   60    20.056018475    26.646342341    39.168804612    -0.372736055     0.261370012    -0.206769316
   61    20.220895779    22.019838675    40.072214438    -0.391448223     0.249862830    -0.185302065
   62    20.052664974    27.535749137    32.506376506    -0.388047723     0.241732176    -0.202446337
   63    13.315244278    28.069380655    39.700212464    -0.364148844     0.268350111    -0.213034826
   64    14.655203762    29.391072809    30.767031303    -0.371846010     0.254308901    -0.216927472
   65    15.782149472    24.117696725    33.613983874    -0.314776143     0.309020424    -0.235419534
   66    12.180459047    26.999444175    38.207339821    -0.360152161     0.272591763    -0.214439156
   67    19.011442514    23.028348234    38.319135926    -0.379341095     0.263393261    -0.191635914
   68    12.174483320    22.558834344    35.418503858    -0.449422270     0.203664385    -0.080872995
   21    23.068345721    26.772144402    34.485006603     0.377881281    -0.246218893     0.215828623
   22    30.400651391    22.155766857    36.524933323    -0.433346321     0.215712077    -0.125216877
   23    30.284724973    29.683092568    37.389772954    -0.374261956     0.260899349    -0.204595988
   24    25.231515547    24.570806216    38.217884375    -0.384049183     0.245714157    -0.205257834
   25    26.510174357    20.814656499    31.502900446    -0.367391376     0.263699285    -0.213275089
   26    23.069400314    21.397034382    38.040045653    -0.150931301    -0.347520764     0.326265322
   27    21.734023491    23.397292859    33.328249078    -0.382885276     0.255185385    -0.195650926
   28    28.727184209    25.836106606    31.597527943    -0.390802163     0.243147311    -0.195328069
   29    29.439814030    28.488919509    35.677042769    -0.365570519     0.267088051    -0.212184280
   30    28.209780760    29.402580889    32.374088043    -0.379406373     0.261489325    -0.194098268
   31    26.722149821    30.366331581    39.388479258    -0.372474269     0.269057563    -0.197157163
   32    28.849024710    21.017318818    38.617407761    -0.371508600     0.268146689    -0.200196685
   33    21.912248041    28.391645406    36.019625145    -0.373688929     0.267661249    -0.196758838
   34    31.509552012    23.376411367    38.737857620    -0.493247889    -0.055118112     0.060568259
   35    28.881841224    27.978055632    30.914070120    -0.381919006     0.256978338    -0.195192231
   36    28.395609592    22.964815508    36.248140827    -0.423027751     0.222837090    -0.146257147
   37    28.901168954    25.577695393    38.184852086    -0.375681570     0.258074396    -0.205574716
   38    26.986217143    26.494902164    34.883990832    -0.395214051     0.243265192    -0.186085733
   39    29.172723844    26.190242877    34.309516823    -0.404086425     0.230945606    -0.182697259
   40    23.939134276    29.208998625    36.856481724    -0.372390019     0.265517133    -0.202055255
   41    27.438506319    22.400903189    34.297458836    -0.421640120     0.221735543    -0.151832006
   42    21.722616599    28.842490655    33.746492887    -0.385365528     0.242303732    -0.206838853
   43    25.260427326    27.427181149    35.890883898    -0.391580225     0.245605243    -0.190638379
   44    30.200822534    24.426522538    35.174222731    -0.406094456     0.231689119    -0.177221458
   45    25.540253344    29.943229988    35.350047983    -0.379186606     0.253603046    -0.204702254
   46    28.632279755    21.621733629    32.649789328    -0.418738997     0.227640430    -0.151120770
   47    28.056743785    22.191467368    40.214554057    -0.380306922     0.253393187    -0.202875671
   48    31.261658891    23.848317235    31.135656149    -0.372005515     0.271331562    -0.194913008
   49    24.501125328    25.700475842    32.225550976     0.352539048    -0.191712096     0.298266143
   50    27.655885353    29.774562178    37.346604888    -0.366941623     0.259202927    -0.219471382
   51    30.932855456    26.208174556    31.274989773    -0.385418472     0.241398254    -0.207796739
   52    30.640308026    29.970556314    31.976168401    -0.366921302     0.256697359    -0.222430267
   53    29.909534690    24.650717933    39.899181208    -0.371471846     0.267221932    -0.201497163
   54    26.068646922    22.757427221    40.210598946    -0.367937827     0.285932771    -0.181284876
   55    24.514870068    30.425736449    33.112005480    -0.368659389     0.263967736    -0.210739862
   56    27.626011601    24.418358099    40.076058193    -0.380436885     0.255217668    -0.200329026
   57    26.515678119    26.344525803    37.705826849    -0.382799577     0.251801181    -0.200151565
   58    25.388638464    20.632657619    37.496156521    -0.371111699     0.266441597    -0.203187063
   59    27.040368505    22.111687393    38.211270233    -0.378377973     0.260862767    -0.196928227
   60    30.145674425    26.791002553    39.456891482    -0.372355436     0.262222902    -0.206374850
   61    30.310551729    22.164498887    40.360301308    -0.390876351     0.250979703    -0.184999640
   62    30.142320924    27.680409349    32.794463376    -0.387887901     0.243109019    -0.201099430
   63    23.404900228    28.214040866    39.988299333    -0.363970756     0.269289072    -0.212152504
   64    24.744859712    29.535733020    31.055118173    -0.371811640     0.254996047    -0.216178446
   65    25.871805421    24.262356936    33.902070743    -0.332984562     0.309224583    -0.208569985
   66    22.270114997    27.144104387    38.495426691    -0.360083790     0.273525820    -0.213361876
   67    29.101098464    23.173008446    38.607222795    -0.379082972     0.264368967    -0.190801336
   68    22.264139270    22.703494556    35.706590728    -0.449126719     0.204868112    -0.079462238
   21    33.158001671    26.916804614    34.773093473     0.378606809    -0.248086575     0.212390998
   22    40.490307341    22.300427068    36.813020193    -0.432399001     0.221856760    -0.117518858
   23    40.374380923    29.827752780    37.677859824    -0.374745119     0.259635459    -0.205318105
   24    35.321171496    24.715466428    38.505971244    -0.384731257     0.244768982    -0.205109739
   25    36.599830306    20.959316711    31.790987315    -0.368869021     0.262594597    -0.212084235
   26    33.159056263    21.541694593    38.328132523    -0.156807340    -0.372155524     0.294807944
   27    31.823679441    23.541953071    33.616335948    -0.382537484     0.258702424    -0.191671931
   28    38.816840158    25.980766818    31.885614812    -0.392185201     0.240557592    -0.195762134
   29    39.529469980    28.633579720    35.965129638    -0.366365190     0.265372467    -0.212964789
   30    38.299436709    29.547241101    32.662174913    -0.380550316     0.259526519    -0.194492785
   31    36.811805771    30.510991793    39.676566128    -0.372832370     0.268405385    -0.197369129
   32    38.938680660    21.161979030    38.905494630    -0.371880821     0.268125604    -0.199532743
   33    32.001903991    28.536305617    36.307712015    -0.373936203     0.268067574    -0.195733217
   34    41.599207962    23.521071578    39.025944490    -0.491354988    -0.034938432     0.085729700
   35    38.971497174    28.122715844    31.202156989    -0.383224671     0.254619873    -0.195723202
   36    38.485265542    23.109475720    36.536227697    -0.423168314     0.225655460    -0.141450314
   37    38.990824903    25.722355604    38.472938955    -0.376387228     0.256584229    -0.206148461
   38    37.075873093    26.639562375    35.172077702    -0.396139209     0.241831719    -0.185986953
   39    39.262379794    26.334903089    34.597603692    -0.405128875     0.229043684    -0.182782892
   40    34.028790226    29.353658837    37.144568593    -0.372808396     0.265304820    -0.201562032
   41    37.528162269    22.545563401    34.585545706    -0.422055214     0.223734652    -0.147689545
   42    31.812272549    28.987150867    34.034579756    -0.385416131     0.243408102    -0.205443184
   43    35.350083276    27.571841361    36.178970767    -0.392421725     0.244433058    -0.190414467
   44    40.290478484    24.571182750    35.462309601    -0.407156541     0.229874452    -0.177147641
   45    35.629909294    30.087890199    35.638134852    -0.379702218     0.253074475    -0.204400430
   46    38.721935704    21.766393840    32.937876197    -0.419353778     0.228858661    -0.147533459
   47    38.146399734    22.336127579    40.502640927    -0.380729774     0.252809310    -0.202810977
   48    41.351314841    23.992977447    31.423743018    -0.373925632     0.268050503    -0.195776785
   49    34.590781278    25.845136054    32.513637846     0.384558659    -0.230669734     0.221147262
   50    37.745541302    29.919222390    37.634691757    -0.367338886     0.258497370    -0.219638913
   51    41.022511406    26.352834768    31.563076642    -0.386652999     0.238988359    -0.208288317
   52    40.729963976    30.115216526    32.264255271    -0.368356399     0.254297664    -0.222814411
   53    39.999190640    24.795378145    40.187268077    -0.372129635     0.265390808    -0.202699911
   54    36.158302871    22.902087433    40.498685816    -0.368659662     0.285207168    -0.180961114
   55    34.604526017    30.570396660    33.400092350    -0.369180065     0.263487959    -0.210428550
   56    37.715667550    24.563018311    40.364145063    -0.380908051     0.254474747    -0.200378791
   57    36.605334069    26.489186015    37.993913719    -0.383569537     0.250642069    -0.200132365
   58    35.478294414    20.777317830    37.784243390    -0.371396681     0.267217601    -0.201641413
   59    37.130024455    22.256347604    38.499357102    -0.378698667     0.261275343    -0.195761371
   60    40.235330374    26.935662764    39.744978351    -0.373155750     0.260618913    -0.206960306
   61    40.400207679    22.309159099    40.648388178    -0.391423163     0.250357997    -0.184685628
   62    40.231976874    27.825069560    33.082550245    -0.389024151     0.240974519    -0.201473301
   63    33.494556177    28.358701078    40.276386203    -0.364002504     0.269417534    -0.211934824
   64    34.834515662    29.680393232    31.343205042    -0.372226762     0.254739858    -0.215765712
   65    35.961461371    24.407017148    34.190157613    -0.305166622     0.325369637    -0.225849357
   66    32.359770947    27.288764599    38.783513561    -0.359969026     0.273969400    -0.212986074
   67    39.190754413    23.317668658    38.895309665    -0.379678870     0.263335883    -0.191044939
   68    32.353795220    22.848154768    35.994677597    -0.450447329     0.199347889    -0.085776587
   21     3.024109292    36.507917500    33.939458287     0.377698221    -0.247414601     0.214779116
   22    10.356414963    31.891539954    35.979385008    -0.432532152     0.219836139    -0.120780833
   23    10.240488544    39.418865666    36.844224639    -0.374623825     0.259512292    -0.205694823
   24     5.187279118    34.306579314    37.672336059    -0.384336574     0.243906743    -0.206869278
   25     6.465937928    30.550429597    30.957352130    -0.366968244     0.263969891    -0.213668445
   26     3.025163885    31.132807479    37.494497338    -0.128326564    -0.365310380     0.316355211
   27     1.689787062    33.133065957    32.782700763    -0.382860116     0.255071342    -0.195848773
   28     8.682947780    35.571879704    31.051979627    -0.390927538     0.242298627    -0.196130149
   29     9.395577601    38.224692606    35.131494453    -0.365914423     0.265565078    -0.213499004
   30     8.165544331    39.138353987    31.828539727    -0.379751880     0.260546242    -0.194689921
   31     6.677913393    40.102104679    38.842930943    -0.372685936     0.267767504    -0.198508834
   32     8.804788281    30.753091916    38.071859445    -0.371623447     0.267042600    -0.201455363
   33     1.868011613    38.127418504    35.474076830    -0.373428529     0.267606516    -0.197326851
   34    11.465315584    33.112184464    38.192309305    -0.491175658    -0.042159087     0.083481040
   35     8.837604795    37.713828730    30.368521804    -0.382107689     0.256129549    -0.195937153
   36     8.351373164    32.700588606    35.702592511    -0.422631580     0.224845695    -0.144315491
   37     8.856932525    35.313468491    37.639303770    -0.376097916     0.255759187    -0.207695922
   38     6.941980715    36.230675261    34.338442517    -0.395379519     0.242083148    -0.187271955
   39     9.128487415    35.926015975    33.763968507    -0.404175635     0.230024979    -0.183658827
   40     3.894897847    38.944771723    36.310933408    -0.372457953     0.264743760    -0.202942885
   41     7.394269891    32.136676287    33.751910521    -0.421141547     0.223515890    -0.150600279
   42     1.678380170    38.578263753    33.200944571    -0.384742781     0.242845198    -0.207362491
   43     5.216190898    37.162954247    35.345335582    -0.391700155     0.244499203    -0.191810137
   44    10.156586106    34.162295636    34.628674415    -0.406120645     0.230944344    -0.178131221
   45     5.496016916    39.679003085    34.804499667    -0.379254473     0.252689455    -0.205703874
   46     8.588043326    31.357506726    32.104241012    -0.418230178     0.229082062    -0.150349350
   47     8.012507356    31.927240465    39.669005741    -0.380707759     0.251378131    -0.204623161
   48    11.217422462    33.584090333    30.590107833    -0.372049547     0.270625099    -0.195809066
   49     4.456888900    35.436248940    31.680002661     0.376130166    -0.234664010     0.231211809
   50     7.611648924    39.510335276    36.801056572    -0.367083800     0.257957113    -0.220698010
   51    10.888619028    35.943947654    30.729441457    -0.385535831     0.240501907    -0.208616767
   52    10.596071598    39.706329412    31.430620086    -0.367477266     0.255459615    -0.222936862
   53     9.865298261    34.386491031    39.353632892    -0.372007742     0.264278496    -0.204370048
   54     6.024410493    32.493200319    39.665050631    -0.368619947     0.283919195    -0.183055251
   55     4.470633639    40.161509546    32.566457165    -0.368917835     0.262989502    -0.211509227
   56     7.581775172    34.154131197    39.530509877    -0.380829944     0.253043306    -0.202330520
   57     6.471441691    36.080298901    37.160278534    -0.383083602     0.250046930    -0.201800611
   58     5.344402036    30.368430716    36.950608205    -0.371270478     0.265843691    -0.203679563
   59     6.996132077    31.847460490    37.665721917    -0.378506751     0.260017769    -0.197796358
   60    10.101437996    36.526775650    38.911343166    -0.372888688     0.259699811    -0.208590590
   61    10.266315300    31.900271985    39.814752992    -0.391582779     0.248707331    -0.186567926
   62    10.098084496    37.416182446    32.248915060    -0.388047545     0.242110748    -0.201993783
   63     3.360663799    37.949813964    39.442751018    -0.363826352     0.268602860    -0.213267179
   64     4.700623283    39.271506118    30.509569857    -0.371998078     0.254125296    -0.216881912
   65     5.827568993    33.998130034    33.356522428    -0.305466157     0.318853095    -0.234570099
   66     2.225878569    36.879877485    37.949878375    -0.359704869     0.273327016    -0.214253938
   67     9.056862035    32.908781544    38.061674480    -0.379483197     0.262278694    -0.192879211
   68     2.219902841    32.439267654    35.161042412    -0.448887006     0.205643297    -0.078811737
   21    13.113765242    36.652577711    34.227545157     0.378531062    -0.247080131     0.213695214
   22    20.446070912    32.036200166    36.267471877    -0.431937866     0.222017480    -0.118902979
   23    20.330144494    39.563525878    37.132311508    -0.374773453     0.260417519    -0.204273283
   24    15.276935068    34.451239526    37.960422929    -0.384193150     0.245221734    -0.205577054
   25    16.555593878    30.695089808    31.245439000    -0.366892765     0.264155075    -0.213569182
   26    13.114819835    31.277467691    37.782584207    -0.143025560    -0.345756257     0.331656901
   27    11.779443012    33.277726168    33.070787632    -0.382683237     0.255945845    -0.195051954
   28    18.772603730    35.716539915    31.340066497    -0.391384288     0.241784193    -0.195853882
   29    19.485233551    38.369352818    35.419581323    -0.366133572     0.266558132    -0.211879612
   30    18.255200281    39.283014198    32.116626597    -0.380285868     0.260213360    -0.194091900
   31    16.767569342    40.246764891    39.131017812    -0.372793998     0.268602579    -0.197173247
   32    18.894444231    30.897752128    38.359946314    -0.371138256     0.268661927    -0.200192818
   33    11.957667562    38.272078715    35.762163699    -0.374014821     0.267334872    -0.196583264
   34    21.554971534    33.256844676    38.480396174    -0.491052362    -0.039502827     0.085481601
   35    18.927260745    37.858488942    30.656608674    -0.382540404     0.255797902    -0.195525632
   36    18.441029114    32.845248818    35.990679381    -0.422413520     0.226327581    -0.142627643
   37    18.946588475    35.458128702    37.927390640    -0.375798460     0.257305038    -0.206324102
   38    17.031636665    36.375335473    34.626529386    -0.395560980     0.242687047    -0.186103488
   39    19.218143365    36.070676187    34.052055377    -0.404532554     0.230123853    -0.182746888
   40    13.984553797    39.089431934    36.599020277    -0.372828748     0.264959216    -0.201978559
   41    17.483925841    32.281336498    34.039997390    -0.421097971     0.224631689    -0.149054027
   42    11.768036120    38.722923965    33.489031441    -0.385528914     0.242349076    -0.206480948
   43    15.305846847    37.307614458    35.633422452    -0.391922228     0.245099817    -0.190586062
   44    20.246242056    34.306955847    34.916761285    -0.406465347     0.231092162    -0.177150597
   45    15.585672865    39.823663297    35.092586537    -0.379556151     0.253146018    -0.204583044
   46    18.677699276    31.502166938    32.392327882    -0.418215901     0.229990943    -0.148995389
   47    18.102163306    32.071900677    39.957092611    -0.380300200     0.253417466    -0.202857945
   48    21.307078412    33.728750544    30.878194703    -0.372419311     0.269959085    -0.196025379
   49    14.546544850    35.580909152    31.968089530     0.386081528    -0.225831269     0.223475484
   50    17.701304874    39.654995487    37.089143442    -0.367200726     0.258842402    -0.219463522
   51    20.978274977    36.088607866    31.017528327    -0.385963466     0.240236278    -0.208131530
   52    20.685727547    39.850989623    31.718706955    -0.367920788     0.255254363    -0.222439887
   53    19.954954211    34.531151243    39.641719762    -0.371573970     0.266078203    -0.202818082
   54    16.114066443    32.637860531    39.953137500    -0.367844483     0.286064340    -0.181266736
   55    14.560289589    40.306169758    32.854544034    -0.369287395     0.263302813    -0.210471966
   56    17.671431122    34.298791409    39.818596747    -0.380361629     0.255010084    -0.200735866
   57    16.561097640    36.224959113    37.448365403    -0.382956879     0.251303432    -0.200475968
   58    15.434057986    30.513090928    37.238695074    -0.370767356     0.266843684    -0.203288012
   59    17.085788027    31.992120702    37.953808787    -0.378028501     0.261421871    -0.196857963
   60    20.191093946    36.671435862    39.199430036    -0.372694431     0.261304737    -0.206926788
   61    20.355971250    32.044932196    40.102839862    -0.391183366     0.250878225    -0.184487643
   62    20.187740445    37.560842658    32.537001930    -0.388415209     0.242134410    -0.201257429
   63    13.450319749    38.094474176    39.730837887    -0.364461316     0.267674802    -0.213349829
   64    14.790279233    39.416166330    30.797656726    -0.372372894     0.254462754    -0.215840530
   65    15.917224943    34.142790246    33.644609297    -0.332748973     0.300487548    -0.221326352
   66    12.315534518    37.024537696    38.237965245    -0.360435267     0.272100381    -0.214587514
   67    19.146517985    33.053441755    38.349761349    -0.379020848     0.264091087    -0.191308899
   68    12.309558791    32.583927865    35.449129282    -0.448976444     0.205938203    -0.077521671
   21    23.203421192    36.797237923    34.515632027     0.378267922    -0.248101560     0.212976513
   22    30.535726862    32.180860378    36.555558747    -0.431746216     0.221986336    -0.119654800
   23    30.419800444    39.708186089    37.420398378    -0.374304564     0.260583032    -0.204920905
   24    25.366591018    34.595899737    38.248509798    -0.383785308     0.246069837    -0.205325285
   25    26.645249828    30.839750020    31.533525869    -0.366665221     0.265056381    -0.212842032
   26    23.204475785    31.422127903    38.070671077    -0.135370219    -0.352704490     0.327527780
   27    21.869098962    33.422386380    33.358874502    -0.383455807     0.255122067    -0.194613398
   28    28.862259680    35.861200127    31.628153366    -0.390559923     0.243248294    -0.195686519
   29    29.574889501    38.514013030    35.707668192    -0.365551946     0.266730079    -0.212666029
   30    28.344856231    39.427674410    32.404713467    -0.379495987     0.261508474    -0.193897173
   31    26.857225292    40.391425102    39.419104682    -0.373022711     0.268313211    -0.197134670
   32    28.984100181    31.042412339    38.648033184    -0.371012958     0.269046813    -0.199907972
   33    22.047323512    38.416738927    36.050250569    -0.374161390     0.267703202    -0.195801557
   34    31.644627483    33.401504888    38.768483044    -0.491598557    -0.040713998     0.081689833
   35    29.016916695    38.003149153    30.944695543    -0.381771812     0.257079352    -0.195347103
   36    28.530685063    32.989909029    36.278766251    -0.422101801     0.226748700    -0.142881406
   37    29.036244425    35.602788914    38.215477509    -0.375549316     0.257923435    -0.206005372
   38    27.121292614    36.519995685    34.914616256    -0.395183133     0.243357780    -0.186030326
   39    29.307799315    36.215336398    34.340142246    -0.403925980     0.231151435    -0.182791730
   40    24.074209747    39.234092146    36.887107147    -0.372921308     0.265202430    -0.201487889
   41    27.573581790    32.425996710    34.328084260    -0.420763158     0.225293811    -0.149000213
   42    21.857692070    38.867584176    33.777118310    -0.385753783     0.242734732    -0.205606101
   43    25.395502797    37.452274670    35.921509321    -0.391623511     0.245669045    -0.190467178
   44    30.335898005    34.451616059    35.204848155    -0.405870254     0.232093593    -0.177205815
   45    25.675328815    39.968323509    35.380673406    -0.379562080     0.253398486    -0.204259233
   46    28.767355226    31.646827150    32.680414751    -0.417881793     0.230727445    -0.148793995
   47    28.191819256    32.216560889    40.245179481    -0.380081191     0.253620484    -0.203014626
   48    31.396734362    33.873410756    31.166281572    -0.371619840     0.271350293    -0.195621351
   49    24.636200799    35.725569363    32.256176400     0.377713552    -0.236179317     0.227050221
   50    27.790960824    39.799655699    37.377230311    -0.367540713     0.258346004    -0.219479309
   51    31.067930927    36.233268077    31.305615196    -0.385187260     0.241508872    -0.208096707
   52    30.775383497    39.995649835    32.006793825    -0.367142262     0.256505445    -0.222287013
   53    30.044610161    34.675811454    39.929806631    -0.371393759     0.266605567    -0.202455297
   54    26.203722393    32.782520742    40.241224370    -0.367833552     0.286030610    -0.181342129
   55    24.649945539    40.450829970    33.142630904    -0.369306792     0.263714965    -0.209921200
   56    27.761087072    34.443451620    40.106683617    -0.380160651     0.255325382    -0.200715791
   57    26.650753590    36.369619324    37.736452273    -0.382629000     0.251996267    -0.200232190
   58    25.523713935    30.657751140    37.526781944    -0.370675921     0.267367413    -0.202765944
   59    27.175443976    32.136780914    38.241895656    -0.377919537     0.261821194    -0.196536219
   60    30.280749896    36.816096074    39.487516905    -0.372326379     0.261907372    -0.206827454
   61    30.445627200    32.189592408    40.390926731    -0.390961445     0.251008485    -0.184780651
   62    30.277396395    37.705502870    32.825088799    -0.387693205     0.243149310    -0.201425895
   63    23.539975699    38.239134387    40.018924757    -0.364274125     0.268802797    -0.212248482
   64    24.879935183    39.560826541    31.085743596    -0.372563549     0.254673789    -0.215261847
   65    26.006880893    34.287450457    33.932696167    -0.307095965     0.341827939    -0.197093197
   66    22.405190468    37.169197908    38.526052115    -0.360257100     0.273219272    -0.213462060
   67    29.236173935    33.198101967    38.637848219    -0.378755859     0.264585632    -0.191150315
   68    22.399214741    32.728588077    35.737216151    -0.448213564     0.208379752    -0.075382229
   21    33.293077142    36.941898135    34.803718896     0.377533721    -0.248115206     0.214259501
   22    40.625382812    32.325520589    36.843645616    -0.432214974     0.220125671    -0.121387417
   23    40.509456394    39.852846301    37.708485247    -0.373281079     0.261088013    -0.206141421
   24    35.456246967    34.740559949    38.536596668    -0.383741370     0.245562051    -0.206014174
   25    36.734905777    30.984410232    31.821612739    -0.367363453     0.264020405    -0.212925619
   26    33.294131734    31.566788114    38.358757946    -0.142795326    -0.348086547     0.329310265
   27    31.958754912    33.567046592    33.646961372    -0.382682126     0.256482452    -0.194347992
   28    38.951915629    36.005860339    31.916240236    -0.390672726     0.241758747    -0.197300606
   29    39.664545451    38.658673241    35.995755062    -0.364505418     0.267060305    -0.214043440
   30    38.434512180    39.572334622    32.692800336    -0.379228083     0.260432631    -0.195859403
   31    36.946881242    40.536085314    39.707191551    -0.371897725     0.269422650    -0.197746095
   32    39.073756131    31.187072551    38.936120054    -0.371335972     0.268350471    -0.200243903
   33    32.136979462    38.561399138    36.338337439    -0.373394197     0.268320319    -0.196420417
   34    41.734283433    33.546165099    39.056569913    -0.491709675    -0.046452002     0.077870451
   35    39.106572645    38.147809365    31.232782413    -0.381769816     0.255764225    -0.197069705
   36    38.620341013    33.134569241    36.566853120    -0.422151619     0.225499712    -0.144699311
   37    39.125900374    35.747449126    38.503564379    -0.375498835     0.257574722    -0.206533018
   38    37.210948564    36.664655896    35.202703125    -0.395132223     0.242716920    -0.186973321
   39    39.397455265    36.359996610    34.628229116    -0.403906599     0.230100418    -0.184155524
   40    34.163865697    39.378752358    37.175194017    -0.372077544     0.265754271    -0.202318977
   41    37.663237740    32.570656922    34.616171130    -0.420407466     0.224540237    -0.151126584
   42    31.947348020    39.012244388    34.065205180    -0.385058638     0.243442137    -0.206072249
   43    35.485158747    37.596934882    36.209596191    -0.391397514     0.245322406    -0.191376339
   44    40.425553955    34.596276271    35.492935024    -0.405877768     0.230955852    -0.178669057
   45    35.764984765    40.112983720    35.668760276    -0.378813964     0.253780386    -0.205171871
   46    38.857011175    31.791487361    32.968501621    -0.417779967     0.229788179    -0.150523393
   47    38.281475205    32.361221100    40.533266350    -0.380290979     0.253227738    -0.203111998
   48    41.486390312    34.018070968    31.454368442    -0.372042970     0.269531207    -0.197324497
   49    34.725856749    35.870229575    32.544263269     0.362644637    -0.223833027     0.261510312
   50    37.880616773    39.944315911    37.665317181    -0.366292587     0.259534610    -0.220162501
   51    41.157586877    36.377928289    31.593702066    -0.385175852     0.240219870    -0.209604335
   52    40.865039447    40.140310047    32.294880694    -0.366661804     0.255418834    -0.224321958
   53    40.134266111    34.820471666    40.217893501    -0.371304917     0.266475701    -0.202788953
   54    36.293378342    32.927180954    40.529311239    -0.367636461     0.286215600    -0.181449891
   55    34.739601488    40.595490181    33.430717773    -0.368422280     0.263810605    -0.211350391
   56    37.850743021    34.588111832    40.394770486    -0.380219832     0.255112663    -0.200874112
   57    36.740409540    36.514279536    38.024539142    -0.382520217     0.251578374    -0.200964190
   58    35.613369885    30.802411351    37.814868814    -0.371005699     0.266833527    -0.202866063
   59    37.265099926    32.281441125    38.529982526    -0.378188549     0.261226440    -0.196809980
   60    40.370405845    36.960756285    39.775603775    -0.372227535     0.261640121    -0.207342976
   61    40.535283150    32.334252620    40.679013601    -0.391061077     0.250679802    -0.185015866
   62    40.367052345    37.850163081    33.113175669    -0.387573325     0.242187213    -0.202810924
   63    33.629631649    38.383794599    40.307011627    -0.363712672     0.269420071    -0.212428618
   64    34.969591133    39.705486753    31.373830466    -0.371541180     0.254970766    -0.216672703
   65    36.096536842    34.432110669    34.220783037    -0.104702515     0.367727299    -0.322201827
   66    32.494846418    37.313858120    38.814138984    -0.359737822     0.273898600    -0.213467225
   67    39.325829884    33.342762179    38.925935088    -0.378918531     0.264095533    -0.191505343
   68    32.488870691    32.873248289    36.025303021    -0.448152783     0.207978259    -0.076838317
