CRYSTAL
PRIMVEC
    40.358642790     0.578641119     1.152348021
     0.540302138    40.100392953     0.122501752
     1.147485224     0.128543006    40.047960291
PRIMCOORD
 3072    1
   21     1.758269367     6.336229727     3.811625931    -0.412248667     0.204509895    -0.195516596
   22     9.090575037     1.719852182     5.851552651     0.457700217    -0.168262643     0.110445438
   23     8.974648619     9.247177894     6.716392283     0.408668283    -0.217666696     0.188709946
   24     3.921439192     4.134891542     7.544503703     0.417559406    -0.201828276     0.186840812
   25     5.200098002     0.378741824     0.829519774     0.402301247    -0.222816419     0.196230859
   26     1.759323959     0.961119707     7.366664982     0.103950481     0.382255884    -0.305081525
   27     0.423947137     2.961378184     2.654868407     0.417208036    -0.213679903     0.174006764
   28     7.417107854     5.400191931     0.924147271     0.423400433    -0.197998314     0.177563343
   29     8.129737675     8.053004834     5.003662097     0.400831079    -0.224502540     0.197314611
   30     6.899704405     8.966666214     1.700707371     0.413735900    -0.216893347     0.178269125
   31     5.412073467     9.930416906     8.715098586     0.407149664    -0.227424494     0.180297672
   32     7.538948355     0.581404143     7.944027089     0.405964491    -0.226946482     0.183543254
   33     0.602171687     7.955730731     5.346244474     0.408431755    -0.224856174     0.180618943
   34    10.199475658     2.940496692     8.064476948     0.483251755     0.104878367    -0.073947746
   35     7.571764870     7.542140958     0.240689448     0.416071372    -0.212635616     0.177962660
   36     7.085533238     2.528900833     5.574760155     0.449469128    -0.175258468     0.131384827
   37     7.591092599     5.141780718     7.511471414     0.410264262    -0.214294911     0.189105595
   38     5.676140789     6.058987489     4.210610160     0.426966852    -0.197008878     0.169961200
   39     7.862647489     5.754328203     3.636136151     0.434319811    -0.184543906     0.165256918
   40     2.629057922     8.773083950     6.183101052     0.407287093    -0.223305582     0.185072529
   41     6.128429965     1.964988514     3.624078165     0.448550426    -0.174355539     0.135656411
   42     0.412540245     8.406575980     3.073112215     0.418146297    -0.199185428     0.188358275
   43     3.950350972     6.991266474     5.217503226     0.423842439    -0.199901679     0.174347084
   44     8.890746180     3.990607863     4.500842059     0.436038296    -0.185130583     0.159991474
   45     4.230176990     9.507315313     4.676667311     0.412763468    -0.210249843     0.188205534
   46     7.322203400     1.185818954     1.976408656     0.446457789    -0.180883413     0.134002365
   47     6.746667430     1.755552693     9.541173385     0.413818606    -0.210197603     0.185933131
   48     9.951582536     3.412402560     0.462275477     0.407378440    -0.227959455     0.179101350
   49     3.191048974     5.264561167     1.552170305    -0.417793271     0.182547605    -0.205244134
   50     6.345808998     9.338647503     6.673224216     0.402152781    -0.217654734     0.202236390
   51     9.622779102     5.772259882     0.601609101     0.418525442    -0.196316460     0.190515882
   52     9.330231672     9.534641639     1.302787729     0.402129655    -0.212905507     0.207275145
   53     8.599458335     4.214803259     9.225800536     0.406865174    -0.224196334     0.184923590
   54     4.758570567     2.321512547     9.537218274     0.403735497    -0.243408420     0.166583282
   55     3.204793713     9.989821774     2.438624809     0.403790807    -0.221357827     0.194817085
   56     6.315935246     3.982443425     9.402677521     0.414199889    -0.211944026     0.183079714
   57     5.205601765     5.908611129     7.032446177     0.416538130    -0.207517332     0.182845681
   58     4.078562110     0.196742944     6.822775849     0.405242391    -0.225688130     0.186664064
   59     5.730292151     1.675772718     7.537889561     0.411610104    -0.218784225     0.180860680
   60     8.835598070     6.355087878     8.783510810     0.407591485    -0.218963139     0.189537133
   61     9.000475374     1.728584212     9.686920636     0.423030127    -0.205734139     0.169466738
   62     8.832244570     7.244494674     2.121082704     0.420602658    -0.198150423     0.183928829
   63     2.094823873     7.778126192     9.314918662     0.399811847    -0.226883034     0.196658525
   64     3.434783357     9.099818346     0.381737501     0.406359876    -0.211975329     0.199845217
   65     4.561729067     3.826442261     3.228690072     0.376291386    -0.267518110     0.191934504
   66     0.960038643     6.708189712     7.822046019     0.396410620    -0.231520105     0.198133947
   67     7.791022109     2.737093771     7.933842124     0.413367805    -0.221542523     0.173337728
   68     0.954062916     2.267579881     5.033210056     0.471145194    -0.150897505     0.072471710
   21    11.847925316     6.480889939     4.099712801    -0.412248191     0.204507071    -0.195520554
   22    19.180230987     1.864512394     6.139639521     0.457706372    -0.168216301     0.110490513
   23    19.064304568     9.391838105     7.004479152     0.408672664    -0.217657323     0.188711270
   24    14.011095142     4.279551753     7.832590573     0.417567340    -0.201823689     0.186828037
   25    15.289753952     0.523402036     1.117606644     0.402303477    -0.222815375     0.196227474
   26    11.848979909     1.105779919     7.654751851     0.103871802     0.382564022    -0.304721869
   27    10.513603086     3.106038396     2.942955276     0.417200880    -0.213696770     0.174003206
   28    17.506763804     5.544852143     1.212234141     0.423402826    -0.197996450     0.177559717
   29    18.219393625     8.197665046     5.291748967     0.400835277    -0.224494508     0.197315222
   30    16.989360355     9.111326426     1.988794241     0.413738816    -0.216887447     0.178269536
   31    15.501729417    10.075077118     9.003185456     0.407151257    -0.227421109     0.180298345
   32    17.628604305     0.726064355     8.232113958     0.405973732    -0.226938321     0.183532905
   33    10.691827637     8.100390943     5.634331343     0.408429069    -0.224856240     0.180624935
   34    20.289131608     3.085156904     8.352563818     0.483257746     0.105020033    -0.073707144
   35    17.661420819     7.686801169     0.528776317     0.416074143    -0.212633309     0.177958938
   36    17.175189188     2.673561045     5.862847025     0.449473259    -0.175233364     0.131404178
   37    17.680748549     5.286440930     7.799558284     0.410271011    -0.214293765     0.189092252
   38    15.765796739     6.203647701     4.498697030     0.426970917    -0.197005724     0.169954642
   39    17.952303439     5.898988414     3.924223021     0.434324075    -0.184539776     0.165250322
   40    12.718713871     8.917744162     6.471187921     0.407287399    -0.223303998     0.185073767
   41    16.218085915     2.109648726     3.912165034     0.448554741    -0.174336622     0.135666454
   42    10.502196194     8.551236192     3.361199084     0.418143886    -0.199180457     0.188368883
   43    14.040006922     7.135926686     5.505590095     0.423846179    -0.199898603     0.174341517
   44    18.980402130     4.135268075     4.788928929     0.436042941    -0.185125678     0.159984488
   45    14.319832940     9.651975525     4.964754181     0.412764604    -0.210246603     0.188206661
   46    17.411859350     1.330479165     2.264495525     0.446462230    -0.180869034     0.134006975
   47    16.836323380     1.900212905     9.829260255     0.413829288    -0.210185591     0.185922935
   48    20.041238486     3.557062772     0.750362347     0.407382303    -0.227958423     0.179093876
   49    13.280704924     5.409221379     1.840257174    -0.417824484     0.182521163    -0.205204106
   50    16.435464948     9.483307715     6.961311085     0.402154571    -0.217652642     0.202235081
   51    19.712435052     5.916920093     0.889695971     0.418528351    -0.196315273     0.190510716
   52    19.419887622     9.679301851     1.590874599     0.402132431    -0.212902792     0.207272548
   53    18.689114285     4.359463470     9.513887405     0.406874778    -0.224196998     0.184901651
   54    14.848226517     2.466172758     9.825305144     0.403748002    -0.243398849     0.166566956
   55    13.294449663    10.134481985     2.726711678     0.403792422    -0.221351541     0.194820881
   56    16.405591196     4.127103636     9.690764391     0.414210100    -0.211936784     0.183064995
   57    15.295257715     6.053271340     7.320533047     0.416545368    -0.207513446     0.182833602
   58    14.168218060     0.341403156     7.110862718     0.405249562    -0.225686468     0.186650504
   59    15.819948101     1.820432930     7.825976431     0.411618560    -0.218777108     0.180850043
   60    18.925254020     6.499748089     9.071597680     0.407597625    -0.218965171     0.189521583
   61    19.090131324     1.873244424     9.975007506     0.423040075    -0.205718274     0.169461165
   62    18.921900520     7.389154886     2.409169573     0.420605413    -0.198148680     0.183924405
   63    12.184479823     7.922786403     9.603005531     0.399800094    -0.226893007     0.196670913
   64    13.524439307     9.244478557     0.669824370     0.406361819    -0.211966732     0.199850385
   65    14.651385017     3.971102473     3.516776941     0.376425804    -0.267506600     0.191686809
   66    11.049694593     6.852849924     8.110132889     0.396398226    -0.231528438     0.198149006
   67    17.880678059     2.881753983     8.221928993     0.413377217    -0.221538876     0.173319944
   68    11.043718865     2.412240093     5.321296926     0.471163488    -0.150784169     0.072588578
   21    21.937581266     6.625550151     4.387799670    -0.412245187     0.204511209    -0.195522561
   22    29.269886936     2.009172605     6.427726391     0.457712792    -0.168181501     0.110516888
   23    29.153960518     9.536498317     7.292566022     0.408668880    -0.217674504     0.188699647
   24    24.100751092     4.424211965     8.120677442     0.417561774    -0.201829454     0.186834249
   25    25.379409902     0.668062247     1.405693513     0.402295151    -0.222830407     0.196227473
   26    21.938635859     1.250440130     7.942838721     0.104033159     0.382880938    -0.304268449
   27    20.603259036     3.250698608     3.231042146     0.417207108    -0.213710417     0.173971511
   28    27.596419754     5.689512354     1.500321010     0.423396265    -0.197997907     0.177573736
   29    28.309049575     8.342325257     5.579835836     0.400831981    -0.224510655     0.197303544
   30    27.079016305     9.255986637     2.276881110     0.413733880    -0.216894917     0.178271902
   31    25.591385366    10.219737330     9.291272326     0.407149296    -0.227433012     0.180287758
   32    27.718260255     0.870724567     8.520200828     0.405967532    -0.226948303     0.183534278
   33    20.781483586     8.245051154     5.922418213     0.408429561    -0.224856929     0.180622963
   34    30.378787558     3.229817115     8.640650688     0.483244574     0.105151334    -0.073606239
   35    27.751076769     7.831461381     0.816863187     0.416067969    -0.212637821     0.177967981
   36    27.264845138     2.818221257     6.150933894     0.449474382    -0.175216234     0.131423177
   37    27.770404499     5.431101141     8.087645153     0.410269026    -0.214297975     0.189091788
   38    25.855452689     6.348307912     4.786783900     0.426966886    -0.197008026     0.169962101
   39    28.041959389     6.043648626     4.212309890     0.434319939    -0.184540726     0.165260130
   40    22.808369821     9.062404373     6.759274791     0.407285497    -0.223308229     0.185072848
   41    26.307741865     2.254308937     4.200251904     0.448554004    -0.174326873     0.135681417
   42    20.591852144     8.695896404     3.649285954     0.418145339    -0.199179894     0.188366253
   43    24.129662871     7.280586898     5.793676965     0.423842880    -0.199900452     0.174347417
   44    29.070058080     4.279928286     5.077015799     0.436038970    -0.185124671     0.159996479
   45    24.409488889     9.796635736     5.252841050     0.412762325    -0.210253388     0.188204081
   46    27.501515300     1.475139377     2.552582395     0.446460061    -0.180865542     0.134018914
   47    26.925979330     2.044873116    10.117347125     0.413820948    -0.210194146     0.185931826
   48    30.130894436     3.701722983     1.038449216     0.407372720    -0.227949688     0.179126789
   49    23.370360874     5.553881591     2.128344044    -0.417760882     0.182526237    -0.205329048
   50    26.525120898     9.627967926     7.249397955     0.402151345    -0.217665419     0.202227745
   51    29.802091001     6.061580305     1.177782840     0.418523506    -0.196317592     0.190518971
   52    29.509543571     9.823962063     1.878961469     0.402129401    -0.212906497     0.207274621
   53    28.778770235     4.504123682     9.801974275     0.406871520    -0.224205190     0.184898889
   54    24.937882467     2.610832970    10.113392014     0.403738951    -0.243409941     0.166572687
   55    23.384105613    10.279142197     3.014798548     0.403789004    -0.221359074     0.194819406
   56    26.495247146     4.271763848     9.978851261     0.414203003    -0.211946937     0.183069298
   57    25.384913664     6.197931552     7.608619917     0.416540487    -0.207518190     0.182839339
   58    24.257874010     0.486063367     7.398949588     0.405243528    -0.225705494     0.186640598
   59    25.909604051     1.965093141     8.114063300     0.411612712    -0.218790360     0.180847322
   60    29.014909970     6.644408301     9.359684549     0.407597485    -0.218967647     0.189519022
   61    29.179787274     2.017904635    10.263094375     0.423031990    -0.205723837     0.169474595
   62    29.011556469     7.533815097     2.697256443     0.420602260    -0.198151521     0.183928557
   63    22.274135773     8.067446615     9.891092401     0.399802853    -0.226896800     0.196660928
   64    23.614095257     9.389138769     0.957911240     0.406358673    -0.211974602     0.199848435
   65    24.741040967     4.115762685     3.804863811     0.376409635    -0.267542177     0.191668908
   66    21.139350542     6.997510135     8.398219758     0.396401024    -0.231531558     0.198139763
   67    27.970334009     3.026414194     8.510015863     0.413372691    -0.221545609     0.173322132
   68    21.133374815     2.556900304     5.609383795     0.471172708    -0.150714787     0.072672778
   21    32.027237216     6.770210362     4.675886540    -0.412251042     0.204508397    -0.195513155
   22    39.359542886     2.153832817     6.715813260     0.457691226    -0.168342676     0.110360702
   23    39.243616468     9.681158529     7.580652891     0.408674552    -0.217663225     0.188700373
   24    34.190407042     4.568872177     8.408764312     0.417570771    -0.201832670     0.186810665
   25    35.469065852     0.812722459     1.693780383     0.402306240    -0.222826288     0.196209416
   26    32.028291809     1.395100342     8.230925590     0.103862952     0.383049590    -0.304114286
   27    30.692914986     3.395358819     3.519129016     0.417194290    -0.213722384     0.173987549
   28    37.686075704     5.834172566     1.788407880     0.423401607    -0.198008799     0.177548851
   29    38.398705525     8.486985469     5.867922706     0.400836450    -0.224502696     0.197303522
   30    37.168672255     9.400646849     2.564967980     0.413735849    -0.216902905     0.178257614
   31    35.681041316    10.364397541     9.579359195     0.407158509    -0.227416359     0.180287958
   32    37.807916205     1.015384778     8.808287698     0.405972467    -0.226965473     0.183502126
   33    30.871139536     8.389711366     6.210505082     0.408432707    -0.224856288     0.180616649
   34    40.468443507     3.374477327     8.928737557     0.483263670     0.104666075    -0.074170329
   35    37.840732719     7.976121592     1.104950057     0.416072178    -0.212646899     0.177947293
   36    37.354501087     2.962881468     6.439020764     0.449468366    -0.175308397     0.131320804
   37    37.860060449     5.575761353     8.375732023     0.410277766    -0.214291343     0.189080339
   38    35.945108638     6.492968124     5.074870769     0.426972123    -0.197015114     0.169940729
   39    38.131615339     6.188308837     4.500396760     0.434322751    -0.184554349     0.165237526
   40    32.898025771     9.207064585     7.047361661     0.407291523    -0.223306021     0.185062249
   41    36.397397814     2.398969149     4.488338774     0.448551569    -0.174397227     0.135599030
   42    30.681508094     8.840556615     3.937372824     0.418145504    -0.199181558     0.188364128
   43    34.219318821     7.425247109     6.081763835     0.423848410    -0.199905017     0.174328740
   44    39.159714029     4.424588498     5.365102668     0.436040678    -0.185143461     0.159970077
   45    34.499144839     9.941295948     5.540927920     0.412768421    -0.210249122     0.188195477
   46    37.591171250     1.619799589     2.840669265     0.446459468    -0.180918087     0.133949950
   47    37.015635280     2.189533328    10.405433994     0.413831160    -0.210204448     0.185897448
   48    40.220550386     3.846383195     1.326536086     0.407380107    -0.227969455     0.179084829
   49    33.460016823     5.698541802     2.416430913    -0.417821515     0.182474565    -0.205251588
   50    36.614776848     9.772628138     7.537484825     0.402162621    -0.217647693     0.202224401
   51    39.891746951     6.206240517     1.465869710     0.418527514    -0.196327646     0.190499805
   52    39.599199521     9.968622274     2.167048338     0.402132126    -0.212916407     0.207259153
   53    38.868426185     4.648783894    10.090061145     0.406880129    -0.224188701     0.184899939
   54    35.027538417     2.755493182    10.401478883     0.403746525    -0.243419752     0.166539989
   55    33.473761563    10.423802409     3.302885417     0.403791539    -0.221360592     0.194812426
   56    36.584903096     4.416424060    10.266938130     0.414212220    -0.211950573     0.183044233
   57    35.474569614     6.342591764     7.896706786     0.416548907    -0.207519930     0.182818179
   58    34.347529959     0.630723579     7.687036458     0.405250113    -0.225722236     0.186606051
   59    35.999260000     2.109753353     8.402150170     0.411617862    -0.218809951     0.180811895
   60    39.104565920     6.789068513     9.647771419     0.407606812    -0.218956225     0.189512159
   61    39.269443224     2.162564847    10.551181245     0.423044883    -0.205736849     0.169426609
   62    39.101212419     7.678475309     2.985343313     0.420604669    -0.198160210     0.183913686
   63    32.363791723     8.212106827    10.179179270     0.399809812    -0.226887765     0.196657204
   64    33.703751207     9.533798980     1.245998110     0.406359929    -0.211977344     0.199842972
   65    34.830696916     4.260422896     4.092950681     0.376579053    -0.267271333     0.191713983
   66    31.229006492     7.142170347     8.686306628     0.396406038    -0.231526643     0.198135475
   67    38.059989959     3.171074406     8.798102732     0.413378435    -0.221547747     0.173305700
   68    31.223030765     2.701560516     5.897470665     0.471184543    -0.150658645     0.072712439
   21     1.893344838    16.361323248     3.842251355    -0.412248707     0.204515114    -0.195511053
   22     9.225650508    11.744945703     5.882178075     0.457699773    -0.168248941     0.110468147
   23     9.109724090    19.272271415     6.747017706     0.408674950    -0.217672637     0.188688654
   24     4.056514663    14.159985063     7.575129127     0.417562131    -0.201836561     0.186825772
   25     5.335173473    10.403835345     0.860145198     0.402301316    -0.222820624     0.196225943
   26     1.894399430    10.986213228     7.397290405     0.103963778     0.382880763    -0.304292383
   27     0.559022608    12.986471705     2.685493830     0.417203903    -0.213726186     0.173959825
   28     7.552183325    15.425285452     0.954772694     0.423401758    -0.198008930     0.177548346
   29     8.264813147    18.078098355     5.034287521     0.400838055    -0.224508569     0.197293577
   30     7.034779876    18.991759735     1.731332795     0.413737365    -0.216901024     0.178256385
   31     5.547148938    19.955510427     8.745724010     0.407156924    -0.227429573     0.180274869
   32     7.674023826    10.606497664     7.974652512     0.405966995    -0.226950682     0.183532522
   33     0.737247158    17.980824252     5.376869897     0.408434718    -0.224856678     0.180611616
   34    10.334551129    12.965590213     8.095102372     0.483265022     0.104911197    -0.073814354
   35     7.706840341    17.567234479     0.271314871     0.416073363    -0.212644266     0.177947669
   36     7.220608709    12.553994354     5.605385579     0.449469002    -0.175254498     0.131390552
   37     7.726168070    15.166874239     7.542096838     0.410268466    -0.214299624     0.189091135
   38     5.811216260    16.084081010     4.241235584     0.426968598    -0.197017365     0.169946974
   39     7.997722960    15.779421724     3.666761575     0.434321541    -0.184553828     0.165241290
   40     2.764133393    18.798177471     6.213726475     0.407291254    -0.223308239     0.185060165
   41     6.263505436    11.990082035     3.654703588     0.448551281    -0.174351634     0.135658600
   42     0.547615716    18.431669501     3.103737638     0.418149087    -0.199182584     0.188355088
   43     4.085426443    17.016359995     5.248128649     0.423844837    -0.199908853     0.174333027
   44     9.025821651    14.015701384     4.531467483     0.436039290    -0.185141299     0.159976365
   45     4.365252461    19.532408834     4.707292735     0.412767581    -0.210254247     0.188191593
   46     7.457278871    11.210912475     2.007034079     0.446458847    -0.180880585     0.134002656
   47     6.881742901    11.780646214     9.571798809     0.413823895    -0.210194367     0.185925018
   48    10.086658007    13.437496081     0.492900900     0.407378157    -0.227974673     0.179082623
   49     3.326124445    15.289654688     1.582795728    -0.417791115     0.182574794    -0.205224338
   50     6.480884469    19.363741024     6.703849639     0.402161573    -0.217658572     0.202214776
   51     9.757854573    15.797353403     0.632234525     0.418528074    -0.196326647     0.190499605
   52     9.465307143    19.559735160     1.333413153     0.402131998    -0.212915289     0.207260550
   53     8.734533807    14.239896780     9.256425959     0.406870537    -0.224201477     0.184905554
   54     4.893646038    12.346606068     9.567843698     0.403738337    -0.243413273     0.166569305
   55     3.339869184    20.014915295     2.469250232     0.403793144    -0.221361677     0.194807866
   56     6.451010717    14.007536946     9.433302945     0.414203710    -0.211947753     0.183066754
   57     5.340677236    15.933704650     7.063071601     0.416541042    -0.207525186     0.182830134
   58     4.213637581    10.221836465     6.853401272     0.405244111    -0.225706483     0.186638137
   59     5.865367622    11.700866239     7.568514984     0.411612227    -0.218794468     0.180843456
   60     8.970673541    16.380181399     8.814136233     0.407596899    -0.218969737     0.189517867
   61     9.135550845    11.753677733     9.717546060     0.423035528    -0.205726989     0.169461938
   62     8.967320041    17.269588195     2.151708127     0.420604729    -0.198161287     0.183912387
   63     2.229899344    17.803219713     9.345544085     0.399810493    -0.226892694     0.196650133
   64     3.569858828    19.124911867     0.412362924     0.406363050    -0.211977833     0.199836107
   65     4.696804538    13.851535782     3.259315495     0.376648964    -0.267321829     0.191506129
   66     1.095114114    16.733283233     7.852671443     0.396408915    -0.231527719     0.198128461
   67     7.926097580    12.762187292     7.964467547     0.413372297    -0.221545582     0.173323107
   68     1.089138387    12.292673402     5.063835480     0.471167608    -0.150740765     0.072651958
   21    11.983000787    16.505983460     4.130338224    -0.412252059     0.204515168    -0.195503927
   22    19.315306458    11.889605915     6.170264945     0.457717584    -0.168177507     0.110503118
   23    19.199380039    19.416931626     7.035104576     0.408669204    -0.217676019     0.188697197
   24    14.146170613    14.304645274     7.863215996     0.417565013    -0.201832519     0.186823698
   25    15.424829423    10.548495557     1.148232067     0.402304779    -0.222814006     0.196226357
   26    11.984055380    11.130873440     7.685377275     0.103986536     0.382726049    -0.304479181
   27    10.648678557    13.131131917     2.973580700     0.417200255    -0.213724491     0.173970656
   28    17.641839275    15.569945664     1.242859564     0.423406697    -0.197996119     0.177550854
   29    18.354469096    18.222758567     5.322374390     0.400832628    -0.224510876     0.197301979
   30    17.124435826    19.136419947     2.019419664     0.413742697    -0.216889468     0.178258069
   31    15.636804888    20.100170639     9.033810880     0.407147557    -0.227430181     0.180295256
   32    17.763679776    10.751157876     8.262739382     0.405969012    -0.226948164     0.183531175
   33    10.826903108    18.125484464     5.664956767     0.408431898    -0.224862155     0.180611173
   34    20.424207079    13.110250425     8.383189242     0.483240169     0.105138961    -0.073652824
   35    17.796496290    17.711894690     0.559401741     0.416077921    -0.212633303     0.177950112
   36    17.310264659    12.698654566     5.893472448     0.449480476    -0.175209896     0.131410784
   37    17.815824020    15.311534451     7.830183707     0.410267364    -0.214304953     0.189087486
   38    15.900872210    16.228741222     4.529322454     0.426972455    -0.197007961     0.169948187
   39    18.087378910    15.924081935     3.954848444     0.434326517    -0.184539991     0.165243664
   40    12.853789342    18.942837683     6.501813345     0.407288163    -0.223310463     0.185064285
   41    16.353161386    12.134742247     3.942790458     0.448560790    -0.174317045     0.135671608
   42    10.637271665    18.576329713     3.391824508     0.418147438    -0.199188732     0.188352248
   43    14.175082393    17.161020207     5.536215519     0.423847518    -0.199901790     0.174334608
   44    19.115477601    14.160361596     4.819554353     0.436046034    -0.185123376     0.159978724
   45    14.454908411    19.677069046     4.995379604     0.412765804    -0.210251277     0.188198810
   46    17.546934821    11.355572686     2.295120949     0.446468015    -0.180851001     0.134012041
   47    16.971398851    11.925306426     9.859885678     0.413824122    -0.210195419     0.185923323
   48    20.176313957    13.582156293     0.780987770     0.407382971    -0.227963060     0.179086456
   49    13.415780395    15.434314900     1.870882598    -0.417825099     0.182605482    -0.205127826
   50    16.570540419    19.508401236     6.991936509     0.402150897    -0.217661607     0.202232739
   51    19.847510523    15.942013614     0.920321394     0.418531884    -0.196315474     0.190502747
   52    19.554963093    19.704395372     1.621500023     0.402138167    -0.212900666     0.207263604
   53    18.824189756    14.384556991     9.544512829     0.406869679    -0.224211034     0.184895852
   54    14.983301988    12.491266279     9.855930568     0.403738459    -0.243416463     0.166564349
   55    13.429525134    20.159575507     2.757337102     0.403796042    -0.221353386     0.194811281
   56    16.540666667    14.152197157     9.721389815     0.414204447    -0.211949466     0.183063104
   57    15.430333186    16.078364861     7.351158471     0.416543583    -0.207521439     0.182828598
   58    14.303293531    10.366496677     7.141488142     0.405245809    -0.225699359     0.186643065
   59    15.955023572    11.845526451     7.856601854     0.411614542    -0.218788734     0.180845125
   60    19.060329491    16.524841611     9.102223103     0.407593101    -0.218976955     0.189517696
   61    19.225206795    11.898337945    10.005632929     0.423035020    -0.205725949     0.169464467
   62    19.056975991    17.414248407     2.439794997     0.420608768    -0.198149681     0.183915655
   63    12.319555294    17.947879924     9.633630955     0.399800417    -0.226902098     0.196659768
   64    13.659514778    19.269572078     0.700449794     0.406365664    -0.211969721     0.199839396
   65    14.786460488    13.996195994     3.547402365     0.376253231    -0.267863732     0.191526833
   66    11.184770064    16.877943445     8.140758312     0.396400511    -0.231535440     0.198136253
   67    18.015753530    12.906847504     8.252554417     0.413373684    -0.221548016     0.173316686
   68    11.178794336    12.437333614     5.351922349     0.471163213    -0.150763267     0.072633765
   21    22.072656737    16.650643672     4.418425094    -0.412252310     0.204509353    -0.195509482
   22    29.404962407    12.034266126     6.458351814     0.457697012    -0.168259566     0.110463404
   23    29.289035989    19.561591838     7.323191445     0.408673870    -0.217668255     0.188696049
   24    24.235826563    14.449305486     8.151302866     0.417565653    -0.201833628     0.186821069
   25    25.514485373    10.693155768     1.436318937     0.402301046    -0.222821478     0.196225527
   26    22.073711330    11.275533651     7.973464144     0.103853894     0.383018320    -0.304156761
   27    20.738334507    13.275792129     3.261667569     0.417204850    -0.213723412     0.173960962
   28    27.731495225    15.714605876     1.530946434     0.423404101    -0.198007733     0.177544093
   29    28.444125046    18.367418778     5.610461260     0.400836651    -0.224506542     0.197298738
   30    27.214091776    19.281080158     2.307506534     0.413743054    -0.216894857     0.178250684
   31    25.726460837    20.244830851     9.321897749     0.407153997    -0.227419595     0.180294067
   32    27.853335726    10.895818088     8.550826252     0.405966753    -0.226959129     0.183522612
   33    20.916559057    18.270144675     5.953043636     0.408433458    -0.224858256     0.180612501
   34    30.513863029    13.254910636     8.671276111     0.483269929     0.104887830    -0.073815435
   35    27.886152240    17.856554902     0.847488611     0.416076088    -0.212642963     0.177942855
   36    27.399920609    12.843314778     6.181559318     0.449467433    -0.175259940     0.131388662
   37    27.905479970    15.456194662     8.118270577     0.410268731    -0.214301154     0.189088825
   38    25.990528160    16.373401433     4.817409323     0.426972629    -0.197009670     0.169945767
   39    28.177034860    16.068742147     4.242935314     0.434324291    -0.184546946     0.165241747
   40    22.943445292    19.087497894     6.789900215     0.407291609    -0.223304800     0.185063534
   41    26.442817336    12.279402459     4.230877327     0.448548360    -0.174358847     0.135658987
   42    20.726927615    18.720989925     3.679911378     0.418149003    -0.199182045     0.188355844
   43    24.264738342    17.305680419     5.824302389     0.423848268    -0.199900872     0.174333838
   44    29.205133551    14.305021807     5.107641222     0.436042182    -0.185133032     0.159978049
   45    24.544564360    19.821729257     5.283466474     0.412769567    -0.210245041     0.188197524
   46    27.636590771    11.500232898     2.583207819     0.446456428    -0.180886597     0.134002600
   47    27.061054801    12.069966637    10.147972548     0.413823698    -0.210203428     0.185915212
   48    30.265969907    13.726816504     1.069074640     0.407379167    -0.227974647     0.179080359
   49    23.505436345    15.578975112     2.158969467    -0.417789537     0.182584981    -0.205218487
   50    26.660196369    19.653061447     7.280023379     0.402157882    -0.217650620     0.202230675
   51    29.937166472    16.086673826     1.208408264     0.418530219    -0.196324579     0.190497022
   52    29.644619042    19.849055584     1.909586892     0.402137105    -0.212912249     0.207253765
   53    28.913845706    14.529217203     9.832599699     0.406871347    -0.224203807     0.184900946
   54    25.072957938    12.635926491    10.144017437     0.403740162    -0.243418890     0.166556674
   55    23.519181084    20.304235718     3.045423971     0.403799200    -0.221349528     0.194809119
   56    26.630322617    14.296857369    10.009476684     0.414204910    -0.211953458     0.183057433
   57    25.519989135    16.223025073     7.639245340     0.416544490    -0.207521096     0.182826920
   58    24.392949481    10.511156888     7.429575012     0.405244233    -0.225714924     0.186627663
   59    26.044679522    11.990186662     8.144688724     0.411612318    -0.218802262     0.180833819
   60    29.149985441    16.669501822     9.390309973     0.407596288    -0.218970051     0.189518819
   61    29.314862745    12.042998156    10.293719799     0.423035160    -0.205736327     0.169451518
   62    29.146631940    17.558908618     2.727881867     0.420607243    -0.198155960     0.183912377
   63    22.409211244    18.092540136     9.921717824     0.399802424    -0.226899537     0.196658642
   64    23.749170728    19.414232290     0.988536664     0.406368823    -0.211965336     0.199837623
   65    24.876116438    14.140856206     3.835489234     0.376203320    -0.267436285     0.192220956
   66    21.274426013    17.022603656     8.428845182     0.396399994    -0.231537238     0.198135187
   67    28.105409480    13.051507715     8.540641286     0.413372147    -0.221550791     0.173316806
   68    21.268450286    12.581993825     5.640009219     0.471188343    -0.150655778     0.072693757
   21    32.162312687    16.795303883     4.706511964    -0.412251615     0.204513019    -0.195507113
   22    39.494618357    12.178926338     6.746438684     0.457702654    -0.168235853     0.110476144
   23    39.378691939    19.706252050     7.611278315     0.408679746    -0.217650157     0.188704198
   24    34.325482513    14.593965698     8.439389735     0.417570257    -0.201829228     0.186815532
   25    35.604141323    10.837815980     1.724405806     0.402301001    -0.222828766     0.196217344
   26    32.163367280    11.420193863     8.261551014     0.103994178     0.382655249    -0.304565545
   27    30.827990457    13.420452340     3.549754439     0.417207843    -0.213702638     0.173979305
   28    37.821151175    15.859266087     1.819033303     0.423404219    -0.198007957     0.177543563
   29    38.533780996    18.512078990     5.898548129     0.400841593    -0.224488907     0.197308763
   30    37.303747726    19.425740370     2.595593404     0.413740380    -0.216895744     0.178255812
   31    35.816116787    20.389491062     9.609984619     0.407158980    -0.227410237     0.180294618
   32    37.942991676    11.040478299     8.838913121     0.405976000    -0.226944228     0.183520585
   33    31.006215007    18.414804887     6.241130506     0.408435060    -0.224857027     0.180610407
   34    40.603518978    13.399570848     8.959362981     0.483259626     0.104980285    -0.073751431
   35    37.975808190    18.001215114     1.135575480     0.416075202    -0.212643319     0.177944499
   36    37.489576558    12.987974989     6.469646188     0.449471474    -0.175247051     0.131392027
   37    37.995135920    15.600854874     8.406357446     0.410276172    -0.214293660     0.189081173
   38    36.080184109    16.518061645     5.105496193     0.426973625    -0.197011340     0.169941331
   39    38.266690810    16.213402359     4.531022183     0.434324781    -0.184549968     0.165237083
   40    33.033101242    19.232158106     7.077987084     0.407292954    -0.223304085     0.185061436
   41    36.532473285    12.424062670     4.518964197     0.448552378    -0.174349239     0.135658053
   42    30.816583565    18.865650136     3.967998247     0.418149024    -0.199184535     0.188353165
   43    34.354394292    17.450340630     6.112389258     0.423849437    -0.199902674     0.174328929
   44    39.294789500    14.449682019     5.395728092     0.436043045    -0.185136633     0.159971529
   45    34.634220310    19.966389469     5.571553343     0.412769190    -0.210247452     0.188195656
   46    37.726246721    11.644893110     2.871294688     0.446460206    -0.180880191     0.133998659
   47    37.150710751    12.214626849    10.436059418     0.413834199    -0.210188483     0.185908735
   48    40.355625857    13.871476716     1.357161509     0.407379446    -0.227978333     0.179075031
   49    33.595092294    15.723635323     2.447056337    -0.417800967     0.182550918    -0.205225520
   50    36.749852319    19.797721659     7.568110248     0.402161215    -0.217643033     0.202232213
   51    40.026822422    16.231334038     1.496495133     0.418530199    -0.196324480     0.190497169
   52    39.734274992    19.993715795     2.197673762     0.402135716    -0.212911310     0.207257424
   53    39.003501656    14.673877415    10.120686568     0.406880130    -0.224195166     0.184892095
   54    35.162613888    12.780586703    10.432104307     0.403753242    -0.243400659     0.166551609
   55    33.608837034    20.448895930     3.333510841     0.403793990    -0.221359934     0.194808094
   56    36.719978567    14.441517581    10.297563554     0.414214050    -0.211940474     0.183051786
   57    35.609645085    16.367685285     7.927332210     0.416548689    -0.207517621     0.182821298
   58    34.482605430    10.655817100     7.717661881     0.405251390    -0.225696390     0.186634538
   59    36.134335471    12.134846874     8.432775593     0.411620781    -0.218784825     0.180835651
   60    39.239641391    16.814162034     9.678396842     0.407604056    -0.218962178     0.189511208
   61    39.404518695    12.187658368    10.581806669     0.423045155    -0.205720296     0.169446028
   62    39.236287890    17.703568830     3.015968736     0.420607803    -0.198155694     0.183911383
   63    32.498867194    18.237200348    10.209804694     0.399807771    -0.226891730     0.196656779
   64    33.838826678    19.558892502     1.276623533     0.406363356    -0.211977437     0.199835904
   65    34.965772388    14.285516417     4.123576104     0.376397968    -0.267286059     0.192048776
   66    31.364081963    17.167263868     8.716932052     0.396404553    -0.231529242     0.198135410
   67    38.195065430    13.196167927     8.828728156     0.413380198    -0.221541081     0.173310014
   68    31.358106236    12.726654037     5.928096088     0.471159369    -0.150777900     0.072628329
   21     2.028420309    26.386416769     3.872876778    -0.412260776     0.204499543    -0.195501891
   22     9.360725979    21.770039224     5.912803499     0.457702971    -0.168262397     0.110434395
   23     9.244799561    29.297364936     6.777643130     0.408678130    -0.217663551     0.188692247
   24     4.191590134    24.185078584     7.605754550     0.417571500    -0.201825906     0.186816343
   25     5.470248944    20.428928866     0.890770621     0.402302214    -0.222825809     0.196218214
   26     2.029474901    21.011306749     7.427915829     0.103888779     0.383030369    -0.304129674
   27     0.694098079    23.011565226     2.716119254     0.417210850    -0.213711651     0.173961021
   28     7.687258796    25.450378973     0.985398118     0.423403429    -0.198000614     0.177553633
   29     8.399888618    28.103191876     5.064912944     0.400841986    -0.224499698     0.197295686
   30     7.169855347    29.016853256     1.761958218     0.413740558    -0.216891778     0.178260225
   31     5.682224409    29.980603948     8.776349434     0.407157489    -0.227412043     0.180295706
   32     7.809099297    20.631591185     8.005277936     0.405975016    -0.226953280     0.183511567
   33     0.872322629    28.005917773     5.407495321     0.408438951    -0.224853564     0.180605919
   34    10.469626600    22.990683734     8.125727796     0.483259342     0.104885037    -0.073888686
   35     7.841915812    27.592328000     0.301940295     0.416075839    -0.212636459     0.177951207
   36     7.355684180    22.579087875     5.636011002     0.449473334    -0.175260504     0.131367720
   37     7.861243541    25.191967760     7.572722261     0.410277306    -0.214289865     0.189083013
   38     5.946291731    26.109174531     4.271861008     0.426974743    -0.197004289     0.169946696
   39     8.132798432    25.804515245     3.697386998     0.434325844    -0.184542004     0.165243184
   40     2.899208864    28.823270992     6.244351899     0.407294989    -0.223302050     0.185059412
   41     6.398580907    22.015175556     3.685329012     0.448554113    -0.174359934     0.135638568
   42     0.682691187    28.456763022     3.134363062     0.418154736    -0.199177729     0.188347681
   43     4.220501914    27.041453516     5.278754073     0.423850772    -0.199896039     0.174333293
   44     9.160897122    24.040794905     4.562092906     0.436042997    -0.185131009     0.159978168
   45     4.500327932    29.557502355     4.737918158     0.412771032    -0.210242033     0.188197669
   46     7.592354342    21.236005996     2.037659503     0.446461166    -0.180888558     0.133984168
   47     7.016818372    21.805739735     9.602424232     0.413832396    -0.210194407     0.185906050
   48    10.221733479    23.462589602     0.523526324     0.407379206    -0.227967832     0.179088945
   49     3.461199916    25.314748209     1.613421152    -0.417907611     0.182492103    -0.205060628
   50     6.615959940    29.388834545     6.734475063     0.402161048    -0.217642481     0.202233137
   51     9.892930044    25.822446924     0.662859948     0.418530801    -0.196317484     0.190503056
   52     9.600382614    29.584828681     1.364038577     0.402135707    -0.212904601     0.207264334
   53     8.869609278    24.264990301     9.287051383     0.406879301    -0.224193694     0.184895704
   54     5.028721509    22.371699589     9.598469122     0.403750189    -0.243407658     0.166548783
   55     3.474944655    30.040008816     2.499875656     0.403796411    -0.221350506     0.194813788
   56     6.586086188    24.032630467     9.463928369     0.414213193    -0.211944027     0.183049611
   57     5.475752707    25.958798171     7.093697025     0.416549937    -0.207513162     0.182823516
   58     4.348713052    20.246929986     6.884026696     0.405251158    -0.225713018     0.186614932
   59     6.000443093    21.725959760     7.599140408     0.411619925    -0.218798007     0.180821651
   60     9.105749012    26.405274920     8.844761657     0.407603902    -0.218958595     0.189515679
   61     9.270626317    21.778771254     9.748171483     0.423043873    -0.205725867     0.169442465
   62     9.102395512    27.294681716     2.182333551     0.420608704    -0.198150124     0.183915325
   63     2.364974815    27.828313234     9.376169509     0.399811432    -0.226887554     0.196654156
   64     3.704934300    29.150005388     0.442988348     0.406365502    -0.211967035     0.199842576
   65     4.831880009    23.876629303     3.289940919     0.376412859    -0.267501764     0.191718977
   66     1.230189585    26.758376754     7.883296866     0.396410665    -0.231523472     0.198129923
   67     8.061173051    22.787280813     7.995092971     0.413380355    -0.221542303     0.173308079
   68     1.224213858    22.317766923     5.094460903     0.471185526    -0.150670689     0.072681107
   21    12.118076258    26.531076981     4.160963648    -0.412258128     0.204503603    -0.195503228
   22    19.450381929    21.914699436     6.200890368     0.457702154    -0.168268783     0.110428053
   23    19.334455510    29.442025147     7.065729999     0.408680807    -0.217658504     0.188692274
   24    14.281246084    24.329738795     7.893841420     0.417563539    -0.201833217     0.186826239
   25    15.559904894    20.573589078     1.178857491     0.402308101    -0.222814294     0.196219219
   26    12.119130851    21.155966961     7.716002698     0.104042999     0.382627118    -0.304584214
   27    10.783754028    23.156225438     3.004206123     0.417203833    -0.213701519     0.173990294
   28    17.776914746    25.595039185     1.273484988     0.423407693    -0.197998869     0.177545413
   29    18.489544567    28.247852088     5.352999814     0.400845108    -0.224494527     0.197295226
   30    17.259511297    29.161513468     2.050045088     0.413742691    -0.216894229     0.178252291
   31    15.771880359    30.125264160     9.064436303     0.407162259    -0.227405556     0.180293117
   32    17.898755247    20.776251397     8.293364805     0.405965372    -0.226957791     0.183527321
   33    10.961978579    28.150577985     5.695582190     0.408439571    -0.224849487     0.180609592
   34    20.559282550    23.135343946     8.413814665     0.483251645     0.104889583    -0.073932559
   35    17.931571761    27.736988211     0.590027165     0.416079024    -0.212636831     0.177943316
   36    17.445340130    22.723748087     5.924097872     0.449471993    -0.175264589     0.131366858
   37    17.950899491    25.336627972     7.860809131     0.410267919    -0.214298491     0.189093605
   38    16.035947681    26.253834743     4.559947877     0.426973695    -0.197006689     0.169946545
   39    18.222454381    25.949175456     3.985473868     0.434326254    -0.184543526     0.165240406
   40    12.988864813    28.967931204     6.532438768     0.407297762    -0.223297012     0.185059389
   41    16.488236857    22.159835768     3.973415881     0.448554258    -0.174360291     0.135637631
   42    10.772347136    28.601423234     3.422449932     0.418152459    -0.199177146     0.188353353
   43    14.310157864    27.186113728     5.566840943     0.423850038    -0.199897269     0.174333667
   44    19.250553072    24.185455117     4.850179776     0.436043743    -0.185131176     0.159975941
   45    14.589983882    29.702162567     5.026005028     0.412773068    -0.210239480     0.188196055
   46    17.682010292    21.380666207     2.325746373     0.446461713    -0.180886467     0.133985165
   47    17.106474322    21.950399947     9.890511102     0.413819686    -0.210207336     0.185919722
   48    20.311389428    23.607249814     0.811613194     0.407383637    -0.227965203     0.179082212
   49    13.550855866    25.459408421     1.901508021    -0.417840639     0.182538826    -0.205155497
   50    16.705615890    29.533494757     7.022561933     0.402165547    -0.217637682     0.202229354
   51    19.982585994    25.967107135     0.950946818     0.418534169    -0.196316347     0.190496827
   52    19.690038564    29.729488893     1.652125446     0.402137322    -0.212909427     0.207256242
   53    18.959265227    24.409650512     9.575138253     0.406868302    -0.224203104     0.184908499
   54    15.118377459    22.516359800     9.886555991     0.403734101    -0.243421909     0.166566953
   55    13.564600605    30.184669028     2.787962525     0.403798909    -0.221349948     0.194809243
   56    16.675742138    24.177290678     9.752015238     0.414201295    -0.211954584     0.183064311
   57    15.565408657    26.103458382     7.381783894     0.416542957    -0.207519855     0.182831821
   58    14.438369002    20.391590198     7.172113565     0.405243187    -0.225706276     0.186640393
   59    16.090099043    21.870619972     7.887227278     0.411611310    -0.218798316     0.180840887
   60    19.195404962    26.549935132     9.132848527     0.407595328    -0.218965524     0.189526114
   61    19.360282266    21.923431466    10.036258353     0.423031311    -0.205742286     0.169453892
   62    19.192051462    27.439341928     2.470420421     0.420610565    -0.198149542     0.183911694
   63    12.454630765    27.972973445     9.664256378     0.399814475    -0.226881472     0.196654987
   64    13.794590249    29.294665599     0.731075218     0.406368295    -0.211965977     0.199838018
   65    14.921535959    24.021289515     3.578027788     0.376410283    -0.267482439     0.191750994
   66    11.319845535    26.903036966     8.171383736     0.396412329    -0.231518689     0.198132183
   67    18.150829001    22.931941025     8.283179840     0.413369936    -0.221551203     0.173321553
   68    11.313869807    22.462427135     5.382547773     0.471164504    -0.150781268     0.072588013
   21    22.207732208    26.675737193     4.449050518    -0.412264545     0.204484769    -0.195509397
   22    29.540037878    22.059359647     6.488977238     0.457707736    -0.168249296     0.110434607
   23    29.424111460    29.586685359     7.353816869     0.408674001    -0.217656501     0.188709323
   24    24.370902034    24.474399007     8.181928289     0.417568284    -0.201823878     0.186825721
   25    25.649560844    20.718249289     1.466944360     0.402312473    -0.222813617     0.196211023
   26    22.208786801    21.300627172     8.004089568     0.103741191     0.382640790    -0.304669970
   27    20.873409978    23.300885650     3.292292993     0.417204944    -0.213698063     0.173991875
   28    27.866570696    25.739699397     1.561571857     0.423412646    -0.197988576     0.177545079
   29    28.579200517    28.392512299     5.641086683     0.400837536    -0.224494581     0.197310550
   30    27.349167247    29.306173679     2.338131958     0.413745108    -0.216884047     0.178259069
   31    25.861536308    30.269924372     9.352523173     0.407152338    -0.227414735     0.180303943
   32    27.988411197    20.920911609     8.581451675     0.405971273    -0.226948468     0.183525797
   33    21.051634528    28.295238196     5.983669060     0.408438271    -0.224848349     0.180613951
   34    30.648938500    23.280004157     8.701901535     0.483253903     0.104902412    -0.073899592
   35    28.021227711    27.881648423     0.878114034     0.416082477    -0.212627011     0.177946977
   36    27.534996080    22.868408299     6.212184742     0.449478157    -0.175248722     0.131366935
   37    28.040555441    25.481288183     8.148896000     0.410269980    -0.214294505     0.189093651
   38    26.125603631    26.398494954     4.848034747     0.426976298    -0.196999015     0.169948901
   39    28.312110331    26.093835668     4.273560737     0.434329738    -0.184534549     0.165241275
   40    23.078520763    29.112591416     6.820525638     0.407293803    -0.223298408     0.185066417
   41    26.577892807    22.304495980     4.261502751     0.448560405    -0.174346979     0.135634413
   42    20.862003086    28.746083446     3.710536801     0.418153836    -0.199174175     0.188353439
   43    24.399813813    27.330773940     5.854927812     0.423851814    -0.199891582     0.174335870
   44    29.340209022    24.330115329     5.138266646     0.436048131    -0.185120989     0.159975768
   45    24.679639831    29.846822778     5.314091897     0.412769876    -0.210240374     0.188202058
   46    27.771666242    21.525326419     2.613833242     0.446468401    -0.180875473     0.133977724
   47    27.196130272    22.095060158    10.178597972     0.413824350    -0.210197316     0.185920671
   48    30.401045378    23.751910026     1.099700063     0.407389874    -0.227955665     0.179080164
   49    23.640511816    25.604068633     2.189594891    -0.418018268     0.181834937    -0.205418557
   50    26.795271840    29.678154968     7.310648802     0.402155325    -0.217646491     0.202240203
   51    30.072241943    26.111767347     1.239033687     0.418537198    -0.196307870     0.190498908
   52    29.779694513    29.874149105     1.940212316     0.402139820    -0.212897837     0.207263300
   53    29.048921177    24.554310724     9.863225122     0.406871045    -0.224198398     0.184908171
   54    25.208033409    22.661020012    10.174642861     0.403742862    -0.243408023     0.166566010
   55    23.654256555    30.329329239     3.076049395     0.403797968    -0.221347640     0.194813818
   56    26.765398088    24.321950890    10.040102108     0.414206256    -0.211944604     0.183064639
   57    25.655064606    26.248118594     7.669870764     0.416547058    -0.207512039     0.182831348
   58    24.528024952    20.536250409     7.460200435     0.405250722    -0.225693856     0.186639052
   59    26.179754993    22.015280183     8.175314147     0.411617869    -0.218786403     0.180840370
   60    29.285060912    26.694595343     9.420935396     0.407596151    -0.218965427     0.189524456
   61    29.449938216    22.068091677    10.324345223     0.423034677    -0.205733266     0.169456442
   62    29.281707411    27.584002139     2.758507290     0.420613351    -0.198142366     0.183913054
   63    22.544286715    28.117633657     9.952343248     0.399804522    -0.226890535     0.196664763
   64    23.884246199    29.439325811     1.019162087     0.406367316    -0.211964100     0.199842000
   65    25.011191909    24.165949727     3.866114658     0.376371927    -0.267628665     0.191622207
   66    21.409501484    27.047697177     8.459470606     0.396402912    -0.231526831     0.198141510
   67    28.240484951    23.076601236     8.571266710     0.413374339    -0.221543554     0.173320828
   68    21.403525757    22.607087346     5.670634642     0.471163817    -0.150789758     0.072574836
   21    32.297388158    26.820397404     4.737137387    -0.412257036     0.204502083    -0.195507121
   22    39.629693828    22.204019859     6.777064107     0.457717786    -0.168184198     0.110492097
   23    39.513767410    29.731345571     7.641903738     0.408679588    -0.217673632     0.188677462
   24    34.460557984    24.619059219     8.470015159     0.417573685    -0.201819505     0.186818374
   25    35.739216794    20.862909501     1.755031230     0.402306163    -0.222820407     0.196216252
   26    32.298442751    21.445287384     8.292176437     0.103936630     0.382611455    -0.304640200
   27    30.963065928    23.445545861     3.580379863     0.417209305    -0.213692653     0.173988063
   28    37.956226646    25.884359608     1.849658727     0.423408601    -0.197995628     0.177546861
   29    38.668856467    28.537172511     5.929173553     0.400843271    -0.224507935     0.197283703
   30    37.438823197    29.450833891     2.626218827     0.413747527    -0.216887115     0.178249721
   31    35.951192258    30.414584583     9.640610042     0.407160690    -0.227425045     0.180272075
   32    38.078067147    21.065571820     8.869538545     0.405977205    -0.226937096     0.183526739
   33    31.141290478    28.439898408     6.271755930     0.408437863    -0.224849661     0.180613239
   34    40.738594449    23.424664369     8.989988404     0.483247581     0.105099750    -0.073660154
   35    38.110883661    28.026308635     1.166200904     0.416080806    -0.212632460     0.177944372
   36    37.624652029    23.013068510     6.500271611     0.449482276    -0.175211422     0.131402591
   37    38.130211391    25.625948395     8.436982870     0.410278851    -0.214288121     0.189081638
   38    36.215259580    26.543155166     5.136121616     0.426978828    -0.196998216     0.169943470
   39    38.401766281    26.238495880     4.561647607     0.434331456    -0.184532429     0.165239127
   40    33.168176713    29.257251627     7.108612508     0.407295802    -0.223300830     0.185059096
   41    36.667548756    22.449156191     4.549589621     0.448562256    -0.174318753     0.135664569
   42    30.951659036    28.890743657     3.998623671     0.418153375    -0.199173092     0.188355608
   43    34.489469763    27.475434151     6.143014682     0.423854238    -0.199891333     0.174330262
   44    39.429864971    24.474775540     5.426353515     0.436050411    -0.185116756     0.159974452
   45    34.769295781    29.991482990     5.602178767     0.412774679    -0.210242692     0.188188933
   46    37.861322192    21.669986631     2.901920112     0.446468897    -0.180854406     0.134004507
   47    37.285786222    22.239720370    10.466684841     0.413832194    -0.210183007     0.185919387
   48    40.490701328    23.896570237     1.387786933     0.407383773    -0.227962747     0.179085029
   49    33.730167765    25.748728844     2.477681760    -0.417798742     0.182590481    -0.205194852
   50    36.884927790    29.822815180     7.598735672     0.402164880    -0.217656275     0.202210670
   51    40.161897893    26.256427559     1.527120557     0.418534901    -0.196313974     0.190497664
   52    39.869350463    30.018809316     2.228299185     0.402143897    -0.212897159     0.207256088
   53    39.138577127    24.698970936    10.151311992     0.406881582    -0.224193126     0.184891376
   54    35.297689359    22.805680224    10.462729730     0.403749798    -0.243398107     0.166563688
   55    33.743912505    30.473989451     3.364136264     0.403805141    -0.221343709     0.194803414
   56    36.855054038    24.466611102    10.328188977     0.414214289    -0.211934130     0.183058589
   57    35.744720556    26.392778806     7.957957633     0.416552346    -0.207507961     0.182823928
   58    34.617680902    20.680910621     7.748287305     0.405252688    -0.225689192     0.186640423
   59    36.269410942    22.159940395     8.463401017     0.411622040    -0.218777347     0.180841833
   60    39.374716862    26.839255555     9.709022266     0.407606097    -0.218959237     0.189510216
   61    39.539594166    22.212751889    10.612432092     0.423043146    -0.205711870     0.169461273
   62    39.371363361    27.728662351     3.046594160     0.420612810    -0.198146511     0.183909828
   63    32.633942665    28.262293869    10.240430118     0.399807044    -0.226893008     0.196656784
   64    33.973902149    29.583986023     1.307248957     0.406375077    -0.211958527     0.199832130
   65    35.100847859    24.310609938     4.154201528     0.376355272    -0.267545511     0.191770981
   66    31.499157434    27.192357389     8.747557475     0.396404107    -0.231528837     0.198136774
   67    38.330140901    23.221261448     8.859353579     0.413382839    -0.221534503     0.173312125
   68    31.493181707    22.751747558     5.958721512     0.471169129    -0.150767277     0.072587050
   21     2.163495780    36.411510290     3.903502202    -0.412244585     0.204524511    -0.195509914
   22     9.495801450    31.795132745     5.943428922     0.457706005    -0.168268961     0.110411819
   23     9.379875032    39.322458457     6.808268553     0.408666693    -0.217667410     0.188712566
   24     4.326665605    34.210172105     7.636379974     0.417565043    -0.201826447     0.186830192
   25     5.605324415    30.454022387     0.921396045     0.402304599    -0.222816594     0.196223788
   26     2.164550372    31.036400270     7.458541252     0.103951189     0.382419140    -0.304876618
   27     0.829173550    33.036658747     2.746744677     0.417206639    -0.213704953     0.173979349
   28     7.822334267    35.475472494     1.016023542     0.423401267    -0.198002365     0.177556837
   29     8.534964089    38.128285397     5.095538368     0.400828033    -0.224505522     0.197317406
   30     7.304930818    39.041946777     1.792583642     0.413735679    -0.216894135     0.178268679
   31     5.817299880    40.005697469     8.806974857     0.407147459    -0.227415925     0.180313460
   32     7.944174769    30.656684706     8.035903359     0.405974981    -0.226941189     0.183526597
   33     1.007398100    38.031011294     5.438120744     0.408430826    -0.224866358     0.180608364
   34    10.604702071    33.015777255     8.156353219     0.483248491     0.104848233    -0.074011785
   35     7.976991283    37.617421521     0.332565719     0.416071794    -0.212639266     0.177957312
   36     7.490759651    32.604181396     5.666636426     0.449475634    -0.175260781     0.131359480
   37     7.996319012    35.217061281     7.603347685     0.410268182    -0.214293451     0.189098744
   38     6.081367202    36.134268052     4.302486431     0.426969154    -0.197009389     0.169954823
   39     8.267873903    35.829608766     3.728012422     0.434321447    -0.184545754     0.165250553
   40     3.034284335    38.848364513     6.274977322     0.407286916    -0.223310606     0.185066855
   41     6.533656378    32.040269077     3.715954435     0.448557398    -0.174356968     0.135631516
   42     0.817766658    38.481856543     3.164988486     0.418147657    -0.199196579     0.188343464
   43     4.355577385    37.066547037     5.309379497     0.423844538    -0.199901868     0.174341765
   44     9.295972593    34.065888426     4.592718330     0.436040310    -0.185132147     0.159984175
   45     4.635403403    39.582595876     4.768543582     0.412763793    -0.210248434     0.188206396
   46     7.727429813    31.261099517     2.068284927     0.446463969    -0.180884487     0.133980323
   47     7.151893843    31.830833256     9.633049656     0.413828885    -0.210188651     0.185920373
   48    10.356808950    33.487683123     0.554151748     0.407379931    -0.227967853     0.179087269
   49     3.596275387    35.339841730     1.644046575    -0.417592708     0.182765331    -0.205458423
   50     6.751035411    39.413928066     6.765100486     0.402150942    -0.217646561     0.202248842
   51    10.028005515    35.847540445     0.693485372     0.418526298    -0.196320917     0.190509410
   52     9.735458085    39.609922202     1.394664000     0.402129783    -0.212908517     0.207271806
   53     9.004684749    34.290083822     9.317676806     0.406871416    -0.224192278     0.184914774
   54     5.163796980    32.396793110     9.629094545     0.403746093    -0.243404361     0.166563531
   55     3.610020126    40.065102337     2.530501079     0.403792260    -0.221353849     0.194818593
   56     6.721161659    34.057723988     9.494553792     0.414208652    -0.211939041     0.183065658
   57     5.610828178    35.983891692     7.124322448     0.416542994    -0.207515835     0.182836299
   58     4.483788523    30.272023507     6.914652119     0.405252047    -0.225686335     0.186645270
   59     6.135518564    31.751053281     7.629765832     0.411619613    -0.218780886     0.180843077
   60     9.240824483    36.430368441     8.875387081     0.407595197    -0.218963893     0.189528281
   61     9.405701788    31.803864775     9.778796907     0.423040184    -0.205723223     0.169454886
   62     9.237470983    37.319775237     2.212958975     0.420602883    -0.198153904     0.183924563
   63     2.500050287    37.853406755     9.406794932     0.399804783    -0.226894349     0.196659833
   64     3.840009771    39.175098909     0.473613771     0.406362688    -0.211969873     0.199845286
   65     4.966955480    33.901722824     3.320566342     0.376655938    -0.267289793     0.191537126
   66     1.365265056    36.783470275     7.913922290     0.396404838    -0.231530932     0.198132863
   67     8.196248522    32.812374334     8.025718394     0.413376286    -0.221537548     0.173323860
   68     1.359289329    32.342860444     5.125086327     0.471163162    -0.150824757     0.072506329
   21    12.253151729    36.556170502     4.191589072    -0.412241424     0.204517436    -0.195523981
   22    19.585457400    31.939792957     6.231515792     0.457709567    -0.168265427     0.110402437
   23    19.469530981    39.467118668     7.096355423     0.408675288    -0.217654459     0.188708890
   24    14.416321555    34.354832316     7.924466843     0.417571875    -0.201818103     0.186823935
   25    15.694980365    30.598682599     1.209482914     0.402306444    -0.222822230     0.196213606
   26    12.254206322    31.181060482     7.746628122     0.103883722     0.382451907    -0.304858510
   27    10.918829499    33.181318959     3.034831547     0.417199951    -0.213695607     0.174006863
   28    17.911990217    35.620132706     1.304110411     0.423404117    -0.198002384     0.177550019
   29    18.624620038    38.272945609     5.383625237     0.400839049    -0.224493512     0.197308692
   30    17.394586768    39.186606989     2.080670512     0.413738947    -0.216893353     0.178262047
   31    15.906955830    40.150357681     9.095061727     0.407155642    -0.227409789     0.180302720
   32    18.033830718    30.801344918     8.323990229     0.405979517    -0.226935277     0.183523872
   33    11.097054050    38.175671506     5.726207614     0.408429735    -0.224855855     0.180623909
   34    20.694358021    33.160437467     8.444440089     0.483245694     0.104858289    -0.074015801
   35    18.066647233    37.762081732     0.620652588     0.416074727    -0.212639184     0.177950552
   36    17.580415601    32.748841608     5.954723296     0.449478899    -0.175259071     0.131350591
   37    18.085974962    35.361721493     7.891434554     0.410276274    -0.214283701     0.189092238
   38    16.171023152    36.278928264     4.590573301     0.426974759    -0.197000562     0.169950976
   39    18.357529852    35.974268977     4.016099291     0.434326632    -0.184539381     0.165244042
   40    13.123940284    38.993024725     6.563064192     0.407289873    -0.223300707     0.185072293
   41    16.623312328    32.184929289     4.004041305     0.448559282    -0.174359134     0.135622501
   42    10.907422607    38.626516755     3.453075355     0.418143015    -0.199184086     0.188366981
   43    14.445233335    37.211207249     5.597466366     0.423849819    -0.199893234     0.174338825
   44    19.385628543    34.210548638     4.880805200     0.436045365    -0.185125586     0.159977990
   45    14.725059353    39.727256088     5.056630451     0.412767354    -0.210240805     0.188207109
   46    17.817085763    31.405759728     2.356371796     0.446465931    -0.180886922     0.133970497
   47    17.241549793    31.975493468     9.921136526     0.413834930    -0.210180974     0.185915598
   48    20.446464899    33.632343335     0.842238617     0.407382918    -0.227965517     0.179083448
   49    13.685931337    35.484501942     1.932133445    -0.417569636     0.182992492    -0.205303063
   50    16.840691361    39.558588278     7.053187356     0.402158538    -0.217642165     0.202238469
   51    20.117661465    35.992200656     0.981572241     0.418530291    -0.196318663     0.190502961
   52    19.825114035    39.754582414     1.682750870     0.402135285    -0.212905853     0.207263865
   53    19.094340698    34.434744033     9.605763676     0.406879181    -0.224183228     0.184908660
   54    15.253452930    32.541453321     9.917181415     0.403751797    -0.243397130     0.166560270
   55    13.699676076    40.209762549     2.818587949     0.403793601    -0.221348844     0.194821501
   56    16.810817609    34.202384199     9.782640662     0.414214670    -0.211930906     0.183061461
   57    15.700484128    36.128551903     7.412409318     0.416550074    -0.207506954     0.182830249
   58    14.573444473    30.416683719     7.202738989     0.405256838    -0.225679871     0.186642683
   59    16.225174514    31.895713493     7.917852701     0.411624584    -0.218774128     0.180839937
   60    19.330480433    36.575028653     9.163473950     0.407602140    -0.218954603     0.189524080
   61    19.495357737    31.948524987    10.066883776     0.423046739    -0.205714444     0.169449177
   62    19.327126933    37.464435449     2.501045844     0.420608072    -0.198149984     0.183916921
   63    12.589706236    37.998066966     9.694881802     0.399804321    -0.226887954     0.196668150
   64    13.929665720    39.319759120     0.761700641     0.406362610    -0.211965564     0.199850015
   65    15.056611430    34.046383036     3.608653212     0.376150226    -0.267847135     0.191752235
   66    11.454921006    36.928130487     8.202009160     0.396401771    -0.231525206     0.198145690
   67    18.285904472    32.957034546     8.313805264     0.413382287    -0.221530412     0.173318669
   68    11.448945278    32.487520656     5.413173196     0.471166545    -0.150795292     0.072545616
   21    22.342807679    36.700830714     4.479675941    -0.412251355     0.204503039    -0.195518099
   22    29.675113349    32.084453168     6.519602661     0.457708709    -0.168199913     0.110505778
   23    29.559186931    39.611778880     7.384442292     0.408671476    -0.217657578     0.188713549
   24    24.505977505    34.499492528     8.212553713     0.417561662    -0.201831780     0.186831986
   25    25.784636315    30.743342810     1.497569784     0.402309082    -0.222811230     0.196220688
   26    22.343862272    31.325720693     8.034714991     0.103994129     0.382484872    -0.304779501
   27    21.008485449    33.325979171     3.322918417     0.417207196    -0.213682650     0.174005404
   28    28.001646167    35.764792918     1.592197281     0.423402964    -0.198003925     0.177551051
   29    28.714275988    38.417605820     5.671712107     0.400833510    -0.224494599     0.197318708
   30    27.484242718    39.331267200     2.368757381     0.413734607    -0.216898929     0.178265336
   31    25.996611779    40.295017893     9.383148596     0.407148962    -0.227423411     0.180300623
   32    28.123486668    30.946005130     8.612077099     0.405970010    -0.226943627     0.183534579
   33    21.186710000    38.320331717     6.014294484     0.408432553    -0.224851324     0.180623177
   34    30.784013971    33.305097678     8.732526958     0.483249378     0.105101211    -0.073646277
   35    28.156303182    37.906741944     0.908739458     0.416072973    -0.212642151     0.177951107
   36    27.670071551    32.893501820     6.242810165     0.449472940    -0.175228589     0.131411634
   37    28.175630912    35.506381704     8.179521424     0.410265685    -0.214300178     0.189096541
   38    26.260679102    36.423588475     4.878660170     0.426967254    -0.197014891     0.169953218
   39    28.447185802    36.118929189     4.304186161     0.434321239    -0.184551267     0.165244942
   40    23.213596234    39.137684937     6.851151062     0.407286697    -0.223304379     0.185074852
   41    26.712968278    32.329589501     4.292128175     0.448553755    -0.174334219     0.135672802
   42    20.997078557    38.771176967     3.741162225     0.418148562    -0.199177484     0.188361647
   43    24.534889284    37.355867461     5.885553236     0.423842722    -0.199906119     0.174341306
   44    29.475284493    34.355208850     5.168892069     0.436039856    -0.185137925     0.159978726
   45    24.814715302    39.871916299     5.344717321     0.412762249    -0.210251597     0.188206247
   46    27.906741713    31.550419940     2.644458666     0.446461968    -0.180865660     0.134012402
   47    27.331205743    32.120153679    10.209223395     0.413823594    -0.210192814     0.185927443
   48    30.536120849    33.777003547     1.130325487     0.407380697    -0.227969908     0.179082911
   49    23.775587287    35.629162154     2.220220314    -0.417810117     0.182427979    -0.205316191
   50    26.930347311    39.703248490     7.341274226     0.402152690    -0.217654124     0.202237228
   51    30.207317415    36.136860868     1.269659111     0.418528198    -0.196322909     0.190503184
   52    29.914769984    39.899242626     1.970837739     0.402128860    -0.212916336     0.207265564
   53    29.183996648    34.579404245     9.893850546     0.406868737    -0.224205201     0.184904999
   54    25.343108880    32.686113533    10.205268284     0.403741476    -0.243406805     0.166571150
   55    23.789332026    40.354422760     3.106674818     0.403787084    -0.221362457     0.194819540
   56    26.900473559    34.347044411    10.070727531     0.414204121    -0.211944921     0.183069103
   57    25.790140077    36.273212115     7.700496187     0.416539822    -0.207521682     0.182836889
   58    24.663100423    30.561343930     7.490825859     0.405248289    -0.225688093     0.186651303
   59    26.314830464    32.040373704     8.205939571     0.411615325    -0.218781743     0.180851798
   60    29.420136383    36.719688864     9.451560820     0.407592898    -0.218969768     0.189526438
   61    29.585013687    32.093185198    10.354970646     0.423034057    -0.205724367     0.169468791
   62    29.416782882    37.609095660     2.789132714     0.420604074    -0.198156247     0.183919316
   63    22.679362186    38.142727178     9.982968672     0.399804231    -0.226886971     0.196669466
   64    24.019321670    39.464419332     1.049787511     0.406356656    -0.211979193     0.199847668
   65    25.146267380    34.191043248     3.896740082     0.376377216    -0.267569656     0.191694211
   66    21.544576955    37.072790698     8.490096029     0.396404343    -0.231521438     0.198144948
   67    28.375560422    33.101694757     8.601892133     0.413372062    -0.221546752     0.173322171
   68    21.538601228    32.632180867     5.701260066     0.471169873    -0.150790303     0.072534376
   21    32.432463629    36.845490925     4.767762811    -0.412252065     0.204511018    -0.195508257
   22    39.764769299    32.229113380     6.807689531     0.457705828    -0.168291009     0.110378943
   23    39.648842881    39.756439092     7.672529162     0.408671407    -0.217694477     0.188671131
   24    34.595633455    34.644152740     8.500640582     0.417571294    -0.201835561     0.186806373
   25    35.874292265    30.888003022     1.785656654     0.402316244    -0.222809947     0.196207460
   26    32.433518222    31.470380905     8.322801861     0.103819569     0.382992002    -0.304201616
   27    31.098141399    33.470639382     3.611005286     0.417198679    -0.213740334     0.173954972
   28    38.091302117    35.909453129     1.880284150     0.423409887    -0.198005454     0.177532836
   29    38.803931938    38.562266032     5.959798976     0.400834727    -0.224532234     0.197273407
   30    37.573898668    39.475927412     2.656844251     0.413742431    -0.216904116     0.178240863
   31    36.086267729    40.439678104     9.671235466     0.407154811    -0.227439773     0.180266772
   32    38.213142618    31.090665341     8.900163968     0.405978499    -0.226952098     0.183505322
   33    31.276365949    38.464991929     6.302381353     0.408432606    -0.224860347     0.180611823
   34    40.873669920    33.449757890     9.020613828     0.483249846     0.104799634    -0.074071740
   35    38.245959132    38.051402156     1.196826327     0.416079493    -0.212644255     0.177933348
   36    37.759727501    33.038162031     6.530897035     0.449478317    -0.175276169     0.131329765
   37    38.265286862    35.651041916     8.467608294     0.410275713    -0.214298156     0.189077074
   38    36.350335051    36.568248687     5.166747040     0.426975694    -0.197017456     0.169929040
   39    38.536841752    36.263589401     4.592273030     0.434327931    -0.184555176     0.165222987
   40    33.303252184    39.282345148     7.139237931     0.407290474    -0.223314013     0.185054915
   41    36.802624227    32.474249712     4.580215044     0.448561153    -0.174367612     0.135605413
   42    31.086734507    38.915837178     4.029249094     0.418146379    -0.199184002     0.188359601
   43    34.624545234    37.500527672     6.173640105     0.423851271    -0.199909124     0.174317074
   44    39.564940442    34.499869061     5.456978939     0.436046165    -0.185143476     0.159955104
   45    34.904371252    40.016576511     5.632804190     0.412768988    -0.210259609     0.188182516
   46    37.996397663    31.695080152     2.932545535     0.446468272    -0.180891764     0.133956158
   47    37.420861693    32.264813891    10.497310265     0.413834913    -0.210196905     0.185897622
   48    40.625776799    33.921663758     1.418412356     0.407389778    -0.227964929     0.179068591
   49    33.865243236    35.773822365     2.508307184    -0.417815524     0.182529580    -0.205214864
   50    37.020003261    39.847908701     7.629361095     0.402159173    -0.217671426     0.202205712
   51    40.296973364    36.281521080     1.557745980     0.418534314    -0.196326297     0.190486255
   52    40.004425934    40.043902837     2.258924609     0.402137333    -0.212918338     0.207247067
   53    39.273652598    34.724064457    10.181937415     0.406878895    -0.224195697     0.184894170
   54    35.432764830    32.830773745    10.493355154     0.403750761    -0.243411317     0.166542048
   55    33.878987976    40.499082972     3.394761688     0.403794863    -0.221365086     0.194800430
   56    36.990129509    34.491704623    10.358814401     0.414214206    -0.211946848     0.183044053
   57    35.879796027    36.417872327     7.988583057     0.416549524    -0.207523771     0.182812414
   58    34.752756373    30.706004142     7.778912728     0.405256336    -0.225705562     0.186612704
   59    36.404486414    32.185033916     8.494026440     0.411624088    -0.218794729     0.180816141
   60    39.509792333    36.864349076     9.739647689     0.407602271    -0.218966320     0.189510262
   61    39.674669637    32.237845410    10.643057516     0.423047292    -0.205730718     0.169428038
   62    39.506438832    37.753755872     3.077219583     0.420609286    -0.198164933     0.183898038
   63    32.769018136    38.287387390    10.271055541     0.399803952    -0.226898061     0.196657239
   64    34.108977620    39.609079544     1.337874380     0.406364330    -0.211980307     0.199830881
   65    35.235923330    34.335703459     4.184826951     0.376438976    -0.267452772     0.191736048
   66    31.634232905    37.217450910     8.778182899     0.396400446    -0.231533989     0.198138079
   67    38.465216372    33.246354969     8.889979003     0.413380690    -0.221545274     0.173303481
   68    31.628257178    32.776841079     5.989346936     0.471178346    -0.150684430     0.072699165
   21     2.045140537     6.368365464    13.823611293    -0.412261130     0.204492937    -0.195508054
   22     9.377446208     1.751987918    15.863538013     0.457680161    -0.168346096     0.110401369
   23     9.261519789     9.279313630    16.728377644     0.408675948    -0.217658765     0.188702495
   24     4.208310363     4.167027278    17.556489065     0.417558135    -0.201836446     0.186834829
   25     5.486969173     0.410877561    10.841505136     0.402297076    -0.222819528     0.196235880
   26     2.046195130     0.993255443    17.378650343     0.103930346     0.382665603    -0.304574325
   27     0.710818307     2.993513921    12.666853769     0.417212695    -0.213693341     0.173979087
   28     7.703979025     5.432327668    10.936132633     0.423395982    -0.198003919     0.177567706
   29     8.416608846     8.085140570    15.015647459     0.400837211    -0.224496129     0.197309448
   30     7.186575576     8.998801951    11.712692733     0.413733783    -0.216895301     0.178271661
   31     5.698944638     9.962552643    18.727083948     0.407159445    -0.227410546     0.180293179
   32     7.825819526     0.613539880    17.956012451     0.405959636    -0.226963474     0.183532981
   33     0.889042858     7.987866467    15.358229835     0.408441781    -0.224849975     0.180603987
   34    10.486346829     2.972632428    18.076462310     0.483277803     0.104638834    -0.074116662
   35     7.858636041     7.574276694    10.252674810     0.416068470    -0.212640490     0.177963621
   36     7.372404409     2.561036570    15.586745517     0.449456457    -0.175311080     0.131357977
   37     7.877963770     5.173916455    17.523456776     0.410263295    -0.214300178     0.189101725
   38     5.963011960     6.091123225    14.222595522     0.426965988    -0.197013858     0.169957597
   39     8.149518660     5.786463939    13.648121513     0.434316390    -0.184552832     0.165255941
   40     2.915929093     8.805219687    16.195086414     0.407295945    -0.223300197     0.185059544
   41     6.415301136     1.997124251    13.636063527     0.448539723    -0.174398773     0.135636223
   42     0.699411415     8.438711717    13.085097577     0.418156852    -0.199175482     0.188345360
   43     4.237222143     7.023402211    15.229488588     0.423844079    -0.199902858     0.174341746
   44     9.177617351     4.022743600    14.512827421     0.436032274    -0.185143233     0.159993246
   45     4.517048161     9.539451049    14.688652673     0.412770740    -0.210241536     0.188198865
   46     7.609074571     1.217954690    11.988394018     0.446448109    -0.180917955     0.133987982
   47     7.033538601     1.787688429    19.553158747     0.413817348    -0.210208421     0.185923701
   48    10.238453707     3.444538297    10.474260839     0.407370235    -0.227969976     0.179106621
   49     3.477920145     5.296696904    11.564155666    -0.417849884     0.182279385    -0.205367233
   50     6.632680169     9.370783240    16.685209578     0.402162270    -0.217643223     0.202229909
   51     9.909650273     5.804395618    10.613594463     0.418522440    -0.196321907     0.190516865
   52     9.617102843     9.566777376    11.314773091     0.402126564    -0.212910552     0.207275960
   53     8.886329506     4.246938995    19.237785898     0.406864772    -0.224197444     0.184923129
   54     5.045441738     2.353648283    19.549203636     0.403728849    -0.243425500     0.166574435
   55     3.491664884    10.021957510    12.450610170     0.403796772    -0.221348196     0.194815665
   56     6.602806417     4.014579161    19.414662883     0.414197436    -0.211955090     0.183072455
   57     5.492472936     5.940746865    17.044431539     0.416537426    -0.207523997     0.182839721
   58     4.365433281     0.228878680    16.834761211     0.405238943    -0.225710576     0.186644409
   59     6.017163322     1.707908454    17.549874923     0.411605872    -0.218804225     0.180846113
   60     9.122469241     6.387223614    18.795496172     0.407592922    -0.218967335     0.189529197
   61     9.287346545     1.760719949    19.698905998     0.423031023    -0.205744613     0.169451785
   62     9.119115741     7.276630410    12.133068066     0.420599858    -0.198155663     0.183929585
   63     2.381695044     7.810261928    19.326904024     0.399812859    -0.226891108     0.196647153
   64     3.721654528     9.131954082    10.393722863     0.406365977    -0.211964291     0.199844520
   65     4.848600238     3.858577998    13.240675434     0.376321766    -0.267360537     0.192094435
   66     1.246909814     6.740325449    17.834031381     0.396411493    -0.231528803     0.198122036
   67     8.077893280     2.769229508    17.945827485     0.413364915    -0.221552461     0.173331919
   68     1.240934086     2.299715618    15.045195418     0.471164454    -0.150800311     0.072548763
   21    12.134796487     6.513025675    14.111698163    -0.412248147     0.204506200    -0.195521558
   22    19.467102157     1.896648130    16.151624883     0.457708413    -0.168251220     0.110428871
   23    19.351175739     9.423973842    17.016464514     0.408669165    -0.217673017     0.188700746
   24    14.297966313     4.311687490    17.844575934     0.417565050    -0.201829632     0.186826735
   25    15.576625123     0.555537772    11.129592005     0.402305448    -0.222811003     0.196228397
   26    12.135851080     1.137915655    17.666737213     0.104031764     0.382228827    -0.305087718
   27    10.800474257     3.138174132    12.954940638     0.417196992    -0.213680830     0.174032102
   28    17.793634975     5.576987879    11.224219502     0.423402613    -0.198004878     0.177550826
   29    18.506264796     8.229800782    15.303734328     0.400831286    -0.224510481     0.197305156
   30    17.276231526     9.143462162    12.000779603     0.413735949    -0.216897763     0.178263639
   31    15.788600587    10.107212855    19.015170818     0.407151145    -0.227426096     0.180292306
   32    17.915475476     0.758200091    18.244099320     0.405968291    -0.226950932     0.183529347
   33    10.978698808     8.132526679    15.646316705     0.408429095    -0.224858532     0.180622021
   34    20.576002779     3.117292640    18.364549180     0.483242583     0.104925777    -0.073940432
   35    17.948291990     7.718936906    10.540761679     0.416071964    -0.212642068     0.177953567
   36    17.462060359     2.705696781    15.874832387     0.449475629    -0.175252453     0.131370607
   37    17.967619720     5.318576666    17.811543646     0.410270820    -0.214297375     0.189088576
   38    16.052667910     6.235783437    14.510682392     0.426969363    -0.197010916     0.169952528
   39    18.239174610     5.931124151    13.936208382     0.434321408    -0.184548675     0.165247393
   40    13.005585042     8.949879898    16.483173283     0.407286311    -0.223309465     0.185069564
   41    16.504957086     2.141784462    13.924150396     0.448556847    -0.174349371     0.135643105
   42    10.789067365     8.583371928    13.373184446     0.418143106    -0.199183127     0.188367791
   43    14.326878093     7.168062422    15.517575457     0.423844963    -0.199902995     0.174339437
   44    19.267273301     4.167403811    14.800914291     0.436039281    -0.185136432     0.159982021
   45    14.606704110     9.684111261    14.976739542     0.412763112    -0.210252612     0.188203221
   46    17.698730521     1.362614902    12.276480887     0.446463917    -0.180877084     0.133990488
   47    17.123194551     1.932348641    19.841245617     0.413824200    -0.210199068     0.185919023
   48    20.328109657     3.589198508    10.762347708     0.407381196    -0.227972895     0.179077974
   49    13.567576095     5.441357116    11.852242536    -0.417799016     0.182664501    -0.205128404
   50    16.722336119     9.515443451    16.973296447     0.402153974    -0.217658270     0.202230212
   51    19.999306223     5.949055830    10.901681332     0.418526597    -0.196324233     0.190505337
   52    19.706758793     9.711437587    11.602859961     0.402129486    -0.212911350     0.207269471
   53    18.975985456     4.391599207    19.525872767     0.406872854    -0.224198955     0.184903514
   54    15.135097688     2.498308495    19.837290506     0.403742686    -0.243410497     0.166562822
   55    13.581320834    10.166617722    12.738697040     0.403788480    -0.221358820     0.194820779
   56    16.692462367     4.159239373    19.702749753     0.414206263    -0.211946197     0.183062779
   57    15.582128885     6.085407077    17.332518409     0.416543664    -0.207518480     0.182831770
   58    14.455089231     0.373538892    17.122848080     0.405244154    -0.225691954     0.186655613
   59    16.106819272     1.852568666    17.837961792     0.411613667    -0.218787442     0.180848677
   60    19.212125191     6.531883826    19.083583041     0.407598483    -0.218967259     0.189517324
   61    19.377002495     1.905380160    19.986992868     0.423037085    -0.205732262     0.169451647
   62    19.208771690     7.421290622    12.421154935     0.420603900    -0.198157588     0.183918269
   63    12.471350994     7.954922140    19.614990893     0.399800474    -0.226897962     0.196664423
   64    13.811310478     9.276614294    10.681809732     0.406357418    -0.211974890     0.199850682
   65    14.938256188     4.003238210    13.528762303     0.376463241    -0.267377326     0.191793622
   66    11.336565763     6.884985660    18.122118251     0.396398438    -0.231532297     0.198144074
   67    18.167549230     2.913889719    18.233914355     0.413373526    -0.221546336     0.173319212
   68    11.330590036     2.444375829    15.333282288     0.471135874    -0.150904904     0.072516884
   21    22.224452437     6.657685887    14.399785032    -0.412251463     0.204514910    -0.195505455
   22    29.556758107     2.041308342    16.439711752     0.457687532    -0.168238719     0.110534416
   23    29.440831689     9.568634053    17.304551384     0.408668971    -0.217682807     0.188689872
   24    24.387622263     4.456347701    18.132662804     0.417562350    -0.201837980     0.186823751
   25    25.666281073     0.700197984    11.417678875     0.402298099    -0.222821088     0.196232011
   26    22.225507030     1.282575867    17.954824083     0.103868669     0.382672164    -0.304587122
   27    20.890130207     3.282834344    13.243027508     0.417194753    -0.213713881     0.173996882
   28    27.883290925     5.721648091    11.512306372     0.423401820    -0.198009934     0.177547079
   29    28.595920746     8.374460994    15.591821198     0.400830381    -0.224521123     0.197294883
   30    27.365887476     9.288122374    12.288866472     0.413736551    -0.216902421     0.178256574
   31    25.878256537    10.251873066    19.303257687     0.407148181    -0.227435740     0.180286834
   32    28.005131426     0.902860303    18.532186190     0.405963802    -0.226953090     0.183536609
   33    21.068354757     8.277186891    15.934403575     0.408429802    -0.224864444     0.180613063
   34    30.665658728     3.261952852    18.652636049     0.483286163     0.105003405    -0.073544337
   35    28.037947940     7.863597117    10.828848549     0.416072915    -0.212645059     0.177947768
   36    27.551716309     2.850356993    16.162919256     0.449458841    -0.175253211     0.131427024
   37    28.057275670     5.463236878    18.099630515     0.410268613    -0.214305569     0.189084078
   38    26.142323859     6.380443649    14.798769261     0.426970167    -0.197014661     0.169946168
   39    28.328830560     6.075784362    14.224295252     0.434323839    -0.184548181     0.165241556
   40    23.095240992     9.094540110    16.771260153     0.407286073    -0.223316207     0.185061953
   41    26.594613035     2.286444674    14.212237266     0.448541284    -0.174355635     0.135686512
   42    20.878723315     8.728032140    13.661271316     0.418145080    -0.199187989     0.188358268
   43    24.416534042     7.312722634    15.805662327     0.423845439    -0.199907708     0.174332877
   44    29.356929250     4.312064023    15.089001160     0.436042578    -0.185132751     0.159977293
   45    24.696360060     9.828771473    15.264826412     0.412763101    -0.210258459     0.188196713
   46    27.788386471     1.507275113    12.564567757     0.446450345    -0.180884282     0.134025990
   47    27.212850501     2.077008853    20.129332486     0.413820718    -0.210198136     0.185927827
   48    30.417765607     3.733858720    11.050434578     0.407376708    -0.227983093     0.179075200
   49    23.657232044     5.586017327    12.140329406    -0.417900798     0.182531184    -0.205039728
   50    26.811992069     9.660103663    17.261383317     0.402152380    -0.217667169     0.202223803
   51    30.088962172     6.093716041    11.189768202     0.418528228    -0.196325923     0.190500013
   52    29.796414742     9.856097799    11.890946830     0.402132158    -0.212915239     0.207260292
   53    29.065641406     4.536259418    19.813959637     0.406871962    -0.224210514     0.184891460
   54    25.224753638     2.642968706    20.125377375     0.403734816    -0.243417546     0.166571596
   55    23.670976784    10.311277934    13.026783910     0.403789210    -0.221364533     0.194812775
   56    26.782118317     4.303899584    19.990836622     0.414201785    -0.211952456     0.183065664
   57    25.671784835     6.230067288    17.620605278     0.416541683    -0.207526218     0.182827501
   58    24.544745181     0.518199104    17.410934950     0.405241737    -0.225701898     0.186648836
   59    26.196475222     1.997228878    18.126048662     0.411609286    -0.218793474     0.180851351
   60    29.301781141     6.676544038    19.371669911     0.407598361    -0.218973922     0.189509887
   61    29.466658445     2.050040372    20.275079737     0.423032298    -0.205729060     0.169467487
   62    29.298427640     7.565950834    12.709241805     0.420605189    -0.198159699     0.183913046
   63    22.561006944     8.099582351    19.903077763     0.399805615    -0.226900537     0.196651003
   64    23.900966428     9.421274505    10.969896602     0.406358920    -0.211979793     0.199842426
   65    25.027912138     4.147898421    13.816849173     0.376320440    -0.267716585     0.191600513
   66    21.426221713     7.029645872    18.410205120     0.396404363    -0.231534262     0.198129923
   67    28.257205180     3.058549931    18.522001224     0.413370096    -0.221552712     0.173319242
   68    21.420245986     2.589036041    15.621369157     0.471172135    -0.150764985     0.072572299
   21    32.314108387     6.802346099    14.687871902    -0.412257187     0.204509045    -0.195499521
   22    39.646414057     2.185968553    16.727798622     0.457704119    -0.168278218     0.110405527
   23    39.530487639     9.713294265    17.592638253     0.408683020    -0.217665802     0.188679059
   24    34.477278212     4.601007913    18.420749674     0.417574941    -0.201836297     0.186797425
   25    35.755937022     0.844858196    11.705765745     0.402306726    -0.222831503     0.196202496
   26    32.315162980     1.427236078    18.242910952     0.104011208     0.383035648    -0.304081174
   27    30.979786157     3.427494556    13.531114377     0.417217584    -0.213712492     0.173943837
   28    37.972946874     5.866308303    11.800393242     0.423411810    -0.197993447     0.177541641
   29    38.685576696     8.519121205    15.879908068     0.400846723    -0.224501353     0.197284178
   30    37.455543426     9.432782586    12.576953342     0.413747956    -0.216886276     0.178249747
   31    35.967912487    10.396533278    19.591344557     0.407163878    -0.227417916     0.180273869
   32    38.094787376     1.047520515    18.820273059     0.405974821    -0.226963259     0.183499657
   33    31.158010707     8.421847102    16.222490444     0.408436717    -0.224860374     0.180602493
   34    40.755314678     3.406613063    18.940722919     0.483250741     0.104874104    -0.073960416
   35    38.127603890     8.008257329    11.116935418     0.416082945    -0.212631524     0.177940489
   36    37.641372258     2.995017205    16.451006126     0.449475650    -0.175272065     0.131344367
   37    38.146931619     5.607897089    18.387717385     0.410278729    -0.214301027     0.189067275
   38    36.231979809     6.525103860    15.086856131     0.426979900    -0.197008032     0.169929399
   39    38.418486510     6.220444574    14.512382122     0.434331374    -0.184542305     0.165228312
   40    33.184896942     9.239200322    17.059347022     0.407297287    -0.223306041     0.185049538
   41    36.684268985     2.431104886    14.500324135     0.448556344    -0.174370339     0.135617813
   42    30.968379265     8.872692352    13.949358185     0.418148140    -0.199189215     0.188350179
   43    34.506189992     7.457382846    16.093749196     0.423855709    -0.199900196     0.174316521
   44    39.446585200     4.456724235    15.377088030     0.436048903    -0.185130908     0.159962186
   45    34.786016010     9.973431684    15.552913282     0.412774806    -0.210246421     0.188184489
   46    37.878042420     1.651935325    12.852654626     0.446463484    -0.180898293     0.133963297
   47    37.302506451     2.221669064    20.417419356     0.413831238    -0.210209503     0.185891558
   48    40.507421557     3.878518932    11.338521447     0.407386671    -0.227959941     0.179082009
   49    33.746887994     5.730677539    12.428416275    -0.417869034     0.182492467    -0.205138903
   50    36.901648019     9.804763875    17.549470186     0.402169032    -0.217647802     0.202211533
   51    40.178618122     6.238376253    11.477855072     0.418538185    -0.196312558     0.190491909
   52    39.886070692    10.000758011    12.179033700     0.402142937    -0.212898491     0.207256582
   53    39.155297356     4.680919630    20.102046506     0.406879826    -0.224204197     0.184881814
   54    35.314409587     2.787628918    20.413464245     0.403748463    -0.243422421     0.166531391
   55    33.760632733    10.455938145    13.314870779     0.403800630    -0.221349951     0.194805673
   56    36.871774267     4.448559796    20.278923492     0.414212621    -0.211957848     0.183034903
   57    35.761440785     6.374727500    17.908692148     0.416553694    -0.207522196     0.182804699
   58    34.634401130     0.662859315    17.699021819     0.405250811    -0.225720003     0.186607236
   59    36.286131171     2.141889089    18.414135532     0.411620316    -0.218806174     0.180810879
   60    39.391437091     6.821204249    19.659756781     0.407605521    -0.218968716     0.189500503
   61    39.556314395     2.194700584    20.563166607     0.423043787    -0.205741150     0.169424123
   62    39.388083590     7.710611045    12.997328674     0.420615290    -0.198146886     0.183903750
   63    32.650662894     8.244242563    20.191164632     0.399811224    -0.226894944     0.196646050
   64    33.990622378     9.565934717    11.257983471     0.406369200    -0.211965758     0.199836410
   65    35.117568087     4.292558633    14.104936042     0.376484136    -0.267281143     0.191886649
   66    31.515877663     7.174306084    18.698291990     0.396407453    -0.231532931     0.198125296
   67    38.346861130     3.203210143    18.810088094     0.413379504    -0.221554596     0.173294393
   68    31.509901936     2.733696253    15.909456027     0.471153474    -0.150741074     0.072742921
   21     2.180216008    16.393458985    13.854236717    -0.412255341     0.204514256    -0.195497962
   22     9.512521679    11.777081439    15.894163437     0.457714931    -0.168223186     0.110444562
   23     9.396595261    19.304407151    16.759003068     0.408676715    -0.217673986     0.188683274
   24     4.343385834    14.192120799    17.587114488     0.417569856    -0.201829370     0.186816275
   25     5.622044644    10.435971082    10.872130559     0.402301333    -0.222818656     0.196228142
   26     2.181270601    11.018348964    17.409275767     0.103633227     0.382559338    -0.304808968
   27     0.845893778    13.018607442    12.697479192     0.417207065    -0.213699016     0.173985618
   28     7.839054496    15.457421189    10.966758056     0.423401935    -0.198008891     0.177547966
   29     8.551684317    18.110234091    15.046272882     0.400841045    -0.224508877     0.197287154
   30     7.321651047    19.023895472    11.743318157     0.413739773    -0.216900433     0.178251515
   31     5.834020109    19.987646164    18.757709372     0.407157730    -0.227426578     0.180276829
   32     7.960894997    10.638633401    17.986637874     0.405975762    -0.226940862     0.183525274
   33     1.024118329    18.012959989    15.388855259     0.408438312    -0.224859014     0.180600579
   34    10.621422300    12.997725949    18.107087734     0.483230425     0.105026193    -0.073877295
   35     7.993711512    17.599370215    10.283300233     0.416072836    -0.212645595     0.177947313
   36     7.507479880    12.586130091    15.617370941     0.449478193    -0.175240589     0.131377663
   37     8.013039241    15.199009976    17.554082199     0.410275067    -0.214295957     0.189080968
   38     6.098087431    16.116216746    14.253220946     0.426972670    -0.197014793     0.169939725
   39     8.284594131    15.811557460    13.678746936     0.434322923    -0.184553164     0.165238398
   40     3.051004564    18.830313208    16.225711837     0.407294178    -0.223310863     0.185050564
   41     6.550376607    12.022217772    13.666688950     0.448557376    -0.174343209     0.135649276
   42     0.834486886    18.463805238    13.115723000     0.418152972    -0.199183173     0.188345840
   43     4.372297614    17.048495732    15.260114011     0.423849131    -0.199906758     0.174324991
   44     9.312692822    14.047837121    14.543452845     0.436040220    -0.185141097     0.159974062
   45     4.652123632    19.564544570    14.719278096     0.412770835    -0.210253462     0.188185334
   46     7.744150042    11.243048211    12.019019441     0.446462923    -0.180875169     0.133996387
   47     7.168614072    11.812781950    19.583784171     0.413831045    -0.210189786     0.185914283
   48    10.373529178    13.469631818    10.504886262     0.407376966    -0.227974520     0.179085526
   49     3.612995616    15.321790425    11.594781090    -0.417768614     0.182585431    -0.205260677
   50     6.767755640    19.395876761    16.715835001     0.402162397    -0.217658249     0.202213485
   51    10.044725744    15.829489139    10.644219886     0.418527781    -0.196327794     0.190499065
   52     9.752178314    19.591870897    11.345398515     0.402134336    -0.212915819     0.207255470
   53     9.021404977    14.272032516    19.268411321     0.406877539    -0.224197807     0.184894596
   54     5.180517209    12.378741804    19.579829060     0.403749608    -0.243402138     0.166558259
   55     3.626740355    20.047051031    12.481235594     0.403797813    -0.221359416     0.194800759
   56     6.737881888    14.039672682    19.445288307     0.414212079    -0.211940493     0.183056222
   57     5.627548407    15.965840386    17.075056963     0.416547890    -0.207519238     0.182821282
   58     4.500508752    10.253972201    16.865386634     0.405255582    -0.225684092     0.186640308
   59     6.152238793    11.733001975    17.580500346     0.411622508    -0.218777586     0.180840479
   60     9.257544712    16.412317135    18.826121595     0.407601948    -0.218966555     0.189510684
   61     9.422422016    11.785813470    19.729531422     0.423042371    -0.205722134     0.169450747
   62     9.254191212    17.301723931    12.163693489     0.420605648    -0.198162233     0.183909266
   63     2.516770515    17.835355449    19.357529447     0.399813991    -0.226895159     0.196640177
   64     3.856729999    19.157047603    10.424348286     0.406367387    -0.211974999     0.199830294
   65     4.983675709    13.883671519    13.271300857     0.376329189    -0.267562578     0.191798352
   66     1.381985285    16.765418970    17.864656805     0.396412544    -0.231530744     0.198117665
   67     8.212968751    12.794323029    17.976452909     0.413379003    -0.221541381     0.173312482
   68     1.376009558    12.324809139    15.075820841     0.471167158    -0.150798167     0.072535662
   21    12.269871958    16.538119196    14.142323586    -0.412248035     0.204527145    -0.195499883
   22    19.602177629    11.921741651    16.182250306     0.457701590    -0.168253582     0.110453550
   23    19.486251210    19.449067363    17.047089938     0.408657801    -0.217698936     0.188695455
   24    14.433041784    14.336781011    17.875201358     0.417560439    -0.201844567     0.186820904
   25    15.711700594    10.580631293    11.160217429     0.402300451    -0.222821313     0.196226935
   26    12.270926551    11.163009176    17.697362637     0.103677484     0.382773838    -0.304524495
   27    10.935549728    13.163267653    12.985566062     0.417191440    -0.213731865     0.173982736
   28    17.928710446    15.602081400    11.254844926     0.423396901    -0.198021620     0.177545774
   29    18.641340267    18.254894303    15.334359752     0.400819732    -0.224536966     0.197298489
   30    17.411306997    19.168555683    12.031405026     0.413730812    -0.216912027     0.178258205
   31    15.923676059    20.132306376    19.045796241     0.407141286    -0.227445528     0.180290056
   32    18.050550947    10.783293613    18.274724744     0.405968050    -0.226955063     0.183524772
   33    11.113774279    18.157620200    15.676942129     0.408429318    -0.224870372     0.180606776
   34    20.711078250    13.142386161    18.395174603     0.483256778     0.104919911    -0.073855932
   35    18.083367461    17.744030427    10.571387103     0.416067194    -0.212656451     0.177947532
   36    17.597135830    12.730790302    15.905457810     0.449469659    -0.175258916     0.131382412
   37    18.102695191    15.343670187    17.842169069     0.410265548    -0.214309467     0.189086309
   38    16.187743381    16.260876958    14.541307815     0.426964472    -0.197029283     0.169943523
   39    18.374250081    15.956217672    13.966833806     0.434316973    -0.184564580     0.165241285
   40    13.140660513    18.974973419    16.513798707     0.407282752    -0.223323875     0.185060009
   41    16.640032557    12.166877983    13.954775820     0.448551379    -0.174355860     0.135652844
   42    10.924142836    18.608465450    13.403809870     0.418146753    -0.199192638     0.188349637
   43    14.461953564    17.193155943    15.548200881     0.423840027    -0.199921346     0.174330397
   44    19.402348772    14.192497332    14.831539714     0.436034925    -0.185151832     0.159976073
   45    14.741779581    19.709204782    15.007364966     0.412758801    -0.210268296     0.188195155
   46    17.833805992    11.387708423    12.307106311     0.446458746    -0.180883487     0.133999076
   47    17.258270022    11.957442162    19.871871040     0.413823714    -0.210202611     0.185916100
   48    20.463185128    13.614292029    10.792973132     0.407374501    -0.227987816     0.179074207
   49    13.702651566    15.466450637    11.882867960    -0.417817070     0.182617847    -0.205133172
   50    16.857411590    19.540536972    17.003921871     0.402143213    -0.217680407     0.202227783
   51    20.134381694    15.974149351    10.932306756     0.418521909    -0.196338591     0.190500839
   52    19.841834264    19.736531108    11.633485384     0.402125501    -0.212924670     0.207263519
   53    19.111060927    14.416692728    19.556498191     0.406868151    -0.224211331     0.184898854
   54    15.270173159    12.523402016    19.867915929     0.403739019    -0.243419340     0.166558788
   55    13.716396305    20.191711243    12.769322464     0.403785315    -0.221371473     0.194812963
   56    16.827537838    14.184332894    19.733375176     0.414203396    -0.211955655     0.183058317
   57    15.717204356    16.110500598    17.363143832     0.416538809    -0.207533574     0.182825699
   58    14.590164702    10.398632413    17.153473504     0.405246815    -0.225703310     0.186636102
   59    16.241894743    11.877662187    17.868587216     0.411613935    -0.218795022     0.180838897
   60    19.347200662    16.556977347    19.114208465     0.407592603    -0.218980016     0.189515230
   61    19.512077966    11.930473681    20.017618291     0.423035744    -0.205736454     0.169449908
   62    19.343847161    17.446384143    12.451780359     0.420597842    -0.198173785     0.183914670
   63    12.606426465    17.980015661    19.645616317     0.399805145    -0.226901195     0.196651199
   64    13.946385949    19.301707815    10.712435156     0.406355322    -0.211986201     0.199842944
   65    15.073331659    14.028331731    13.559387727     0.376443669    -0.267440235     0.191744322
   66    11.471641234    16.910079181    18.152743674     0.396404831    -0.231535095     0.198128014
   67    18.302624701    12.938983240    18.264539778     0.413371643    -0.221553147     0.173314997
   68    11.465665507    12.469469350    15.363907711     0.471182345    -0.150720434     0.072598545
   21    22.359527908    16.682779408    14.430410456    -0.412245040     0.204525108    -0.195508330
   22    29.691833578    12.066401863    16.470337176     0.457698139    -0.168280743     0.110426471
   23    29.575907160    19.593727574    17.335176807     0.408665938    -0.217680844     0.188698705
   24    24.522697734    14.481441222    18.163288228     0.417560890    -0.201843151     0.186821427
   25    25.801356544    10.725291505    11.448304299     0.402300562    -0.222828327     0.196218741
   26    22.360582501    11.307669388    17.985449506     0.103910582     0.382660723    -0.304587199
   27    21.025205678    13.307927865    13.273652931     0.417191850    -0.213735829     0.173976882
   28    28.018366396    15.746741612    11.542931795     0.423400013    -0.198011114     0.177550070
   29    28.730996217    18.399554515    15.622446622     0.400827632    -0.224517639     0.197304433
   30    27.500962947    19.313215895    12.319491896     0.413734452    -0.216903350     0.178260315
   31    26.013332008    20.276966587    19.333883111     0.407148236    -0.227431069     0.180292602
   32    28.140206897    10.927953824    18.562811613     0.405966570    -0.226963319     0.183517834
   33    21.203430228    18.302280412    15.965028998     0.408424715    -0.224874828     0.180611638
   34    30.800734199    13.287046373    18.683261473     0.483257086     0.104869356    -0.073925688
   35    28.173023411    17.888690638    10.859473972     0.416070212    -0.212647557     0.177951103
   36    27.686791780    12.875450514    16.193544680     0.449468410    -0.175275636     0.131364378
   37    28.192351141    15.488330399    18.130255939     0.410268181    -0.214306900     0.189083506
   38    26.277399330    16.405537170    14.829394685     0.426965849    -0.197022883     0.169947483
   39    28.463906031    16.100877883    14.254920676     0.434318422    -0.184558446     0.165244329
   40    23.230316463    19.119633631    16.801885576     0.407283262    -0.223319513     0.185064150
   41    26.729688506    12.311538195    14.242862689     0.448549961    -0.174372386     0.135636293
   42    21.013798786    18.753125661    13.691896739     0.418138716    -0.199203896     0.188355573
   43    24.551609513    17.337816155    15.836287750     0.423841420    -0.199914784     0.174334533
   44    29.492004722    14.337157544    15.119626584     0.436036343    -0.185146714     0.159978131
   45    24.831435531    19.853864994    15.295451836     0.412760609    -0.210260672     0.188199706
   46    27.923461942    11.532368635    12.595193180     0.446457577    -0.180898248     0.133983044
   47    27.347925972    12.102102374    20.159957910     0.413823250    -0.210209448     0.185909403
   48    30.552841078    13.758952241    11.081060001     0.407377096    -0.227979311     0.179079131
   49    23.792307516    15.611110848    12.170954829    -0.417892481     0.182496438    -0.205087603
   50    26.947067540    19.685197184    17.292008740     0.402151240    -0.217664003     0.202229478
   51    30.224037643    16.118809562    11.220393626     0.418524443    -0.196329811     0.190504320
   52    29.931490213    19.881191320    11.921572254     0.402127131    -0.212918488     0.207266708
   53    29.200716877    14.561352939    19.844585060     0.406870932    -0.224206985     0.184898006
   54    25.359829109    12.668062227    20.156002799     0.403735335    -0.243428894     0.166553755
   55    23.806052255    20.336371455    13.057409333     0.403788977    -0.221363113     0.194814871
   56    26.917193788    14.328993105    20.021462046     0.414202716    -0.211959283     0.183055653
   57    25.806860306    16.255160809    17.651230702     0.416539604    -0.207531080     0.182826718
   58    24.679820652    10.543292625    17.441560373     0.405243479    -0.225711942     0.186632907
   59    26.331550693    12.022322399    18.156674085     0.411611160    -0.218804226     0.180834078
   60    29.436856612    16.701637559    19.402295334     0.407596777    -0.218974120     0.189513066
   61    29.601733916    12.075133893    20.305705161     0.423035953    -0.205741291     0.169443511
   62    29.433503111    17.591044355    12.739867228     0.420601600    -0.198164010     0.183916608
   63    22.696082415    18.124675872    19.933703186     0.399800386    -0.226906111     0.196655201
   64    24.036041899    19.446368026    11.000522025     0.406358925    -0.211978889     0.199843375
   65    25.162987609    14.172991942    13.847474596     0.376379225    -0.267502870     0.191783454
   66    21.561297184    17.054739393    18.440830544     0.396397150    -0.231543623     0.198133415
   67    28.392280651    13.083643452    18.552626648     0.413371460    -0.221556045     0.173311728
   68    21.555321457    12.614129562    15.651994581     0.471165860    -0.150765058     0.072612874
   21    32.449183858    16.827439620    14.718497325    -0.412250465     0.204515706    -0.195506728
   22    39.781489528    12.211062074    16.758424046     0.457707512    -0.168272217     0.110400608
   23    39.665563110    19.738387786    17.623263677     0.408677566    -0.217667536     0.188688873
   24    34.612353683    14.626101434    18.451375097     0.417576240    -0.201826135     0.186805500
   25    35.891012493    10.869951717    11.736391168     0.402311301    -0.222812724     0.196214443
   26    32.450238451    11.452329599    18.273536376     0.103937653     0.382665299    -0.304572214
   27    31.114861628    13.452588077    13.561739801     0.417195899    -0.213714912     0.173992868
   28    38.108022345    15.891401824    11.831018665     0.423408391    -0.198001956     0.177540305
   29    38.820652167    18.544214726    15.910533491     0.400841005    -0.224503149     0.197293753
   30    37.590618897    19.457876107    12.607578765     0.413743318    -0.216890688     0.178255143
   31    36.102987958    20.421626799    19.621969981     0.407159926    -0.227423741     0.180275446
   32    38.229862847    11.072614036    18.850898483     0.405981929    -0.226945301     0.183506142
   33    31.293086178    18.446940623    16.253115868     0.408431867    -0.224863974     0.180608980
   34    40.890390149    13.431706584    18.971348343     0.483244706     0.104861105    -0.074018260
   35    38.262679361    18.033350850    11.147560842     0.416079061    -0.212638074     0.177941745
   36    37.776447729    13.020110726    16.481631549     0.449479294    -0.175262491     0.131344675
   37    38.282007090    15.632990610    18.418342808     0.410281225    -0.214293176     0.189070758
   38    36.367055280    16.550197381    15.117481555     0.426977720    -0.197007913     0.169935013
   39    38.553561981    16.245538095    14.543007545     0.434328954    -0.184545449     0.165231161
   40    33.319972413    19.264293843    17.089972446     0.407292616    -0.223308832     0.185056452
   41    36.819344456    12.456198407    14.530949559     0.448561337    -0.174357341     0.135618010
   42    31.103454736    18.897785873    13.979983609     0.418143889    -0.199192061     0.188356604
   43    34.641265463    17.482476367    16.124374620     0.423852938    -0.199900364     0.174323067
   44    39.581660671    14.481817756    15.407713454     0.436046900    -0.185133042     0.159965176
   45    34.921091481    19.998525205    15.583538705     0.412770786    -0.210249551     0.188189810
   46    38.013117892    11.677028846    12.883280050     0.446468246    -0.180883278     0.133967700
   47    37.437581922    12.246762585    20.448044779     0.413837830    -0.210190529     0.185898338
   48    40.642497028    13.903612453    11.369146871     0.407387270    -0.227969299     0.179068731
   49    33.881963465    15.755771060    12.459041699    -0.417926345     0.182553423    -0.204967847
   50    37.036723490    19.829857396    17.580095610     0.402164640    -0.217652571     0.202215135
   51    40.313693593    16.263469774    11.508480495     0.418534363    -0.196319919     0.190492720
   52    40.021146163    20.025851532    12.209659124     0.402139861    -0.212901599     0.207259359
   53    39.290372827    14.706013151    20.132671930     0.406884165    -0.224192556     0.184886380
   54    35.449485059    12.812722439    20.444089669     0.403756407    -0.243402208     0.166541674
   55    33.895708204    20.481031666    13.345496203     0.403796989    -0.221352997     0.194809759
   56    37.006849738    14.473653317    20.309548916     0.414219258    -0.211939166     0.183041514
   57    35.896516256    16.399821021    17.939317572     0.416554517    -0.207514390     0.182811685
   58    34.769476601    10.687952836    17.729647243     0.405258367    -0.225695761     0.186620148
   59    36.421206642    12.166982610    18.444760955     0.411626799    -0.218785926     0.180820620
   60    39.526512562    16.846297770    19.690382204     0.407608146    -0.218964973     0.189499181
   61    39.691389866    12.219794105    20.593792030     0.423049857    -0.205723168     0.169430801
   62    39.523159061    17.735704566    13.027954098     0.420611489    -0.198152979     0.183905879
   63    32.785738365    18.269336084    20.221790056     0.399807381    -0.226900890     0.196647003
   64    34.125697849    19.591028238    11.288608895     0.406366229    -0.211968748     0.199839279
   65    35.252643558    14.317652154    14.135561466     0.376586359    -0.267517525     0.191355920
   66    31.650953134    17.199399605    18.728917413     0.396404608    -0.231536718     0.198126563
   67    38.481936601    13.228303664    18.840713518     0.413385459    -0.221539402     0.173299613
   68    31.644977407    12.758789774    15.940081450     0.471160324    -0.150801667     0.072572764
   21     2.315291480    26.418552506    13.884862140    -0.412255037     0.204516144    -0.195496626
   22     9.647597150    21.802174960    15.924788860     0.457714420    -0.168242048     0.110417946
   23     9.531670732    29.329500672    16.789628491     0.408669000    -0.217672176     0.188702073
   24     4.478461305    24.217214320    17.617739912     0.417567634    -0.201838133     0.186811773
   25     5.757120115    20.461064603    10.902755983     0.402307857    -0.222824564     0.196208057
   26     2.316346072    21.043442485    17.439901190     0.104092597     0.382645422    -0.304544270
   27     0.980969250    23.043700963    12.728104616     0.417217838    -0.213690647     0.173970065
   28     7.974129967    25.482514710    10.997383480     0.423406937    -0.198000154     0.177545782
   29     8.686759788    28.135327612    15.076898306     0.400832434    -0.224507545     0.197306163
   30     7.456726518    29.048988993    11.773943580     0.413741441    -0.216891194     0.178258886
   31     5.969095580    30.012739685    18.788334795     0.407148274    -0.227426616     0.180298134
   32     8.095970468    20.663726922    18.017263298     0.405975047    -0.226955368     0.183508915
   33     1.159193800    28.038053510    15.419480683     0.408436017    -0.224860708     0.180603661
   34    10.756497771    23.022819470    18.137713157     0.483243540     0.104935808    -0.073919936
   35     8.128786983    27.624463736    10.313925657     0.416078627    -0.212636034     0.177945198
   36     7.642555351    22.611223612    15.647996364     0.449481732    -0.175247386     0.131356483
   37     8.148114712    25.224103497    17.584707623     0.410271968    -0.214305055     0.189077380
   38     6.233162902    26.141310267    14.283846369     0.426973674    -0.197013018     0.169939262
   39     8.419669602    25.836650981    13.709372360     0.434326321    -0.184546263     0.165237173
   40     3.186080035    28.855406729    16.256337261     0.407290744    -0.223310796     0.185058202
   41     6.685452078    22.047311293    13.697314374     0.448562280    -0.174347758     0.135627213
   42     0.969562358    28.488898759    13.146348424     0.418153314    -0.199184078     0.188344124
   43     4.507373085    27.073589253    15.290739435     0.423848900    -0.199905439     0.174327065
   44     9.447768293    24.072930642    14.574078268     0.436044459    -0.185133193     0.159971655
   45     4.787199103    29.589638091    14.749903520     0.412766975    -0.210251540     0.188195946
   46     7.879225513    21.268141732    12.049644865     0.446468840    -0.180877127     0.133974027
   47     7.303689543    21.837875471    19.614409594     0.413831614    -0.210200744     0.185900625
   48    10.508604649    23.494725339    10.535511686     0.407384966    -0.227968187     0.179075390
   49     3.748071087    25.346883946    11.625406514    -0.417860387     0.182537619    -0.205116345
   50     6.902831111    29.420970282    16.746460425     0.402151326    -0.217658217     0.202235534
   51    10.179801215    25.854582660    10.674845310     0.418533139    -0.196317724     0.190497672
   52     9.887253785    29.616964418    11.376023938     0.402135798    -0.212906051     0.207262667
   53     9.156480448    24.297126037    19.299036745     0.406874803    -0.224206671     0.184889868
   54     5.315592680    22.403835325    19.610454483     0.403748116    -0.243415185     0.166542808
   55     3.761815826    30.072144552    12.511861017     0.403796133    -0.221353186     0.194811320
   56     6.872957359    24.064766203    19.475913730     0.414210903    -0.211951772     0.183045826
   57     5.762623878    25.990933907    17.105682386     0.416545720    -0.207525875     0.182818692
   58     4.635584223    20.279065722    16.896012058     0.405251745    -0.225705063     0.186623278
   59     6.287314264    21.758095496    17.611125770     0.411620423    -0.218795143     0.180823983
   60     9.392620183    26.437410656    18.856747019     0.407596281    -0.218975248     0.189512830
   61     9.557497487    21.810906991    19.760156845     0.423043639    -0.205732356     0.169435171
   62     9.389266683    27.326817452    12.194318913     0.420608461    -0.198153107     0.183912666
   63     2.651845986    27.860448970    19.388154871     0.399807106    -0.226901710     0.196646616
   64     3.991805470    29.182141124    10.454973710     0.406366305    -0.211968140     0.199839770
   65     5.118751180    23.908765040    13.301926281     0.376397787    -0.267543942     0.191689710
   66     1.517060756    26.790512491    17.895282228     0.396407741    -0.231535403     0.198121833
   67     8.348044222    22.819416550    18.007078332     0.413378253    -0.221550308     0.173302860
   68     1.511085029    22.349902660    15.106446265     0.471158974    -0.150773095     0.072640865
   21    12.404947429    26.563212718    14.172949010    -0.412256553     0.204506121    -0.195503916
   22    19.737253100    21.946835172    16.212875730     0.457684929    -0.168317034     0.110425909
   23    19.621326681    29.474160884    17.077715361     0.408671282    -0.217675383     0.188693432
   24    14.568117255    24.361874532    17.905826782     0.417555566    -0.201851625     0.186824172
   25    15.846776065    20.605724814    11.190842853     0.402296353    -0.222832067     0.196223124
   26    12.406002022    21.188102697    17.727988060     0.103946781     0.382650383    -0.304587838
   27    11.070625199    23.188361175    13.016191485     0.417199392    -0.213711711     0.173988425
   28    18.063785917    25.627174921    11.285470349     0.423399797    -0.198007622     0.177554479
   29    18.776415738    28.279987824    15.364985175     0.400835693    -0.224509098     0.197297776
   30    17.546382468    29.193649204    12.062030450     0.413739897    -0.216891910     0.178261596
   31    16.058751530    30.157399897    19.076421665     0.407149963    -0.227434456     0.180284430
   32    18.185626418    20.808387134    18.305350167     0.405957171    -0.226976166     0.183522737
   33    11.248849750    28.182713721    15.707567552     0.408433301    -0.224860178     0.180610461
   34    20.846153721    23.167479682    18.425800027     0.483268437     0.104792308    -0.073960732
   35    18.218442932    27.769123948    10.602012526     0.416072476    -0.212641618     0.177952907
   36    17.732211301    22.755883824    15.936083234     0.449458589    -0.175299292     0.131366415
   37    18.237770662    25.368763708    17.872794493     0.410259443    -0.214318070     0.189089805
   38    16.322818852    26.285970479    14.571933239     0.426966103    -0.197020056     0.169950123
   39    18.509325552    25.981311193    13.997459230     0.434318656    -0.184554645     0.165247960
   40    13.275735984    29.000066940    16.544424130     0.407289366    -0.223311132     0.185060829
   41    16.775108028    22.191971504    13.985401243     0.448541345    -0.174392636     0.135638749
   42    11.059218307    28.633558971    13.434435293     0.418149398    -0.199183700     0.188353218
   43    14.597029035    27.218249464    15.578826304     0.423842461    -0.199911550     0.174335711
   44    19.537424243    24.217590853    14.862165138     0.436035525    -0.185143100     0.159984541
   45    14.876855053    29.734298303    15.037990389     0.412766794    -0.210251812     0.188196039
   46    17.968881463    21.412801944    12.337731734     0.446449254    -0.180916165     0.133986585
   47    17.393345493    21.982535683    19.902496464     0.413815805    -0.210220647     0.185913311
   48    20.598260599    23.639385550    10.823598555     0.407372441    -0.227979516     0.179089459
   49    13.837727037    25.491544158    11.913493383    -0.417970823     0.182274521    -0.205125303
   50    16.992487061    29.565630493    17.034547294     0.402155182    -0.217663879     0.202221772
   51    20.269457165    25.999242872    10.962932180     0.418525698    -0.196325394     0.190506115
   52    19.976909735    29.761624629    11.664110808     0.402134008    -0.212905148     0.207267068
   53    19.246136398    24.441786249    19.587123614     0.406860538    -0.224219281     0.184905966
   54    15.405248630    22.548495537    19.898541353     0.403726434    -0.243439392     0.166559984
   55    13.851471776    30.216804764    12.799947887     0.403798959    -0.221347765     0.194811621
   56    16.962613309    24.209426415    19.764000600     0.414194605    -0.211971266     0.183060131
   57    15.852279828    26.135594119    17.393769256     0.416535051    -0.207537758     0.182829513
   58    14.725240173    20.423725934    17.184098927     0.405237001    -0.225721855     0.186634983
   59    16.376970214    21.902755708    17.899212639     0.411603850    -0.218815697     0.180836836
   60    19.482276133    26.582070868    19.144833888     0.407587312    -0.218986564     0.189519044
   61    19.647153437    21.955567202    20.048243715     0.423028675    -0.205755535     0.169444387
   62    19.478922633    27.471477664    12.482405782     0.420602630    -0.198158558     0.183920128
   63    12.741501936    28.005109182    19.676241740     0.399802795    -0.226905391     0.196651135
   64    14.081461420    29.326801336    10.743060579     0.406369708    -0.211961641     0.199839744
   65    15.208407130    24.053425252    13.590013150     0.376517806    -0.267483071     0.191538896
   66    11.606716706    26.935172702    18.183369098     0.396402403    -0.231539437     0.198127797
   67    18.437700172    22.964076761    18.295165202     0.413361532    -0.221569402     0.173318330
   68    11.600740978    22.494562871    15.394533135     0.471177336    -0.150752059     0.072565383
   21    22.494603379    26.707872929    14.461035879    -0.412247347     0.204514865    -0.195514181
   22    29.826909049    22.091495384    16.500962600     0.457691681    -0.168284754     0.110447122
   23    29.710982631    29.618821095    17.365802231     0.408667809    -0.217674388     0.188702100
   24    24.657773205    24.506534743    18.193913651     0.417561793    -0.201842018     0.186820633
   25    25.936432015    20.750385026    11.478929722     0.402301550    -0.222822236     0.196223633
   26    22.495657972    21.332762909    18.016074930     0.103909080     0.382607724    -0.304654284
   27    21.160281149    23.333021386    13.304278355     0.417202196    -0.213694188     0.174003224
   28    28.153441867    25.771835133    11.573557219     0.423399270    -0.198007950     0.177555372
   29    28.866071688    28.424648036    15.653072045     0.400830358    -0.224509192     0.197308506
   30    27.636038418    29.338309416    12.350117319     0.413734859    -0.216897512     0.178266475
   31    26.148407479    30.302060108    19.364508535     0.407147300    -0.227428751     0.180297640
   32    28.275282368    20.953047345    18.593437037     0.405965644    -0.226960414     0.183523477
   33    21.338505699    28.327373933    15.995654422     0.408428709    -0.224863931     0.180616174
   34    30.935809670    23.312139894    18.713886897     0.483269089     0.104860331    -0.073859992
   35    28.308098882    27.913784159    10.890099396     0.416070571    -0.212643108     0.177955580
   36    27.821867251    22.900544035    16.224170103     0.449462773    -0.175279356     0.131378702
   37    28.327426612    25.513423920    18.160881362     0.410267776    -0.214306230     0.189085144
   38    26.412474801    26.430630691    14.860020109     0.426966170    -0.197021087     0.169948760
   39    28.598981502    26.125971404    14.285546099     0.434317437    -0.184558172     0.165247225
   40    23.365391934    29.144727152    16.832511000     0.407285297    -0.223313400     0.185067049
   41    26.864763978    22.336631716    14.273488113     0.448545702    -0.174374555     0.135647586
   42    21.148874257    28.778219182    13.722522163     0.418144611    -0.199187974     0.188359325
   43    24.686684984    27.362909676    15.866913174     0.423842025    -0.199912460     0.174335729
   44    29.627080193    24.362251065    15.150252007     0.436034474    -0.185147451     0.159982370
   45    24.966511002    29.878958515    15.326077259     0.412762541    -0.210254635     0.188202214
   46    28.058537413    21.557462156    12.625818604     0.446453713    -0.180899736     0.133993909
   47    27.483001443    22.127195895    20.190583333     0.413823020    -0.210207353     0.185912284
   48    30.687916549    23.784045762    11.111685425     0.407374498    -0.227976499     0.179088621
   49    23.927382987    25.636204369    12.201580253    -0.417808999     0.182546312    -0.205213266
   50    27.082143011    29.710290705    17.322634164     0.402150807    -0.217658863     0.202235872
   51    30.359113114    26.143903083    11.251019049     0.418524344    -0.196326801     0.190507639
   52    30.066565684    29.906284841    11.952197678     0.402128725    -0.212909561     0.207272786
   53    29.335792348    24.586446460    19.875210484     0.406869672    -0.224208045     0.184899493
   54    25.494904580    22.693155748    20.186628223     0.403735445    -0.243426957     0.166556318
   55    23.941127726    30.361464976    13.088034757     0.403791490    -0.221355355     0.194818478
   56    27.052269259    24.354086626    20.052087469     0.414203013    -0.211957502     0.183057043
   57    25.941935777    26.280254330    17.681856126     0.416540419    -0.207529817     0.182826296
   58    24.814896123    20.568386146    17.472185797     0.405242408    -0.225708364     0.186639559
   59    26.466626164    22.047415920    18.187299509     0.411610682    -0.218800476     0.180839704
   60    29.571932083    26.726731080    19.432920758     0.407596992    -0.218973951     0.189512799
   61    29.736809387    22.100227414    20.336330584     0.423035411    -0.205740714     0.169445565
   62    29.568578582    27.616137876    12.770492652     0.420601219    -0.198161075     0.183920643
   63    22.831157886    28.149769393    19.964328610     0.399797405    -0.226908211     0.196658839
   64    24.171117370    29.471461547    11.031147449     0.406361287    -0.211970250     0.199847736
   65    25.298063080    24.198085463    13.878100020     0.376408387    -0.267555247     0.191653114
   66    21.696372655    27.079832914    18.471455967     0.396394847    -0.231545170     0.198136214
   67    28.527356122    23.108736973    18.583252072     0.413370900    -0.221555181     0.173314166
   68    21.690396928    22.639223083    15.682620004     0.471144989    -0.150852339     0.072567010
   21    32.584259329    26.852533141    14.749122749    -0.412250170     0.204507935    -0.195515477
   22    39.916564999    22.236155595    16.789049469     0.457698593    -0.168251411     0.110469273
   23    39.800638581    29.763481307    17.653889100     0.408681277    -0.217673010     0.188674520
   24    34.747429155    24.651194955    18.482000521     0.417573708    -0.201831529     0.186805334
   25    36.026087965    20.895045238    11.767016592     0.402309359    -0.222811296     0.196220045
   26    32.585313922    21.477423120    18.304161799     0.103893968     0.382776537    -0.304447313
   27    31.249937099    23.477681598    13.592365224     0.417194427    -0.213719636     0.173990595
   28    38.243097817    25.916495345    11.861644089     0.423409936    -0.198000090     0.177538701
   29    38.955727638    28.569308247    15.941158915     0.400845758    -0.224507516     0.197279127
   30    37.725694368    29.482969628    12.638204189     0.413745765    -0.216894576     0.178244734
   31    36.238063429    30.446720320    19.652595404     0.407160745    -0.227422119     0.180275642
   32    38.364938318    21.097707557    18.881523906     0.405978118    -0.226950099     0.183508639
   33    31.428161649    28.472034144    16.283741291     0.408432779    -0.224861097     0.180610499
   34    41.025465620    23.456800105    19.001973766     0.483276188     0.104877105    -0.073789693
   35    38.397754832    28.058444371    11.178186266     0.416080776    -0.212637080     0.177938922
   36    37.911523200    23.045204247    16.512256973     0.449471299    -0.175250361     0.131388214
   37    38.417082561    25.658084132    18.448968232     0.410278402    -0.214299516     0.189069696
   38    36.502130751    26.575290902    15.148106978     0.426976342    -0.197008495     0.169937800
   39    38.688637452    26.270631616    14.573632969     0.434328960    -0.184541275     0.165235808
   40    33.455047884    29.289387364    17.120597869     0.407293406    -0.223308250     0.185055415
   41    36.954419927    22.481291928    14.561574982     0.448553841    -0.174346088     0.135657263
   42    31.238530207    28.922879394    14.010609033     0.418144073    -0.199188391     0.188360077
   43    34.776340934    27.507569888    16.155000044     0.423851843    -0.199901251     0.174324711
   44    39.716736142    24.506911277    15.438338877     0.436047622    -0.185124576     0.159973005
   45    35.056166952    30.023618726    15.614164129     0.412771190    -0.210249348     0.188189150
   46    38.148193363    21.702122367    12.913905474     0.446462148    -0.180873461     0.134001274
   47    37.572657393    22.271856106    20.478670203     0.413833334    -0.210200664     0.185896887
   48    40.777572499    23.928705974    11.399772295     0.407387619    -0.227967328     0.179070448
   49    34.017038936    25.780864581    12.489667122    -0.417820462     0.182214065    -0.205485026
   50    37.171798961    29.854950917    17.610721034     0.402163626    -0.217654014     0.202215599
   51    40.448769064    26.288563295    11.539105919     0.418535403    -0.196318345     0.190492057
   52    40.156221634    30.050945053    12.240284547     0.402141049    -0.212908256     0.207250214
   53    39.425448298    24.731106672    20.163297354     0.406881881    -0.224200741     0.184881483
   54    35.584560530    22.837815960    20.474715092     0.403751596    -0.243410765     0.166540831
   55    34.030783676    30.506125187    13.376121626     0.403797567    -0.221356498     0.194804584
   56    37.141925209    24.498746838    20.340174339     0.414214913    -0.211948404     0.183040651
   57    36.031591727    26.424914542    17.969942995     0.416551750    -0.207519721     0.182811938
   58    34.904552072    20.713046357    17.760272666     0.405254504    -0.225701980     0.186621015
   59    36.556282113    22.192076131    18.475386379     0.411623034    -0.218790797     0.180823298
   60    39.661588033    26.871391291    19.721007628     0.407605301    -0.218969070     0.189500567
   61    39.826465337    22.244887626    20.624417454     0.423043666    -0.205735878     0.169430827
   62    39.658234532    27.760798087    13.058579522     0.420612321    -0.198152553     0.183904435
   63    32.920813836    28.294429605    20.252415479     0.399806375    -0.226901982     0.196647789
   64    34.260773320    29.616121759    11.319234319     0.406366583    -0.211972272     0.199834823
   65    35.387719029    24.342745675    14.166186889     0.376414973    -0.267554408     0.191641349
   66    31.786028605    27.224493126    18.759542837     0.396403597    -0.231537032     0.198128218
   67    38.617012072    23.253397185    18.871338941     0.413382198    -0.221545721     0.173299313
   68    31.780052878    22.783883295    15.970706874     0.471153522    -0.150808125     0.072603501
   21     2.450366951    36.443646027    13.915487564    -0.412248677     0.204519363    -0.195506672
   22     9.782672621    31.827268481    15.955414284     0.457703869    -0.168247482     0.110453397
   23     9.666746203    39.354594193    16.820253915     0.408658692    -0.217692054     0.188701464
   24     4.613536776    34.242307841    17.648365336     0.417557561    -0.201842022     0.186830086
   25     5.892195586    30.486158124    10.933381407     0.402307262    -0.222813557     0.196221777
   26     2.451421543    31.068536007    17.470526614     0.103943978     0.382422279    -0.304875139
   27     1.116044721    33.068794484    12.758730039     0.417202675    -0.213696492     0.173999245
   28     8.109205438    35.507608231    11.028008903     0.423398279    -0.198005096     0.177560916
   29     8.821835260    38.160421133    15.107523729     0.400820039    -0.224528259     0.197307772
   30     7.591801989    39.074082514    11.804569004     0.413731884    -0.216900537     0.178269698
   31     6.104171051    40.037833206    18.818960219     0.407143509    -0.227433575     0.180300116
   32     8.231045939    30.688820443    18.047888721     0.405965474    -0.226956020     0.183529286
   33     1.294269271    38.063147031    15.450106106     0.408430917    -0.224864984     0.180609869
   34    10.891573242    33.047912991    18.168338581     0.483254399     0.104933029    -0.073852865
   35     8.263862454    37.649557257    10.344551080     0.416068034    -0.212642224     0.177962569
   36     7.777630822    32.636317133    15.678621788     0.449471016    -0.175253461     0.131385044
   37     8.283190183    35.249197018    17.615333047     0.410261946    -0.214310523     0.189092928
   38     6.368238373    36.166403788    14.314471793     0.426963151    -0.197020775     0.169956705
   39     8.554745073    35.861744502    13.739997784     0.434316260    -0.184553294     0.165255765
   40     3.321155506    38.880500250    16.286962684     0.407284188    -0.223314660     0.185067967
   41     6.820527549    32.072404814    13.727939797     0.448552981    -0.174351758     0.135652821
   42     1.104637829    38.513992280    13.176973847     0.418149190    -0.199190546     0.188346440
   43     4.642448556    37.098682774    15.321364858     0.423839124    -0.199912584     0.174342638
   44     9.582843764    34.098024163    14.604703692     0.436034531    -0.185140078     0.159990748
   45     4.922274574    39.614731612    14.780528943     0.412760057    -0.210256787     0.188205258
   46     8.014300984    31.293235253    12.080270288     0.446460863    -0.180879381     0.133997566
   47     7.438765014    31.862968992    19.645035018     0.413819763    -0.210207177     0.185919731
   48    10.643680120    33.519818860    10.566137109     0.407377415    -0.227965529     0.179095951
   49     3.883146558    35.371977467    11.656031937    -0.417809617     0.182514536    -0.205240269
   50     7.037906582    39.446063803    16.777085848     0.402145536    -0.217665550     0.202239156
   51    10.314876686    35.879676181    10.705470734     0.418521773    -0.196325644     0.190514480
   52    10.022329256    39.642057939    11.406649362     0.402124778    -0.212912074     0.207277861
   53     9.291555919    34.322219558    19.329662168     0.406864309    -0.224212629     0.184905737
   54     5.450668151    32.428928846    19.641079907     0.403735074    -0.243422019     0.166564434
   55     3.896891297    40.097238073    12.542486441     0.403787950    -0.221359787     0.194820780
   56     7.008032830    34.089859724    19.506539154     0.414199641    -0.211956402     0.183065947
   57     5.897699349    36.016027428    17.136307810     0.416535710    -0.207531080     0.182835591
   58     4.770659694    30.304159243    16.926637481     0.405244673    -0.225698489     0.186646584
   59     6.422389735    31.783189017    17.641751193     0.411611141    -0.218794596     0.180845771
   60     9.527695654    36.462504177    18.887372442     0.407588519    -0.218980215     0.189523782
   61     9.692572958    31.836000512    19.790782269     0.423031052    -0.205741835     0.169455087
   62     9.524342154    37.351910974    12.224944336     0.420598338    -0.198162389     0.183925815
   63     2.786921457    37.885542491    19.418780294     0.399804314    -0.226897385     0.196657283
   64     4.126880941    39.207234645    10.485599133     0.406358320    -0.211974981     0.199848750
   65     5.253826651    33.933858561    13.332551704     0.376299522    -0.267541403     0.191886079
   66     1.652136227    36.815606012    17.925907652     0.396404822    -0.231531968     0.198131684
   67     8.483119693    32.844510071    18.037703756     0.413368227    -0.221554437     0.173321493
   68     1.646160500    32.374996181    15.137071689     0.471167300    -0.150820250     0.072488812
   21    12.540022900    36.588306239    14.203574433    -0.412241096     0.204522904    -0.195518952
   22    19.872328571    31.971928693    16.243501154     0.457707206    -0.168249894     0.110435895
   23    19.756402152    39.499254405    17.108340785     0.408671288    -0.217670420     0.188699143
   24    14.703192726    34.386968053    17.936452205     0.417563159    -0.201842554     0.186817000
   25    15.981851536    30.630818335    11.221468276     0.402311026    -0.222808158     0.196220191
   26    12.541077493    31.213196218    17.758613484     0.104039944     0.382682072    -0.304516209
   27    11.205700670    33.213454696    13.046816909     0.417190473    -0.213718153     0.174001899
   28    18.198861388    35.652268442    11.316095773     0.423406422    -0.197994062     0.177553804
   29    18.911491209    38.305081345    15.395610599     0.400835156    -0.224506794     0.197301488
   30    17.681457939    39.218742725    12.092655873     0.413741162    -0.216887726     0.178263752
   31    16.193827001    40.182493418    19.107047089     0.407149750    -0.227421428     0.180301345
   32    18.320701889    30.833480655    18.335975591     0.405968031    -0.226961173     0.183517259
   33    11.383925221    38.207807242    15.738192976     0.408425245    -0.224869460     0.180617122
   34    20.981229192    33.192573203    18.456425451     0.483252183     0.104921053    -0.073884370
   35    18.353518403    37.794217469    10.632637950     0.416077322    -0.212632090     0.177952960
   36    17.867286772    32.780977345    15.966708657     0.449476968    -0.175249738     0.131369648
   37    18.372846133    35.393857229    17.903419916     0.410265131    -0.214313403     0.189082753
   38    16.457894323    36.311064000    14.602558662     0.426970146    -0.197013206     0.169947907
   39    18.644401023    36.006404714    14.028084653     0.434325005    -0.184542265     0.165245097
   40    13.410811455    39.025160461    16.575049554     0.407285989    -0.223313193     0.185065775
   41    16.910183499    32.217065025    14.016026667     0.448559524    -0.174346183     0.135638350
   42    11.194293778    38.658652492    13.465060717     0.418138187    -0.199195657     0.188365460
   43    14.732104506    37.243342985    15.609451728     0.423844496    -0.199907005     0.174335976
   44    19.672499714    34.242684374    14.892790561     0.436044280    -0.185126190     0.159980247
   45    15.011930524    39.759391824    15.068615813     0.412763438    -0.210250833     0.188204493
   46    18.103956934    31.437895465    12.368357158     0.446467452    -0.180873306     0.133983812
   47    17.528420964    32.007629204    19.933121887     0.413821359    -0.210213974     0.185908494
   48    20.733336070    33.664479071    10.854223979     0.407386582    -0.227953729     0.179090117
   49    13.972802508    35.516637679    11.944118807    -0.417816223     0.182520683    -0.205221354
   50    17.127562532    39.590724014    17.065172718     0.402152585    -0.217654825     0.202236683
   51    20.404532636    36.024336393    10.993557603     0.418531286    -0.196314498     0.190505067
   52    20.111985206    39.786718150    11.694736231     0.402134989    -0.212902099     0.207268296
   53    19.381211869    34.466879770    19.617749038     0.406866272    -0.224218034     0.184894862
   54    15.540324101    32.573589058    19.929166776     0.403739785    -0.243425459     0.166547987
   55    13.986547247    40.241898285    12.830573311     0.403792084    -0.221351650     0.194821456
   56    17.097688780    34.234519936    19.794626023     0.414203425    -0.211961851     0.183051075
   57    15.987355299    36.160687640    17.424394680     0.416541424    -0.207530464     0.182823271
   58    14.860315644    30.448819455    17.214724351     0.405246082    -0.225709276     0.186630479
   59    16.512045685    31.927849229    17.929838063     0.411614550    -0.218800587     0.180830765
   60    19.617351604    36.607164389    19.175459312     0.407591317    -0.218984288     0.189513059
   61    19.782228908    31.980660723    20.078869138     0.423031989    -0.205749985     0.169442850
   62    19.613998104    37.496571185    12.513031206     0.420607240    -0.198150444     0.183918328
   63    12.876577407    38.030202703    19.706867164     0.399797465    -0.226907196     0.196659889
   64    14.216536891    39.351894857    10.773686003     0.406361737    -0.211966536     0.199850761
   65    15.343482601    34.078518773    13.620638574     0.376427879    -0.267401494     0.191829332
   66    11.741792177    36.960266223    18.213994521     0.396395247    -0.231542929     0.198138033
   67    18.572775643    32.989170282    18.325790626     0.413370647    -0.221559630     0.173309085
   68    11.735816449    32.519656392    15.425158558     0.471168739    -0.150757197     0.072610512
   21    22.629678850    36.732966450    14.491661303    -0.412247956     0.204518239    -0.195509368
   22    29.961984520    32.116588905    16.531588023     0.457699419    -0.168268862     0.110439266
   23    29.846058102    39.643914616    17.396427654     0.408662497    -0.217669562     0.188719171
   24    24.792848676    34.531628264    18.224539075     0.417558092    -0.201838504     0.186832701
   25    26.071507486    30.775478547    11.509555146     0.402301497    -0.222816673     0.196230059
   26    22.630733443    31.357856430    18.046700353     0.103946743     0.382620594    -0.304625271
   27    21.295356620    33.358114907    13.334903778     0.417207139    -0.213691686     0.173994444
   28    28.288517338    35.796928654    11.604182643     0.423397314    -0.198010365     0.177557343
   29    29.001147159    38.449741557    15.683697469     0.400823081    -0.224507005     0.197325777
   30    27.771113889    39.363402937    12.380742743     0.413731290    -0.216900298     0.178271368
   31    26.283482950    40.327153629    19.395133958     0.407146305    -0.227425673     0.180303770
   32    28.410357839    30.978140866    18.624062460     0.405964867    -0.226956017     0.183530632
   33    21.473581170    38.352467454    16.026279845     0.408429256    -0.224861631     0.180617800
   34    31.070885142    33.337233415    18.744512320     0.483253671     0.104879486    -0.073933635
   35    28.443174353    37.938877680    10.920724820     0.416067676    -0.212645873     0.177959046
   36    27.956942722    32.925637556    16.254795527     0.449468112    -0.175265153     0.131379383
   37    28.462502083    35.538517441    18.191506786     0.410262556    -0.214305352     0.189097465
   38    26.547550273    36.455724212    14.890645532     0.426964154    -0.197017081     0.169958469
   39    28.734056973    36.151064925    14.316171523     0.434316524    -0.184553502     0.165254839
   40    23.500467405    39.169820673    16.863136423     0.407284883    -0.223309851     0.185072242
   41    26.999839449    32.361725237    14.304113536     0.448550163    -0.174360486     0.135650922
   42    21.283949728    38.803312703    13.753147587     0.418146500    -0.199184487     0.188358819
   43    24.821760455    37.388003197    15.897538598     0.423840265    -0.199908649     0.174344376
   44    29.762155664    34.387344586    15.180877431     0.436034123    -0.185140858     0.159990958
   45    25.101586473    39.904052036    15.356702683     0.412761045    -0.210252006     0.188208431
   46    28.193612884    31.582555677    12.656444028     0.446457472    -0.180886846     0.133998785
   47    27.618076914    32.152289416    20.221208757     0.413820743    -0.210202927     0.185922356
   48    30.822992020    33.809139283    11.142310849     0.407374225    -0.227981597     0.179082752
   49    24.062458458    35.661297890    12.232205676    -0.417812352     0.182700105    -0.205069524
   50    27.217218482    39.735384226    17.353259587     0.402149403    -0.217656914     0.202240760
   51    30.494188585    36.168996604    11.281644473     0.418521936    -0.196327805     0.190511896
   52    30.201641155    39.931378362    11.982823101     0.402125604    -0.212911196     0.207277161
   53    29.470867819    34.611539981    19.905835907     0.406864075    -0.224207507     0.184912462
   54    25.629980051    32.718249269    20.217253646     0.403735407    -0.243420974     0.166565154
   55    24.076203197    40.386558497    13.118660180     0.403788183    -0.221355854     0.194824765
   56    27.187344730    34.379180147    20.082712893     0.414199948    -0.211953559     0.183068544
   57    26.077011248    36.305347851    17.712481549     0.416536837    -0.207526375     0.182838362
   58    24.949971594    30.593479667    17.502811220     0.405242600    -0.225704663     0.186643619
   59    26.601701635    32.072509441    18.217924933     0.411610216    -0.218796998     0.180844973
   60    29.707007554    36.751824601    19.463546182     0.407590303    -0.218973722     0.189527449
   61    29.871884858    32.125320935    20.366956008     0.423033136    -0.205736433     0.169456443
   62    29.703654053    37.641231397    12.801118076     0.420598823    -0.198159899     0.183927388
   63    22.966233357    38.174862914    19.994954033     0.399799300    -0.226906880     0.196656523
   64    24.306192841    39.496555068    11.061772872     0.406358388    -0.211970131     0.199853758
   65    25.433138551    34.223178984    13.908725443     0.376426226    -0.267431375     0.191790917
   66    21.831448126    37.104926435    18.502081391     0.396397476    -0.231543137     0.198133330
   67    28.662431593    33.133830494    18.613877495     0.413367498    -0.221551770     0.173326642
   68    21.825472399    32.664316604    15.713245428     0.471169599    -0.150764387     0.072590003
   21    32.719334800    36.877626662    14.779748173    -0.412247836     0.204506947    -0.195521432
   22    40.051640470    32.261249116    16.819674893     0.457709986    -0.168286528     0.110368536
   23    39.935714052    39.788574828    17.684514524     0.408675429    -0.217682852     0.188675832
   24    34.882504626    34.676288476    18.512625944     0.417573705    -0.201829753     0.186807259
   25    36.161163436    30.920138759    11.797642015     0.402310961    -0.222820781     0.196205991
   26    32.720389393    31.502516641    18.334787223     0.103850510     0.382637060    -0.304637411
   27    31.385012570    33.502775119    13.622990648     0.417190493    -0.213712851     0.174008362
   28    38.378173288    35.941588866    11.892269512     0.423407485    -0.198005758     0.177538224
   29    39.090803109    38.594401768    15.971784338     0.400839755    -0.224518940     0.197278322
   30    37.860769839    39.508063149    12.668829613     0.413742537    -0.216902314     0.178242810
   31    36.373138900    40.471813841    19.683220828     0.407156675    -0.227437209     0.180265798
   32    38.500013789    31.122801078    18.912149330     0.405979185    -0.226949355     0.183507197
   33    31.563237120    38.497127665    16.314366715     0.408429253    -0.224861736     0.180617677
   34    41.160541091    33.481893626    19.032599190     0.483244919     0.104802744    -0.074099483
   35    38.532830303    38.083537892    11.208811689     0.416078305    -0.212644268     0.177936111
   36    38.046598671    33.070297768    16.542882397     0.449481242    -0.175272079     0.131325212
   37    38.552158033    35.683177653    18.479593655     0.410277490    -0.214294678     0.189077159
   38    36.637206222    36.600384423    15.178732402     0.426975299    -0.197013030     0.169935165
   39    38.823712923    36.295725137    14.604258392     0.434326977    -0.184550865     0.165230309
   40    33.590123355    39.314480885    17.151223293     0.407289575    -0.223312254     0.185059016
   41    37.089495398    32.506385449    14.592200406     0.448562599    -0.174367340     0.135600978
   42    31.373605678    38.947972915    14.041234456     0.418140459    -0.199187731     0.188368798
   43    34.911416405    37.532663409    16.185625467     0.423850612    -0.199905441     0.174322900
   44    39.851811613    34.532004798    15.468964301     0.436045015    -0.185138160     0.159964391
   45    35.191242423    40.048712247    15.644789552     0.412768022    -0.210257701     0.188186767
   46    38.283268834    31.727215888    12.944530897     0.446469287    -0.180893101     0.133950967
   47    37.707732864    32.296949627    20.509295627     0.413836261    -0.210193217     0.185898791
   48    40.912647970    33.953799495    11.430397718     0.407385526    -0.227966703     0.179076004
   49    34.152114407    35.805958102    12.520292546    -0.417886077     0.182352390    -0.205228732
   50    37.306874432    39.880044438    17.641346457     0.402162234    -0.217666495     0.202204932
   51    40.583844535    36.313656816    11.569731342     0.418532943    -0.196325549     0.190490036
   52    40.291297105    40.076038574    12.270909971     0.402138985    -0.212914900     0.207247394
   53    39.560523769    34.756200193    20.193922777     0.406880490    -0.224192997     0.184893933
   54    35.719636001    32.862909481    20.505340516     0.403752289    -0.243408767     0.166542071
   55    34.165859147    40.531218708    13.406747050     0.403793272    -0.221365407     0.194803362
   56    37.277000680    34.523840359    20.370799763     0.414216278    -0.211943001     0.183043819
   57    36.166667198    36.450008063    18.000568419     0.416551629    -0.207518475     0.182813629
   58    35.039627543    30.738139878    17.790898090     0.405254848    -0.225698698     0.186624237
   59    36.691357584    32.217169652    18.506011802     0.411624077    -0.218790493     0.180821292
   60    39.796663504    36.896484812    19.751633051     0.407603484    -0.218966660     0.189507260
   61    39.961540808    32.269981147    20.655042877     0.423049506    -0.205725087     0.169429348
   62    39.793310003    37.785891608    13.089204945     0.420609174    -0.198160174     0.183903421
   63    33.055889307    38.319523126    20.283040903     0.399802041    -0.226901893     0.196656703
   64    34.395848791    39.641215280    11.349859742     0.406362511    -0.211980689     0.199834173
   65    35.522794500    34.367839196    14.196812313     0.376285091    -0.267592872     0.191842606
   66    31.921104076    37.249586647    18.790168261     0.396398695    -0.231537424     0.198137569
   67    38.752087543    33.278490706    18.901964365     0.413382887    -0.221540838     0.173303913
   68    31.915128349    32.808976816    16.001332297     0.471162399    -0.150790137     0.072583250
   21     2.332011708     6.400501200    23.835596655    -0.412244613     0.204532042    -0.195501975
   22     9.664317379     1.784123655    25.875523375     0.457694208    -0.168291146     0.110426907
   23     9.548390960     9.311449367    26.740363006     0.408669790    -0.217676618     0.188695237
   24     4.495181534     4.199163015    27.568474427     0.417563278    -0.201830507     0.186829750
   25     5.773840344     0.443013297    20.853490498     0.402294661    -0.222832439     0.196226170
   26     2.333066301     1.025391180    27.390635705     0.104022700     0.382415422    -0.304856889
   27     0.997689478     3.025649657    22.678839130     0.417211854    -0.213688268     0.173987335
   28     7.990850196     5.464463404    20.948117995     0.423397224    -0.198006303     0.177562086
   29     8.703480017     8.117276307    25.027632821     0.400832311    -0.224510931     0.197302560
   30     7.473446747     9.030937687    21.724678095     0.413736943    -0.216895493     0.178264093
   31     5.985815809     9.994688379    28.739069310     0.407152136    -0.227429031     0.180286367
   32     8.112690697     0.645675616    27.967997812     0.405965277    -0.226954421     0.183531700
   33     1.175914029     8.020002204    25.370215197     0.408433396    -0.224866414     0.180602483
   34    10.773218000     3.004768165    28.088447672     0.483263291     0.104805114    -0.073976213
   35     8.145507211     7.606412431    20.264660171     0.416068856    -0.212642801     0.177959956
   36     7.659275580     2.593172306    25.598730879     0.449465877    -0.175278893     0.131368697
   37     8.164834941     5.206052191    27.535442138     0.410269638    -0.214293021     0.189096074
   38     6.249883131     6.123258962    24.234580884     0.426967706    -0.197014655     0.169952358
   39     8.436389831     5.818599676    23.660106875     0.434318927    -0.184551058     0.165251254
   40     3.202800263     8.837355423    26.207071775     0.407289614    -0.223312229     0.185058960
   41     6.702172307     2.029259987    23.648048888     0.448547357    -0.174375630     0.135640731
   42     0.986282586     8.470847453    23.097082939     0.418150002    -0.199194761     0.188340179
   43     4.524093314     7.055537947    25.241473950     0.423844260    -0.199905820     0.174337910
   44     9.464488522     4.054879336    24.524812783     0.436036657    -0.185138870     0.159986351
   45     4.803919332     9.571586786    24.700638035     0.412767247    -0.210252654     0.188194106
   46     7.895945742     1.250090427    22.000379380     0.446454124    -0.180903028     0.133988093
   47     7.320409772     1.819824166    29.565144109     0.413822216    -0.210199107     0.185923395
   48    10.525324878     3.476674033    20.486246201     0.407372068    -0.227968635     0.179104158
   49     3.764791316     5.328832640    21.576141028    -0.417615631     0.182840832    -0.205344625
   50     6.919551340     9.402918976    26.697194939     0.402155889    -0.217658312     0.202226359
   51    10.196521444     5.836531355    20.625579825     0.418523199    -0.196324989     0.190512022
   52     9.903974014     9.598913112    21.326758453     0.402131513    -0.212908540     0.207268424
   53     9.173200677     4.279074732    29.249771259     0.406871353    -0.224193064     0.184913960
   54     5.332312909     2.385784020    29.561188998     0.403738098    -0.243412787     0.166570595
   55     3.778536055    10.054093247    22.462595532     0.403797411    -0.221353786     0.194807989
   56     6.889677588     4.046714898    29.426648245     0.414203156    -0.211946852     0.183069050
   57     5.779344107     5.972882602    27.056416901     0.416542044    -0.207519140     0.182834713
   58     4.652304452     0.261014417    26.846746572     0.405242579    -0.225700569     0.186648614
   59     6.304034493     1.740044191    27.561860285     0.411610556    -0.218794053     0.180847760
   60     9.409340412     6.419359351    28.807481534     0.407597849    -0.218961187     0.189525704
   61     9.574217716     1.792855685    29.710891360     0.423034548    -0.205732942     0.169457157
   62     9.405986912     7.308766147    22.145053428     0.420602083    -0.198158221     0.183921743
   63     2.668566215     7.842397665    29.338889385     0.399804666    -0.226901781     0.196651497
   64     4.008525699     9.164089819    20.405708224     0.406367646    -0.211969797     0.199835286
   65     5.135471409     3.890713734    23.252660795     0.376515471    -0.267376214     0.191692619
   66     1.533780985     6.772461185    27.846016743     0.396403028    -0.231539582     0.198126377
   67     8.364764451     2.801365244    27.957812847     0.413370673    -0.221545377     0.173327243
   68     1.527805257     2.331851354    25.057180780     0.471152380    -0.150867241     0.072488004
   21    12.421667658     6.545161412    24.123683524    -0.412250872     0.204510392    -0.195511427
   22    19.753973328     1.928783866    26.163610245     0.457694004    -0.168264793     0.110467905
   23    19.638046910     9.456109578    27.028449876     0.408671873    -0.217676377     0.188691004
   24    14.584837484     4.343823226    27.856561296     0.417562889    -0.201843700     0.186816366
   25    15.863496294     0.587673509    21.141577367     0.402298470    -0.222828439     0.196222903
   26    12.422722251     1.170051392    27.678722575     0.103952066     0.382537389    -0.304727935
   27    11.087345428     3.170309869    22.966926000     0.417199793    -0.213696208     0.174006505
   28    18.080506146     5.609123616    21.236204864     0.423402921    -0.198007523     0.177547141
   29    18.793135967     8.261936519    25.315719690     0.400835073    -0.224514239     0.197293185
   30    17.563102697     9.175597899    22.012764964     0.413737209    -0.216900960     0.178256823
   31    16.075471758    10.139348591    29.027156180     0.407153408    -0.227423263     0.180290770
   32    18.202346647     0.790335828    28.256084682     0.405962069    -0.226969355     0.183520328
   33    11.265569978     8.164662416    25.658302067     0.408431120    -0.224861676     0.180613529
   34    20.862873950     3.149428376    28.376534542     0.483269529     0.104944374    -0.073737646
   35    18.235163161     7.751072642    20.552747041     0.416073987    -0.212644889     0.177945466
   36    17.748931530     2.737832518    25.886817749     0.449465462    -0.175267589     0.131385200
   37    18.254490891     5.350712403    27.823529007     0.410268243    -0.214309354     0.189080590
   38    16.339539081     6.267919174    24.522667754     0.426969575    -0.197017945     0.169943848
   39    18.526045781     5.963259887    23.948193744     0.434322871    -0.184552871     0.165238863
   40    13.292456213     8.982015635    26.495158645     0.407288658    -0.223312549     0.185060678
   41    16.791828257     2.173920199    23.936135758     0.448547739    -0.174366489     0.135651219
   42    11.075938536     8.615507665    23.385169808     0.418144476    -0.199187269     0.188360370
   43    14.613749263     7.200198159    25.529560819     0.423845359    -0.199909785     0.174330690
   44    19.554144472     4.199539548    24.812899653     0.436040838    -0.185138754     0.159975089
   45    14.893575281     9.716246998    24.988724904     0.412765237    -0.210254523     0.188196426
   46    17.985601692     1.394750638    22.288466249     0.446455829    -0.180894188     0.133994349
   47    17.410065722     1.964484377    29.853230979     0.413820078    -0.210213048     0.185912391
   48    20.614980828     3.621334245    20.774333070     0.407378817    -0.227973440     0.179082692
   49    13.854447266     5.473492852    21.864227898    -0.417846249     0.182541878    -0.205141353
   50    17.009207290     9.547579188    26.985281809     0.402155530    -0.217657933     0.202227480
   51    20.286177393     5.981191566    20.913666694     0.418529110    -0.196326441     0.190497540
   52    19.993629963     9.743573324    21.614845323     0.402133002    -0.212915639     0.207258244
   53    19.262856627     4.423734943    29.537858129     0.406870210    -0.224213825     0.184891301
   54    15.421968859     2.530444231    29.849275868     0.403735920    -0.243428119     0.166553467
   55    13.868192005    10.198753458    22.750682402     0.403790456    -0.221361997     0.194813074
   56    16.979333538     4.191375109    29.714735115     0.414201718    -0.211963401     0.183053144
   57    15.869000056     6.117542813    27.344503771     0.416542141    -0.207530404     0.182821705
   58    14.741960402     0.405674629    27.134833442     0.405239166    -0.225715386     0.186638106
   59    16.393690443     1.884704402    27.849947154     0.411608049    -0.218807589     0.180837088
   60    19.498996362     6.564019562    29.095568403     0.407596650    -0.218977253     0.189509720
   61    19.663873666     1.937515897    29.998978229     0.423032005    -0.205744315     0.169449696
   62    19.495642861     7.453426359    22.433140297     0.420605742    -0.198161565     0.183909772
   63    12.758222165     7.987057876    29.626976255     0.399806494    -0.226890989     0.196660230
   64    14.098181649     9.308750030    20.693795094     0.406358858    -0.211978560     0.199843860
   65    15.225127359     4.035373946    23.540747665     0.376421132    -0.267512176     0.191688203
   66    11.623436934     6.917121397    28.134103612     0.396404406    -0.231526222     0.198139234
   67    18.454420401     2.946025456    28.245899717     0.413369553    -0.221561265     0.173309603
   68    11.617461207     2.476511566    25.345267649     0.471154479    -0.150823574     0.072565185
   21    22.511323608     6.689821624    24.411770394    -0.412251703     0.204526502    -0.195492821
   22    29.843629278     2.073444078    26.451697114     0.457711552    -0.168199660     0.110494387
   23    29.727702860     9.600769790    27.316536745     0.408671686    -0.217686166     0.188680116
   24    24.674493434     4.488483438    28.144648166     0.417559977    -0.201861158     0.186804011
   25    25.953152244     0.732333720    21.429664237     0.402296026    -0.222827906     0.196228519
   26    22.512378201     1.314711603    27.966809444     0.104126304     0.382917517    -0.304190546
   27    21.177001378     3.314970081    23.255012870     0.417207486    -0.213708064     0.173973494
   28    28.170162096     5.753783827    21.524291734     0.423402797    -0.198017741     0.177536041
   29    28.882791917     8.406596730    25.603806560     0.400834597    -0.224522319     0.197284957
   30    27.652758647     9.320258110    22.300851834     0.413736503    -0.216909342     0.178248263
   31    26.165127708    10.284008803    29.315243049     0.407151431    -0.227439263     0.180275051
   32    28.292002597     0.934996040    28.544171552     0.405962287    -0.226978576     0.183508441
   33    21.355225928     8.309322627    25.946388936     0.408432150    -0.224870694     0.180599972
   34    30.952529899     3.294088588    28.664621411     0.483244579     0.105103960    -0.073673841
   35    28.324819111     7.895732854    20.840833911     0.416072833    -0.212653174     0.177938264
   36    27.838587479     2.882492730    26.174904618     0.449474229    -0.175231942     0.131402753
   37    28.344146841     5.495372614    28.111615877     0.410264133    -0.214327806     0.189068593
   38    26.429195030     6.412579385    24.810754623     0.426968164    -0.197032749     0.169930229
   39    28.615701731     6.107920099    24.236280614     0.434322481    -0.184563461     0.165228059
   40    23.382112163     9.126675846    26.783245515     0.407288284    -0.223322862     0.185049055
   41    26.881484206     2.318580410    24.224222628     0.448553979    -0.174336318     0.135669363
   42    21.165594486     8.760167877    23.673256678     0.418147587    -0.199194398     0.188345925
   43    24.703405213     7.344858371    25.817647689     0.423843844    -0.199924872     0.174317071
   44    29.643800421     4.344199759    25.100986522     0.436041499    -0.185148352     0.159962179
   45    24.983231231     9.860907209    25.276811774     0.412764727    -0.210267214     0.188183365
   46    28.075257642     1.539410850    22.576553119     0.446460281    -0.180869662     0.134012624
   47    27.499721672     2.109144589    30.141317848     0.413815812    -0.210236272     0.185895627
   48    30.704636778     3.765994456    21.062419940     0.407378767    -0.227986590     0.179066064
   49    23.944103215     5.618153064    22.152314767    -0.417899312     0.182553332    -0.205023039
   50    27.098863240     9.692239399    27.273368679     0.402155884    -0.217672227     0.202211391
   51    30.375833343     6.125851778    21.201753564     0.418528575    -0.196334976     0.190489919
   52    30.083285913     9.888233536    21.902932192     0.402133446    -0.212919611     0.207253301
   53    29.352512577     4.568395155    29.825944999     0.406864957    -0.224235324     0.184876787
   54    25.511624809     2.675104443    30.137362737     0.403730407    -0.243448935     0.166536405
   55    23.957847955    10.343413670    23.038769271     0.403791191    -0.221370733     0.194801625
   56    27.068989488     4.336035321    30.002821984     0.414198393    -0.211983156     0.183037791
   57    25.958656006     6.262203025    27.632590640     0.416538796    -0.207547881     0.182809487
   58    24.831616351     0.550334840    27.422920312     0.405237414    -0.225735443     0.186617653
   59    26.483346392     2.029364614    28.138034024     0.411608079    -0.218820303     0.180821636
   60    29.588652312     6.708679774    29.383655273     0.407590769    -0.218994542     0.189502389
   61    29.753529616     2.082176108    30.287065099     0.423025779    -0.205770287     0.169433703
   62    29.585298811     7.598086570    22.721227167     0.420606047    -0.198168402     0.183901706
   63    22.847878115     8.131718088    29.915063125     0.399804063    -0.226908227     0.196645284
   64    24.187837599     9.453410242    20.981881964     0.406361373    -0.211985121     0.199831786
   65    25.314783308     4.180034158    23.828834535     0.376387839    -0.267444605     0.191847798
   66    21.713092884     7.061781608    28.422190482     0.396402553    -0.231542622     0.198123776
   67    28.544076351     3.090685667    28.533986586     0.413366892    -0.221577217     0.173295556
   68    21.707117157     2.621171777    25.633354519     0.471158074    -0.150774642     0.072643488
   21    32.600979558     6.834481835    24.699857264    -0.412259536     0.204511282    -0.195492226
   22    39.933285228     2.218104290    26.739783984     0.457695413    -0.168326999     0.110367254
   23    39.817358810     9.745430001    27.604623615     0.408675119    -0.217677456     0.188682729
   24    34.764149383     4.633143649    28.432735035     0.417567612    -0.201846765     0.186802497
   25    36.042808193     0.876993932    21.717751106     0.402307269    -0.222832309     0.196200467
   26    32.602034150     1.459371815    28.254896314     0.103873179     0.382900535    -0.304298444
   27    31.266657328     3.459630292    23.543099739     0.417200115    -0.213752895     0.173936092
   28    38.259818045     5.898444039    21.812378603     0.423409765    -0.198009411     0.177528713
   29    38.972447867     8.551256942    25.891893429     0.400838330    -0.224516968     0.197283463
   30    37.742414596     9.464918322    22.588938704     0.413746230    -0.216897745     0.178239797
   31    36.254783658    10.428669014    29.603329919     0.407156337    -0.227429664     0.180276080
   32    38.381658547     1.079656251    28.832258421     0.405967741    -0.226973801     0.183502280
   33    31.444881878     8.453982839    26.234475806     0.408434367    -0.224870387     0.180595339
   34    41.042185849     3.438748800    28.952708281     0.483253382     0.104758898    -0.074106286
   35    38.414475061     8.040393065    21.128920780     0.416080939    -0.212645496     0.177928485
   36    37.928243429     3.027152941    26.462991488     0.449470573    -0.175302934     0.131320545
   37    38.433802790     5.640032826    28.399702747     0.410270483    -0.214310196     0.189074776
   38    36.518850980     6.557239597    25.098841493     0.426974787    -0.197021197     0.169926983
   39    38.705357681     6.252580310    24.524367483     0.434327097    -0.184557898     0.165222140
   40    33.471768113     9.271336058    27.071332384     0.407292995    -0.223317676     0.185044945
   41    36.971140156     2.463240622    24.512309497     0.448553298    -0.174394246     0.135597145
   42    31.255250436     8.904828088    23.961343547     0.418148581    -0.199197348     0.188340598
   43    34.793061163     7.489518582    26.105734558     0.423850604    -0.199912880     0.174314386
   44    39.733456371     4.488859971    25.389073392     0.436044933    -0.185145843     0.159955722
   45    35.072887181    10.005567421    25.564898643     0.412771176    -0.210257068     0.188180557
   46    38.164913591     1.684071062    22.864639988     0.446461077    -0.180916178     0.133947167
   47    37.589377621     2.253804801    30.429404718     0.413827046    -0.210217476     0.185891874
   48    40.794292728     3.910654668    21.350506809     0.407385534    -0.227977269     0.179062535
   49    34.033759165     5.762813275    22.440401637    -0.418036390     0.182174083    -0.205080911
   50    37.188519189     9.836899611    27.561455548     0.402160648    -0.217662395     0.202212500
   51    40.465489293     6.270511990    21.489840433     0.418534619    -0.196329938     0.190481830
   52    40.172941863    10.032893747    22.191019062     0.402143037    -0.212914873     0.207239559
   53    39.442168527     4.713055366    30.114031868     0.406870891    -0.224211082     0.184893129
   54    35.601280758     2.819764655    30.425449607     0.403740140    -0.243431556     0.166538213
   55    34.047503904    10.488073882    23.326856141     0.403800090    -0.221359059     0.194796443
   56    37.158645437     4.480695532    30.290908854     0.414206658    -0.211964979     0.183040138
   57    36.048311956     6.406863237    27.920677510     0.416546430    -0.207533117     0.182808854
   58    34.921272301     0.694995052    27.711007181     0.405246163    -0.225725522     0.186610654
   59    36.573002342     2.174024826    28.426120893     0.411614208    -0.218815642     0.180813326
   60    39.678308261     6.853339986    29.671742142     0.407597101    -0.218978751     0.189507019
   61    39.843185566     2.226836320    30.575151969     0.423040291    -0.205751119     0.169420746
   62    39.674954761     7.742746782    23.009314036     0.420610295    -0.198164065     0.183896663
   63    32.937534065     8.276378300    30.203149994     0.399801523    -0.226914228     0.196643523
   64    34.277493549     9.598070453    21.269968833     0.406369802    -0.211974556     0.199825854
   65    35.404439258     4.324694369    24.116921404     0.376407918    -0.267478509     0.191761117
   66    31.802748834     7.206441820    28.710277352     0.396398796    -0.231552631     0.198119594
   67    38.633732300     3.235345879    28.822073456     0.413371960    -0.221564334     0.173299939
   68    31.796773107     2.765831989    25.921441389     0.471181921    -0.150680034     0.072685102
   21     2.467087179    16.425594721    23.866222078    -0.412257091     0.204525578    -0.195482427
   22     9.799392850    11.809217176    25.906148799     0.457696064    -0.168289319     0.110421998
   23     9.683466431    19.336542888    26.770988430     0.408674555    -0.217675968     0.188685667
   24     4.630257005    14.224256536    27.599099850     0.417566399    -0.201835070     0.186817845
   25     5.908915815    10.468106818    20.884115921     0.402307771    -0.222813846     0.196220405
   26     2.468141772    11.050484701    27.421261129     0.103994558     0.382862283    -0.304305117
   27     1.132764949    13.050743178    22.709464554     0.417212135    -0.213719920     0.173947781
   28     8.125925667    15.489556925    20.978743418     0.423407489    -0.198005643     0.177538344
   29     8.838555488    18.142369828    25.058258244     0.400838700    -0.224511810     0.197288580
   30     7.608522218    19.056031208    21.755303518     0.413743246    -0.216898618     0.178245661
   31     6.120891280    20.019781900    28.769694734     0.407154605    -0.227428327     0.180281678
   32     8.247766168    10.670769137    27.998623236     0.405969302    -0.226955135     0.183521914
   33     1.310989500    18.045095725    25.400840621     0.408437590    -0.224868913     0.180589885
   34    10.908293471    13.029861686    28.119073096     0.483261215     0.104804815    -0.073990196
   35     8.280582682    17.631505952    20.295285595     0.416078164    -0.212643129     0.177937802
   36     7.794351051    12.618265827    25.629356302     0.449469250    -0.175275495     0.131361693
   37     8.299910412    15.231145712    27.566067561     0.410269974    -0.214300108     0.189087313
   38     6.384958602    16.148352483    24.265206308     0.426974442    -0.197014221     0.169935937
   39     8.571465302    15.843693197    23.690732298     0.434326641    -0.184549666     0.165232531
   40     3.337875734    18.862448944    26.237697199     0.407293844    -0.223317078     0.185043798
   41     6.837247778    12.054353508    23.678674312     0.448551712    -0.174368936     0.135634935
   42     1.121358057    18.495940974    23.127708362     0.418153651    -0.199195097     0.188331722
   43     4.659168785    17.080631468    25.272099373     0.423850273    -0.199907823     0.174320993
   44     9.599563993    14.079972857    24.555438207     0.436044616    -0.185135385     0.159968691
   45     4.938994803    19.596680307    24.731263458     0.412771233    -0.210256293     0.188181297
   46     8.031021213    11.275183948    22.031004803     0.446460313    -0.180891918     0.133982473
   47     7.455485243    11.844917687    29.595769533     0.413826244    -0.210197664     0.185916062
   48    10.660400349    13.501767554    20.516871624     0.407382845    -0.227970795     0.179076895
   49     3.899866787    15.353926161    21.606766452    -0.417832574     0.182794007    -0.204944605
   50     7.054626811    19.428012497    26.727820363     0.402160414    -0.217659637     0.202215934
   51    10.331596915    15.861624876    20.656205248     0.418532625    -0.196324895     0.190491409
   52    10.039049485    19.624006633    21.357383877     0.402139330    -0.212911990     0.207249712
   53     9.308276148    14.304168253    29.280396683     0.406871831    -0.224199156     0.184905522
   54     5.467388380    12.410877541    29.591814422     0.403743019    -0.243412248     0.166559455
   55     3.913611526    20.079186768    22.493220956     0.403800285    -0.221360388     0.194794529
   56     7.024753059    14.071808419    29.457273669     0.414206792    -0.211948589     0.183058812
   57     5.914419578    15.997976123    27.087042325     0.416545474    -0.207522943     0.182822581
   58     4.787379923    10.286107938    26.877371996     0.405246712    -0.225711678     0.186626206
   59     6.439109964    11.765137712    27.592485708     0.411614768    -0.218799716     0.180831322
   60     9.544415883    16.444452872    28.838106957     0.407596699    -0.218970157     0.189517814
   61     9.709293187    11.817949206    29.741516783     0.423038540    -0.205730820     0.169449768
   62     9.541062383    17.333859668    22.175678851     0.420609644    -0.198157800     0.183904904
   63     2.803641686    17.867491186    29.369514809     0.399809751    -0.226903730     0.196638909
   64     4.143601170    19.189183340    20.436333648     0.406370388    -0.211975776     0.199823368
   65     5.270546880    13.915807255    23.283286219     0.376328406    -0.267608738     0.191735479
   66     1.668856456    16.797554706    27.876642166     0.396408774    -0.231540289     0.198114053
   67     8.499839922    12.826458765    27.988438271     0.413373236    -0.221547365     0.173318589
   68     1.662880728    12.356944875    25.087806203     0.471173493    -0.150735985     0.072623707
   21    12.556743129    16.570254933    24.154308948    -0.412253453     0.204512756    -0.195503511
   22    19.889048799    11.953877388    26.194235668     0.457703439    -0.168255804     0.110442500
   23    19.773122381    19.481203099    27.059075299     0.408667844    -0.217686034     0.188688589
   24    14.719912955    14.368916747    27.887186720     0.417565872    -0.201835433     0.186818629
   25    15.998571765    10.612767030    21.172202791     0.402300871    -0.222825902     0.196220863
   26    12.557797722    11.195144913    27.709347998     0.103902969     0.382469888    -0.304829391
   27    11.222420899    13.195403390    22.997551424     0.417212025    -0.213690806     0.173983809
   28    18.215581617    15.634217137    21.266830288     0.423396976    -0.198022068     0.177545095
   29    18.928211438    18.287030040    25.346345114     0.400828541    -0.224524959     0.197294255
   30    17.698178168    19.200691420    22.043390388     0.413730381    -0.216916657     0.178253571
   31    16.210547229    20.164442112    29.057781603     0.407148850    -0.227432797     0.180289038
   32    18.337422118    10.815429349    28.286710106     0.405970583    -0.226954280     0.183520138
   33    11.400645449    18.189755937    25.688927490     0.408432825    -0.224863788     0.180607043
   34    20.997949421    13.174521897    28.407159965     0.483254870     0.104928171    -0.073856685
   35    18.370238632    17.776166163    20.583372465     0.416066560    -0.212659077     0.177945876
   36    17.884007001    12.762926039    25.917443172     0.449471341    -0.175261232     0.131373567
   37    18.389566362    15.375805924    27.854154431     0.410272602    -0.214298580     0.189083343
   38    16.474614552    16.293012695    24.553293177     0.426968553    -0.197021016     0.169942856
   39    18.661121252    15.988353408    23.978819168     0.434319529    -0.184561166     0.165238383
   40    13.427531684    19.007109156    26.525784069     0.407287089    -0.223316494     0.185059370
   41    16.926903728    12.199013720    23.966761181     0.448551785    -0.174362000     0.135643612
   42    11.211014007    18.640601186    23.415795232     0.418149763    -0.199188682     0.188347138
   43    14.748824734    17.225291680    25.560186243     0.423844384    -0.199912449     0.174330006
   44    19.689219943    14.224633069    24.843525076     0.436038092    -0.185147482     0.159972472
   45    15.028650752    19.741340519    25.019350328     0.412763286    -0.210260675     0.188193833
   46    18.120677163    11.419844159    22.319091673     0.446458609    -0.180891114     0.133989237
   47    17.545141193    11.989577899    29.883856402     0.413828108    -0.210198822     0.185910604
   48    20.750056299    13.646427766    20.804958494     0.407375295    -0.227984405     0.179076743
   49    13.989522737    15.498586373    21.894853321    -0.417821006     0.182568357    -0.205169204
   50    17.144282761    19.572672709    27.015907233     0.402150305    -0.217666375     0.202228785
   51    20.421252864    16.006285087    20.944292118     0.418522531    -0.196340004     0.190498016
   52    20.128705434    19.768666845    21.645470746     0.402125050    -0.212930294     0.207258617
   53    19.397932098    14.448828464    29.568483553     0.406875160    -0.224200895     0.184896088
   54    15.557044330    12.555537752    29.879901291     0.403743389    -0.243414980     0.166554567
   55    14.003267476    20.223846979    22.781307825     0.403788366    -0.221370353     0.194807911
   56    17.114409009    14.216468630    29.745360538     0.414208447    -0.211948837     0.183054781
   57    16.004075527    16.142636334    27.375129194     0.416544113    -0.207524581     0.182823823
   58    14.877035873    10.430768150    27.165458866     0.405247709    -0.225698081     0.186640486
   59    16.528765914    11.909797924    27.880572578     0.411615928    -0.218792050     0.180837958
   60    19.634071833    16.589113083    29.126193827     0.407601072    -0.218966089     0.189513107
   61    19.798949137    11.962609418    30.029603653     0.423040044    -0.205730947     0.169445858
   62    19.630718332    17.478519880    22.463765721     0.420600589    -0.198172025     0.183910285
   63    12.893297636    18.012151397    29.657601678     0.399804023    -0.226897599     0.196657628
   64    14.233257120    19.333843551    20.724420518     0.406358760    -0.211985890     0.199836284
   65    15.360202830    14.060467467    23.571373089     0.376405897    -0.267463988     0.191785338
   66    11.758512405    16.942214918    28.164729036     0.396402012    -0.231534045     0.198134880
   67    18.589495872    12.971118977    28.276525140     0.413375539    -0.221549133     0.173310835
   68    11.752536678    12.501605087    25.375893073     0.471155178    -0.150823297     0.072561226
   21    22.646399079    16.714915145    24.442395818    -0.412245208     0.204528059    -0.195504889
   22    29.978704749    12.098537599    26.482322538     0.457693779    -0.168297172     0.110419502
   23    29.862778331    19.625863311    27.347162169     0.408678782    -0.217673951     0.188678838
   24    24.809568905    14.513576959    28.175273589     0.417568871    -0.201839859     0.186807145
   25    26.088227715    10.757427241    21.460289660     0.402300821    -0.222833463     0.196212377
   26    22.647453672    11.339805124    27.997434868     0.103981774     0.382720164    -0.304488204
   27    21.312076849    13.340063602    23.285638293     0.417198169    -0.213724178     0.173976043
   28    28.305237567    15.778877348    21.554917157     0.423401164    -0.198014248     0.177543832
   29    29.017867388    18.431690251    25.634431983     0.400841412    -0.224510841     0.197284173
   30    27.787834118    19.345351631    22.331477258     0.413736461    -0.216906581     0.178251721
   31    26.300203179    20.309102324    29.345868473     0.407160340    -0.227420747     0.180278287
   32    28.427078068    10.960089561    28.574796975     0.405970326    -0.226965199     0.183507202
   33    21.490301399    18.334416148    25.977014360     0.408430995    -0.224869491     0.180604082
   34    31.087605370    13.319182109    28.695246835     0.483261981     0.104822145    -0.073960635
   35    28.459894582    17.920826375    20.871459334     0.416072547    -0.212651011     0.177941517
   36    27.973662950    12.907586251    26.205530042     0.449466489    -0.175285708     0.131357512
   37    28.479222312    15.520466135    28.142241300     0.410275389    -0.214303464     0.189071760
   38    26.564270501    16.437672906    24.841380047     0.426972584    -0.197018777     0.169935325
   39    28.750777202    16.133013620    24.266906037     0.434324011    -0.184555073     0.165233407
   40    23.517187634    19.151769367    26.813870938     0.407291455    -0.223314964     0.185051607
   41    27.016559677    12.343673931    24.254848051     0.448547715    -0.174382971     0.135630111
   42    21.300669957    18.785261398    23.703882101     0.418142640    -0.199200521     0.188350432
   43    24.838480684    17.369951892    25.848273112     0.423848286    -0.199911082     0.174322086
   44    29.778875892    14.369293280    25.131611946     0.436041655    -0.185141564     0.159969611
   45    25.118306702    19.886000730    25.307437197     0.412767831    -0.210257231     0.188187710
   46    28.210333113    11.564504371    22.607178542     0.446455347    -0.180908392     0.133976777
   47    27.634797143    12.134238110    30.171943272     0.413828275    -0.210206463     0.185901593
   48    30.839712249    13.791087977    21.093045363     0.407378025    -0.227978916     0.179077522
   49    24.079178686    15.643246585    22.182940191    -0.417784356     0.182607872    -0.205208667
   50    27.233938711    19.717332920    27.303994102     0.402163930    -0.217654410     0.202214567
   51    30.510908814    16.150945299    21.232378987     0.418528734    -0.196331311     0.190493347
   52    30.218361384    19.913327057    21.933557616     0.402131600    -0.212921154     0.207255298
   53    29.487588048    14.593488676    29.856570422     0.406877445    -0.224203388     0.184888035
   54    25.646700280    12.700197964    30.167988161     0.403745209    -0.243420054     0.166542738
   55    24.092923426    20.368507191    23.069394695     0.403790926    -0.221366868     0.194806565
   56    27.204064959    14.361128842    30.033447408     0.414209432    -0.211955525     0.183044809
   57    26.093731477    16.287296546    27.663216064     0.416547433    -0.207527192     0.182813296
   58    24.966691823    10.575428361    27.453545735     0.405246597    -0.225718143     0.186618636
   59    26.618421863    12.054458135    28.168659447     0.411615341    -0.218807484     0.180820619
   60    29.723727783    16.733773295    29.414280696     0.407604532    -0.218971046     0.189499939
   61    29.888605087    12.107269629    30.317690523     0.423041055    -0.205737998     0.169434773
   62    29.720374282    17.623180091    22.751852590     0.420606516    -0.198164047     0.183905327
   63    22.982953586    18.156811609    29.945688548     0.399811673    -0.226891312     0.196649329
   64    24.322913070    19.478503763    21.012507387     0.406359610    -0.211983932     0.199836633
   65    25.449858780    14.205127679    23.859459958     0.376145674    -0.267750621     0.191895901
   66    21.848168355    17.086875129    28.452815906     0.396408251    -0.231528730     0.198128608
   67    28.679151822    13.115779188    28.564612010     0.413375774    -0.221555110     0.173302633
   68    21.842192628    12.646265298    25.663979942     0.471167029    -0.150767272     0.072600690
   21    32.736055029    16.859575356    24.730482687    -0.412261039     0.204511605    -0.195488719
   22    40.068360699    12.243197811    26.770409407     0.457710227    -0.168233555     0.110448266
   23    39.952434281    19.770523523    27.635249039     0.408675730    -0.217687099     0.188670280
   24    34.899224854    14.658237170    28.463360459     0.417572799    -0.201839183     0.186799094
   25    36.177883664    10.902087453    21.748376530     0.402313370    -0.222819572     0.196202423
   26    32.737109622    11.484465336    28.285521738     0.103876545     0.382526504    -0.304767349
   27    31.401732799    13.484723813    23.573725163     0.417208559    -0.213695319     0.173986577
   28    38.394893516    15.923537560    21.843004027     0.423412593    -0.198003965     0.177528042
   29    39.107523338    18.576350463    25.922518853     0.400839687    -0.224521766     0.197275243
   30    37.877490067    19.490011843    22.619564127     0.413746646    -0.216900024     0.178236059
   31    36.389859129    20.453762535    29.633955342     0.407156481    -0.227435842     0.180267962
   32    38.516734018    11.104749772    28.862883845     0.405973923    -0.226959350     0.183506478
   33    31.579957349    18.479076360    26.265101230     0.408437757    -0.224865150     0.180594194
   34    41.177261320    13.463842321    28.983333704     0.483255856     0.104989625    -0.073762838
   35    38.549550532    18.065486586    21.159546204     0.416082834    -0.212642363     0.177927795
   36    38.063318900    13.052246462    26.493616911     0.449479516    -0.175245370     0.131366756
   37    38.568878261    15.665126347    28.430328170     0.410276224    -0.214308656     0.189064062
   38    36.653926451    16.582333118    25.129466916     0.426978574    -0.197016623     0.169922770
   39    38.840433152    16.277673831    24.554992907     0.434331591    -0.184550996     0.165218033
   40    33.606843584    19.296429579    27.101957808     0.407294395    -0.223317559     0.185042005
   41    37.106215627    12.488334143    24.542934921     0.448561686    -0.174344468     0.135633404
   42    31.390325907    18.929921609    23.991968971     0.418151193    -0.199191870     0.188340593
   43    34.928136634    17.514612103    26.136359982     0.423853442    -0.199910242     0.174310512
   44    39.868531842    14.513953492    25.419698815     0.436050343    -0.185136481     0.159951811
   45    35.207962652    20.030660942    25.595524067     0.412771516    -0.210260466     0.188176014
   46    38.299989062    11.709164583    22.895265412     0.446469346    -0.180874546     0.133975826
   47    37.724453093    12.278898322    30.460030141     0.413829966    -0.210205646     0.185898751
   48    40.929368199    13.935748189    21.381132233     0.407390058    -0.227965720     0.179066946
   49    34.168834636    15.787906796    22.471027061    -0.417932863     0.182396813    -0.205093942
   50    37.323594660    19.861993132    27.592080972     0.402160527    -0.217667600     0.202207137
   51    40.600564764    16.295605511    21.520465857     0.418537729    -0.196325060     0.190480025
   52    40.308017334    20.057987268    22.221644485     0.402141847    -0.212915615     0.207241106
   53    39.577243998    14.738148888    30.144657292     0.406878372    -0.224212350     0.184875126
   54    35.736356229    12.844858176    30.456075030     0.403748265    -0.243418789     0.166537180
   55    34.182579375    20.513167403    23.357481564     0.403797416    -0.221365254     0.194794945
   56    37.293720908    14.505789054    30.321534277     0.414212486    -0.211955484     0.183037945
   57    36.183387427    16.431956758    27.951302933     0.416551210    -0.207527648     0.182804171
   58    35.056347772    10.720088573    27.741632605     0.405252378    -0.225703835     0.186623387
   59    36.708077813    12.199118347    28.456746317     0.411620820    -0.218796440     0.180821509
   60    39.813383732    16.878433507    29.702367566     0.407603509    -0.218976976     0.189495287
   61    39.978261037    12.251929841    30.605777392     0.423041147    -0.205736920     0.169435850
   62    39.810030232    17.767840303    23.039939460     0.420613880    -0.198161393     0.183891343
   63    33.072609536    18.301471821    30.233775418     0.399811320    -0.226902468     0.196637174
   64    34.412569020    19.623163974    21.300594257     0.406366228    -0.211981306     0.199825960
   65    35.539514729    14.349787890    24.147546828     0.376385383    -0.267490161     0.191789096
   66    31.937824305    17.231535341    28.740902775     0.396409905    -0.231536942     0.198115702
   67    38.768807772    13.260439400    28.852698879     0.413378857    -0.221556338     0.173293710
   68    31.931848578    12.790925510    25.952066812     0.471153941    -0.150826447     0.072562708
   21     2.602162650    26.450688242    23.896847502    -0.412256134     0.204522024    -0.195488163
   22     9.934468321    21.834310697    25.936774222     0.457705899    -0.168264940     0.110418386
   23     9.818541902    29.361636409    26.801613853     0.408663452    -0.217692626     0.188690496
   24     4.765332476    24.249350057    27.629725274     0.417566905    -0.201839729     0.186811679
   25     6.043991286    20.493200339    20.914741345     0.402309764    -0.222823956     0.196204837
   26     2.603217243    21.075578222    27.451886552     0.104068311     0.382459398    -0.304786147
   27     1.267840420    23.075836699    22.740089977     0.417210368    -0.213703243     0.173972506
   28     8.261001138    25.514650446    21.009368842     0.423401442    -0.198017031     0.177540063
   29     8.973630959    28.167463349    25.088883668     0.400827581    -0.224528678     0.197291973
   30     7.743597689    29.081124729    21.785928942     0.413734162    -0.216909979     0.178252922
   31     6.255966751    30.044875421    28.800320157     0.407147611    -0.227440193     0.180282505
   32     8.382841639    20.695862658    28.029248660     0.405972224    -0.226956859     0.183513317
   33     1.446064971    28.070189246    25.431466044     0.408434593    -0.224868171     0.180597588
   34    11.043368942    23.054955207    28.149698519     0.483255834     0.104891134    -0.073902967
   35     8.415658154    27.656599473    20.325911019     0.416072283    -0.212654647     0.177937788
   36     7.929426522    22.643359348    25.659981726     0.449475684    -0.175265578     0.131352910
   37     8.434985883    25.256239233    27.596692985     0.410268858    -0.214306298     0.189082719
   38     6.520034073    26.173446004    24.295831731     0.426971087    -0.197022841     0.169934372
   39     8.706540773    25.868786718    23.721357722     0.434322871    -0.184561960     0.165228710
   40     3.472951205    28.887542465    26.268322623     0.407288394    -0.223319548     0.185052813
   41     6.972323249    22.079447029    23.709299735     0.448557863    -0.174363535     0.135621537
   42     1.256433528    28.521034495    23.158333786     0.418152586    -0.199193247     0.188336043
   43     4.794244256    27.105724989    25.302724797     0.423847089    -0.199914529     0.174321043
   44     9.734639464    24.105066378    24.586063630     0.436041798    -0.185147803     0.159961999
   45     5.074070274    29.621773828    24.761888882     0.412765006    -0.210263522     0.188186878
   46     8.166096684    21.300277469    22.061630227     0.446464837    -0.180891582     0.133967851
   47     7.590560714    21.870011208    29.626394956     0.413826102    -0.210204488     0.185908660
   48    10.795475820    23.526861075    20.547497048     0.407381800    -0.227979560     0.179068113
   49     4.034942258    25.379019682    21.637391875    -0.417859581     0.182561641    -0.205096606
   50     7.189702282    29.453106018    26.758445787     0.402151173    -0.217672835     0.202220106
   51    10.466672386    25.886718397    20.686830672     0.418527299    -0.196336630     0.190491018
   52    10.174124956    29.649100154    21.388009300     0.402128433    -0.212924075     0.207258442
   53     9.443351619    24.329261774    29.311022107     0.406871180    -0.224206839     0.184897639
   54     5.602463851    22.435971062    29.622439845     0.403742847    -0.243418657     0.166550506
   55     4.048686997    30.104280289    22.523846379     0.403790874    -0.221368196     0.194805164
   56     7.159828530    24.096901940    29.487899092     0.414206962    -0.211954168     0.183051967
   57     6.049495049    26.023069644    27.117667748     0.416544876    -0.207528791     0.182817305
   58     4.922455394    20.311201459    26.907997420     0.405250111    -0.225703877     0.186628259
   59     6.574185435    21.790231233    27.623111132     0.411618431    -0.218796735     0.180826590
   60     9.679491354    26.469546393    28.868732381     0.407594633    -0.218976194     0.189515280
   61     9.844368658    21.843042727    29.772142207     0.423036616    -0.205738360     0.169445415
   62     9.676137854    27.358953189    22.206304275     0.420602156    -0.198171672     0.183907082
   63     2.938717157    27.892584707    29.400140232     0.399806485    -0.226901061     0.196648628
   64     4.278676641    29.214276861    20.466959072     0.406361354    -0.211983223     0.199833839
   65     5.405622351    23.940900776    23.313911642     0.376409437    -0.267522513     0.191696742
   66     1.803931927    26.822648227    27.907267590     0.396406765    -0.231535442     0.198123738
   67     8.634915393    22.851552286    28.019063694     0.413374788    -0.221552998     0.173307684
   68     1.797956199    22.382038396    25.118431627     0.471154888    -0.150844481     0.072519058
   21    12.691818600    26.595348454    24.184934372    -0.412240058     0.204534150    -0.195509376
   22    20.024124270    21.978970909    26.224861092     0.457700395    -0.168293751     0.110397293
   23    19.908197852    29.506296620    27.089700723     0.408659207    -0.217702089     0.188688774
   24    14.854988426    24.394010268    27.917812143     0.417557547    -0.201851434     0.186819950
   25    16.133647236    20.637860551    21.202828214     0.402294068    -0.222841551     0.196217038
   26    12.692873193    21.220238434    27.739973422     0.103931033     0.382656528    -0.304585492
   27    11.357496370    23.220496911    23.028176847     0.417202518    -0.213722769     0.173967346
   28    18.350657088    25.659310658    21.297455711     0.423391983    -0.198028756     0.177549544
   29    19.063286909    28.312123561    25.376970537     0.400821942    -0.224537524     0.197293362
   30    17.833253639    29.225784941    22.074015812     0.413728417    -0.216920379     0.178253601
   31    16.345622700    30.189535633    29.088407027     0.407138479    -0.227454516     0.180285058
   32    18.472497589    20.840522870    28.317335529     0.405965780    -0.226962437     0.183520674
   33    11.535720921    28.214849458    25.719552914     0.408422669    -0.224882668     0.180606504
   34    21.133024892    23.199615419    28.437785389     0.483246146     0.104843564    -0.074033709
   35    18.505314103    27.801259684    20.613997888     0.416062668    -0.212664760     0.177948183
   36    18.019082472    22.788019560    25.948068596     0.449468498    -0.175288780     0.131346537
   37    18.524641833    25.400899445    27.884779854     0.410263985    -0.214311644     0.189087234
   38    16.609690023    26.318106216    24.583918601     0.426960246    -0.197039090     0.169942772
   39    18.796196723    26.013446929    24.009444591     0.434313240    -0.184576467     0.165237822
   40    13.562607155    29.032202677    26.556409492     0.407277583    -0.223335251     0.185057656
   41    17.061979199    22.224107241    23.997386605     0.448549658    -0.174385371     0.135620598
   42    11.346089478    28.665694707    23.446420655     0.418141031    -0.199205970     0.188348241
   43    14.883900205    27.250385201    25.590811666     0.423836134    -0.199930832     0.174328982
   44    19.824295414    24.249726590    24.874150500     0.436031091    -0.185165490     0.159970712
   45    15.163726223    29.766434040    25.049975751     0.412755541    -0.210277791     0.188191694
   46    18.255752634    21.444937680    22.349717096     0.446455388    -0.180912792     0.133970697
   47    17.680216664    22.014671420    29.914481826     0.413824628    -0.210203389     0.185913185
   48    20.885131770    23.671521287    20.835583917     0.407366835    -0.227993214     0.179084775
   49    14.124598208    25.523679894    21.925478745    -0.417798493     0.182497851    -0.205277748
   50    17.279358232    29.597766230    27.046532656     0.402141961    -0.217687003     0.202223174
   51    20.556328336    26.031378608    20.974917541     0.418517314    -0.196347842     0.190501399
   52    20.263780905    29.793760366    21.676096170     0.402123749    -0.212931939     0.207259451
   53    19.533007569    24.473921985    29.599108976     0.406866955    -0.224208688     0.184904692
   54    15.692119801    22.580631273    29.910526715     0.403737454    -0.243422417     0.166558084
   55    14.138342947    30.248940500    22.811933249     0.403785032    -0.221378125     0.194805991
   56    17.249484480    24.241562151    29.775985962     0.414202172    -0.211958007     0.183058363
   57    16.139150998    26.167729855    27.405754618     0.416535674    -0.207540147     0.182825382
   58    15.012111344    20.455861671    27.196084289     0.405243890    -0.225710717     0.186633497
   59    16.663841385    21.934891445    27.911198001     0.411611211    -0.218803954     0.180834291
   60    19.769147304    26.614206605    29.156819250     0.407591887    -0.218980194     0.189516563
   61    19.934024608    21.987702939    30.060229077     0.423038266    -0.205734812     0.169445604
   62    19.765793803    27.503613401    22.494391144     0.420595131    -0.198182052     0.183911962
   63    13.028373107    28.037244918    29.688227102     0.399797107    -0.226914526     0.196652158
   64    14.368332591    29.358937072    20.755045941     0.406356403    -0.211991673     0.199834943
   65    15.495278301    24.085560988    23.601998512     0.376655419    -0.267288345     0.191540169
   66    11.893587876    26.967308439    28.195354460     0.396396597    -0.231547273     0.198130256
   67    18.724571343    22.996212498    28.307150564     0.413369461    -0.221556590     0.173315798
   68    11.887612149    22.526698608    25.406518496     0.471166888    -0.150781917     0.072571186
   21    22.781474550    26.740008666    24.473021241    -0.412241036     0.204533083    -0.195508430
   22    30.113780220    22.123631120    26.512947961     0.457702754    -0.168277829     0.110411779
   23    29.997853802    29.650956832    27.377787592     0.408671738    -0.217673297     0.188694851
   24    24.944644376    24.538670480    28.205899013     0.417572052    -0.201833190     0.186807239
   25    26.223303186    20.782520762    21.490915084     0.402299801    -0.222830673     0.196217637
   26    22.782529143    21.364898645    28.028060291     0.103865048     0.382531041    -0.304765573
   27    21.447152320    23.365157123    23.316263717     0.417185739    -0.213734610     0.173993034
   28    28.440313038    25.803970869    21.585542581     0.423400863    -0.198015077     0.177543624
   29    29.152942859    28.456783772    25.665057407     0.400833556    -0.224511084     0.197299857
   30    27.922909589    29.370445152    22.362102681     0.413734823    -0.216905792     0.178256484
   31    26.435278650    30.334195845    29.376493896     0.407149296    -0.227432151     0.180288844
   32    28.562153539    20.985183082    28.605422399     0.405978946    -0.226949443     0.183507618
   33    21.625376870    28.359509669    26.007639784     0.408423496    -0.224878325     0.180610040
   34    31.222680841    23.344275630    28.725872258     0.483257792     0.104857428    -0.073937988
   35    28.594970053    27.945919896    20.902084758     0.416070453    -0.212651281     0.177946090
   36    28.108738421    22.932679772    26.236155465     0.449473367    -0.175272776     0.131351232
   37    28.614297783    25.545559656    28.172866724     0.410279838    -0.214294368     0.189072416
   38    26.699345972    26.462766427    24.872005470     0.426970718    -0.197020652     0.169937837
   39    28.885852673    26.158107141    24.297531461     0.434321732    -0.184558855     0.165235172
   40    23.652263105    29.176862888    26.844496362     0.407283727    -0.223321833     0.185060327
   41    27.151635148    22.368767453    24.285473475     0.448554672    -0.174370546     0.135623079
   42    21.435745428    28.810354919    23.734507525     0.418137028    -0.199209395     0.188353504
   43    24.973556155    27.395045413    25.878898536     0.423845808    -0.199912696     0.174326262
   44    29.913951363    24.394386801    25.162237369     0.436040131    -0.185146528     0.159968020
   45    25.253382173    29.911094251    25.338062621     0.412761642    -0.210263083     0.188194746
   46    28.345408584    21.589597892    22.637803966     0.446460593    -0.180898815     0.133972226
   47    27.769872614    22.159331631    30.202568695     0.413837887    -0.210191894     0.185896668
   48    30.974787720    23.816181498    21.123670787     0.407376760    -0.227981318     0.179077341
   49    24.214254157    25.668340106    22.213565615    -0.417714242     0.182782426    -0.205195995
   50    27.369014182    29.742426441    27.334619526     0.402152540    -0.217666314     0.202224407
   51    30.645984285    26.176038820    21.263004411     0.418526618    -0.196332980     0.190496274
   52    30.353436855    29.938420578    21.964183039     0.402130225    -0.212919311     0.207259859
   53    29.622663519    24.618582197    29.887195846     0.406884000    -0.224192867     0.184886367
   54    25.781775751    22.725291485    30.198613584     0.403754740    -0.243405861     0.166540376
   55    24.227998897    30.393600712    23.100020118     0.403786209    -0.221370489     0.194812227
   56    27.339140430    24.386222363    30.064072831     0.414217186    -0.211942584     0.183042247
   57    26.228806948    26.312390067    27.693841487     0.416549592    -0.207522068     0.182814191
   58    25.101767294    20.600521882    27.484171159     0.405253354    -0.225698228     0.186628050
   59    26.753497335    22.079551656    28.199284871     0.411622910    -0.218789523     0.180825122
   60    29.858803254    26.758866816    29.444906120     0.407607382    -0.218963074     0.189503018
   61    30.023680558    22.132363150    30.348315946     0.423050068    -0.205724034     0.169429224
   62    29.855449753    27.648273612    22.782478014     0.420604920    -0.198164918     0.183908040
   63    23.118029057    28.181905130    29.976313972     0.399801736    -0.226903684     0.196655258
   64    24.457988541    29.503597284    21.043132811     0.406355428    -0.211987084     0.199841795
   65    25.584934251    24.230221200    23.890085382     0.376651941    -0.267398484     0.191393223
   66    21.983243826    27.111968650    28.483441329     0.396398067    -0.231542466     0.198132932
   67    28.814227293    23.140872709    28.595237433     0.413383930    -0.221542294     0.173299562
   68    21.977268099    22.671358819    25.694605366     0.471162660    -0.150816559     0.072526642
   21    32.871130500    26.884668877    24.761108111    -0.412251151     0.204516523    -0.195504425
   22    40.203436170    22.268291332    26.801034831     0.457698091    -0.168307545     0.110385811
   23    40.087509752    29.795617044    27.665874462     0.408681348    -0.217670343     0.188677443
   24    35.034300325    24.683330692    28.493985883     0.417569914    -0.201843475     0.186800906
   25    36.312959135    20.927180974    21.779001954     0.402310821    -0.222824213     0.196202380
   26    32.872185093    21.509558857    28.316147161     0.103961463     0.382658740    -0.304572329
   27    31.536808270    23.509817334    23.604350586     0.417198467    -0.213715585     0.173985883
   28    38.529968987    25.948631081    21.873629450     0.423409984    -0.198009314     0.177528298
   29    39.242598809    28.601443984    25.953144276     0.400844732    -0.224507511     0.197281217
   30    38.012565538    29.515105364    22.650189551     0.413745831    -0.216899574     0.178238498
   31    36.524934600    30.478856056    29.664580766     0.407161983    -0.227428438     0.180264875
   32    38.651809489    21.129843293    28.893509268     0.405974296    -0.226963493     0.183500529
   33    31.715032820    28.504169881    26.295726653     0.408436867    -0.224861155     0.180601181
   34    41.312336791    23.488935842    29.013959128     0.483262466     0.104770119    -0.074031150
   35    38.684626003    28.090580107    21.190171627     0.416080593    -0.212646171     0.177928486
   36    38.198394371    23.077339983    26.524242335     0.449472447    -0.175290109     0.131331249
   37    38.703953732    25.690219868    28.460953594     0.410275675    -0.214303676     0.189070900
   38    36.789001922    26.607426639    25.160092340     0.426974963    -0.197022782     0.169924703
   39    38.975508623    26.302767353    24.585618331     0.434327427    -0.184559122     0.165219903
   40    33.741919055    29.321523100    27.132583231     0.407295274    -0.223311588     0.185047276
   41    37.241291098    22.513427664    24.573560344     0.448555317    -0.174382729     0.135605279
   42    31.525401378    28.955015130    24.022594394     0.418148104    -0.199190431     0.188348972
   43    35.063212105    27.539705624    26.166985405     0.423850787    -0.199914061     0.174312588
   44    40.003607313    24.539047013    25.450324239     0.436044746    -0.185148279     0.159953413
   45    35.343038123    30.055754463    25.626149490     0.412772324    -0.210257798     0.188177223
   46    38.435064533    21.734258104    22.925890835     0.446463092    -0.180906109     0.133954049
   47    37.859528564    22.303991843    30.490655565     0.413832088    -0.210206655     0.185892886
   48    41.064443670    23.960841710    21.411757656     0.407387938    -0.227976830     0.179057624
   49    34.303910107    25.813000317    22.501652484    -0.417766963     0.182534130    -0.205309658
   50    37.458670131    29.887086653    27.622706395     0.402166607    -0.217660116     0.202203102
   51    40.735640235    26.320699032    21.551091281     0.418535345    -0.196329438     0.190480751
   52    40.443092805    30.083080789    22.252269909     0.402142040    -0.212915303     0.207241052
   53    39.712319469    24.763242409    30.175282715     0.406878277    -0.224201450     0.184888553
   54    35.871431700    22.869951697    30.486700454     0.403746405    -0.243421548     0.166537655
   55    34.317654846    30.538260924    23.388106988     0.403797685    -0.221364383     0.194795379
   56    37.428796380    24.530882575    30.352159701     0.414211809    -0.211956328     0.183038499
   57    36.318462898    26.457050279    27.981928357     0.416548509    -0.207530749     0.182806804
   58    35.191423243    20.745182094    27.772258028     0.405251735    -0.225712940     0.186613772
   59    36.843153284    22.224211868    28.487371740     0.411619532    -0.218805146     0.180813908
   60    39.948459204    26.903527028    29.732992989     0.407604098    -0.218969633     0.189502504
   61    40.113336508    22.277023362    30.636402816     0.423044431    -0.205739222     0.169424855
   62    39.945105703    27.792933824    23.070564883     0.420611274    -0.198164271     0.183894202
   63    33.207685007    28.326565342    30.264400841     0.399815622    -0.226891606     0.196640962
   64    34.547644491    29.648257496    21.331219680     0.406366480    -0.211980802     0.199825984
   65    35.674590200    24.374881411    24.178172251     0.376586190    -0.267252942     0.191725602
   66    32.072899776    27.256628862    28.771528199     0.396413220    -0.231528259     0.198119218
   67    38.903883243    23.285532921    28.883324303     0.413378295    -0.221553904     0.173298163
   68    32.066924049    22.816019031    25.982692236     0.471163009    -0.150800828     0.072557076
   21     2.737238121    36.475781763    23.927472926    -0.412248734     0.204523971    -0.195501730
   22    10.069543792    31.859404218    25.967399646     0.457686754    -0.168305028     0.110436646
   23     9.953617373    39.386729930    26.832239277     0.408665351    -0.217679451     0.188701583
   24     4.900407947    34.274443578    27.660350697     0.417559677    -0.201846929     0.186820056
   25     6.179066757    30.518293860    20.945366768     0.402299362    -0.222829127     0.196220295
   26     2.738292714    31.100671743    27.482511976     0.103816324     0.382853383    -0.304377164
   27     1.402915891    33.100930220    22.770715401     0.417204618    -0.213715265     0.173971528
   28     8.396076609    35.539743967    21.039994265     0.423393617    -0.198022596     0.177552518
   29     9.108706430    38.192556870    25.119509091     0.400827796    -0.224515345     0.197306709
   30     7.878673160    39.106218250    21.816554366     0.413728495    -0.216913559     0.178261719
   31     6.391042222    40.069968942    28.830945581     0.407148221    -0.227424727     0.180300637
   32     8.517917110    30.720956179    28.059874083     0.405964197    -0.226968680     0.183516454
   33     1.581140442    38.095282767    25.462091468     0.408431581    -0.224869020     0.180603343
   34    11.178444413    33.080048728    28.180323943     0.483278408     0.104788844    -0.073900464
   35     8.550733625    37.681692994    20.356536442     0.416064678    -0.212658828     0.177950574
   36     8.064501993    32.668452869    25.690607150     0.449459707    -0.175294325     0.131369218
   37     8.570061354    35.281332754    27.627318408     0.410264358    -0.214309870     0.189088434
   38     6.655109544    36.198539525    24.326457155     0.426963135    -0.197029777     0.169946309
   39     8.841616244    35.893880239    23.751983145     0.434314270    -0.184570490     0.165241789
   40     3.608026677    38.912635986    26.298948046     0.407285993    -0.223317805     0.185060201
   41     7.107398720    32.104540550    23.739925159     0.448542107    -0.174389518     0.135640238
   42     1.391508999    38.546128016    23.188959209     0.418148235    -0.199196282     0.188342492
   43     4.929319727    37.130818510    25.333350220     0.423839823    -0.199919644     0.174332843
   44     9.869714935    34.130159899    24.616689054     0.436031519    -0.185160306     0.159975546
   45     5.209145745    39.646867349    24.792514305     0.412761568    -0.210259154     0.188199298
   46     8.301172155    31.325370990    22.092255650     0.446450377    -0.180913259     0.133986765
   47     7.725636185    31.895104729    29.657020380     0.413820943    -0.210211668     0.185912027
   48    10.930551291    33.551954596    20.578122471     0.407371129    -0.227986852     0.179083106
   49     4.170017729    35.404113203    21.668017299    -0.417817056     0.182585794    -0.205161730
   50     7.324777753    39.478199539    26.789071210     0.402151527    -0.217657029     0.202236414
   51    10.601747857    35.911811918    20.717456095     0.418519393    -0.196341110     0.190503770
   52    10.309200427    39.674193675    21.418634724     0.402122346    -0.212928120     0.207266096
   53     9.578427090    34.354355295    29.341647530     0.406867065    -0.224209668     0.184903261
   54     5.737539322    32.461064583    29.653065269     0.403735734    -0.243429940     0.166551257
   55     4.183762468    40.129373810    22.554471803     0.403787769    -0.221364912     0.194815332
   56     7.294904001    34.121995461    29.518524516     0.414200833    -0.211962478     0.183056215
   57     6.184570520    36.048163165    27.148293172     0.416538011    -0.207534821     0.182826102
   58     5.057530865    30.336294980    26.938622843     0.405244435    -0.225719516     0.186621670
   59     6.709260906    31.815324754    27.653736555     0.411610727    -0.218810448     0.180827535
   60     9.814566825    36.494639914    28.899357804     0.407592920    -0.218976355     0.189518780
   61     9.979444129    31.868136248    29.802767630     0.423033167    -0.205744304     0.169446809
   62     9.811213325    37.384046710    22.236929698     0.420595987    -0.198174924     0.183917686
   63     3.073792628    37.917678228    29.430765656     0.399806744    -0.226899888     0.196649456
   64     4.413752112    39.239370382    20.497584495     0.406357499    -0.211980602     0.199844458
   65     5.540697822    33.965994297    23.344537066     0.376431803    -0.267492991     0.191694021
   66     1.939007398    36.847741748    27.937893014     0.396406336    -0.231536805     0.198123005
   67     8.769990864    32.876645807    28.049689118     0.413367718    -0.221560898     0.173314449
   68     1.933031670    32.407131917    25.149057050     0.471181204    -0.150724299     0.072597922
   21    12.826894071    36.620441975    24.215559795    -0.412243458     0.204528500    -0.195508118
   22    20.159199741    32.004064430    26.255486515     0.457691604    -0.168306433     0.110414402
   23    20.043273323    39.531390141    27.120326146     0.408661434    -0.217691894     0.188695712
   24    14.990063897    34.419103789    27.948437567     0.417551740    -0.201865426     0.186817810
   25    16.268722707    30.662954072    21.233453638     0.402297197    -0.222838070     0.196214575
   26    12.827948664    31.245331955    27.770598845     0.104131692     0.382612939    -0.304571715
   27    11.492571841    33.245590432    23.058802271     0.417195151    -0.213725708     0.173981399
   28    18.485732559    35.684404179    21.328081135     0.423394987    -0.198028844     0.177542283
   29    19.198362380    38.337217082    25.407595961     0.400822797    -0.224532290     0.197297582
   30    17.968329110    39.250878462    22.104641235     0.413731239    -0.216913933     0.178254895
   31    16.480698171    40.214629154    29.119032450     0.407144840    -0.227438839     0.180290470
   32    18.607573060    30.865616391    28.347960953     0.405956063    -0.226982947     0.183516803
   33    11.670796392    38.239942979    25.750178338     0.408424222    -0.224875537     0.180611870
   34    21.268100363    33.224708940    28.468410812     0.483262779     0.104818796    -0.073960170
   35    18.640389574    37.826353205    20.644623312     0.416065241    -0.212662645     0.177944695
   36    18.154157943    32.813113081    25.978694019     0.449462936    -0.175297636     0.131353750
   37    18.659717304    35.425992966    27.915405278     0.410256842    -0.214326654     0.189085718
   38    16.744765494    36.343199737    24.614544024     0.426959107    -0.197042641     0.169941515
   39    18.931272194    36.038540450    24.040070015     0.434313231    -0.184577479     0.165236715
   40    13.697682626    39.057296198    26.587034916     0.407280668    -0.223327094     0.185060710
   41    17.197054670    32.249200762    24.028012029     0.448545862    -0.174391538     0.135625222
   42    11.481164949    38.690788228    23.477046079     0.418138728    -0.199202347     0.188357183
   43    15.018975677    37.275478722    25.621437090     0.423835330    -0.199932221     0.174329345
   44    19.959370885    34.274820111    24.904775923     0.436030977    -0.185166441     0.159969922
   45    15.298801694    39.791527561    25.080601175     0.412757698    -0.210269792     0.188195902
   46    18.390828105    31.470031201    22.380342520     0.446453260    -0.180916099     0.133973323
   47    17.815292135    32.039764941    29.945107249     0.413813415    -0.210229174     0.185908988
   48    21.020207241    33.696614808    20.866209341     0.407370197    -0.227996446     0.179073011
   49    14.259673679    35.548773415    21.956104168    -0.417855442     0.182490629    -0.205168223
   50    17.414433703    39.622859751    27.077158080     0.402148213    -0.217672472     0.202226382
   51    20.691403807    36.056472129    21.005542965     0.418520113    -0.196346641     0.190496487
   52    20.398856377    39.818853887    21.706721593     0.402126689    -0.212928392     0.207257390
   53    19.668083040    34.499015506    29.629734400     0.406858621    -0.224225881     0.184902181
   54    15.827195272    32.605724794    29.941152138     0.403724018    -0.243449912     0.166550465
   55    14.273418418    40.274034022    22.842558672     0.403785083    -0.221372026     0.194812815
   56    17.384559951    34.266655672    29.806611385     0.414192329    -0.211981021     0.183053984
   57    16.274226469    36.192823376    27.436380041     0.416530200    -0.207552585     0.182823731
   58    15.147186815    30.480955192    27.226709713     0.405233208    -0.225731871     0.186631106
   59    16.798916856    31.959984966    27.941823425     0.411601844    -0.218824418     0.180830849
   60    19.904222775    36.639300126    29.187444674     0.407585299    -0.218991324     0.189517872
   61    20.069100079    32.012796460    30.090854500     0.423026571    -0.205761612     0.169442259
   62    19.900869274    37.528706922    22.525016568     0.420596518    -0.198181544     0.183909338
   63    13.163448578    38.062338439    29.718852526     0.399799803    -0.226905665     0.196656902
   64    14.503408062    39.384030593    20.785671365     0.406355129    -0.211987402     0.199842064
   65    15.630353772    34.110654509    23.632623936     0.376572117    -0.267359608     0.191604490
   66    12.028663347    36.992401960    28.225979883     0.396397575    -0.231541616     0.198134911
   67    18.859646814    33.021306019    28.337775987     0.413359992    -0.221575957     0.173313624
   68    12.022687620    32.551792129    25.437143920     0.471146775    -0.150836304     0.072588742
   21    22.916550021    36.765102187    24.503646665    -0.412238836     0.204536452    -0.195509545
   22    30.248855691    32.148724641    26.543573385     0.457708681    -0.168226098     0.110466030
   23    30.132929273    39.676050353    27.408413016     0.408667746    -0.217681437     0.188694105
   24    25.079719847    34.563764001    28.236524437     0.417558651    -0.201850448     0.186818546
   25    26.358378657    30.807614283    21.521540508     0.402297477    -0.222830479     0.196222622
   26    22.917604614    31.389992166    28.058685715     0.103945422     0.382601342    -0.304649902
   27    21.582227791    33.390250644    23.346889140     0.417191236    -0.213732233     0.173982772
   28    28.575388509    35.829064391    21.616168004     0.423394391    -0.198015803     0.177558248
   29    29.288018330    38.481877293    25.695682830     0.400829214    -0.224517564     0.197301303
   30    28.057985060    39.395538673    22.392728105     0.413730608    -0.216904066     0.178268366
   31    26.570354121    40.359289366    29.407119320     0.407143403    -0.227454032     0.180274549
   32    28.697229010    31.010276603    28.636047822     0.405967601    -0.226961057     0.183518351
   33    21.760452341    38.384603190    26.038265207     0.408421530    -0.224883562     0.180607965
   34    31.357756312    33.369369151    28.756497682     0.483248142     0.105044550    -0.073735176
   35    28.730045524    37.971013417    20.932710181     0.416065957    -0.212651189     0.177956710
   36    28.243813893    32.957773293    26.266780889     0.449472032    -0.175249036     0.131387472
   37    28.749373254    35.570653177    28.203492148     0.410264716    -0.214318458     0.189077923
   38    26.834421443    36.487859948    24.902630894     0.426962761    -0.197030815     0.169946046
   39    29.020928144    36.183200662    24.328156885     0.434314779    -0.184565293     0.165246256
   40    23.787338576    39.201956410    26.875121785     0.407278967    -0.223331257     0.185059431
   41    27.286710619    32.393860974    24.316098898     0.448552358    -0.174352771     0.135653577
   42    21.570820899    38.835448440    23.765132948     0.418136727    -0.199211048     0.188352424
   43    25.108631626    37.420138934    25.909523959     0.423838646    -0.199923506     0.174331277
   44    30.049026835    34.419480322    25.192862793     0.436032127    -0.185153742     0.159981488
   45    25.388457644    39.936187772    25.368688044     0.412757517    -0.210272880     0.188192849
   46    28.480484055    31.614691413    22.668429389     0.446458366    -0.180885021     0.133998272
   47    27.904948085    32.184425152    30.233194119     0.413824878    -0.210206214     0.185909434
   48    31.109863191    33.841275019    21.154296210     0.407369873    -0.227983290     0.179090498
   49    24.349329628    35.693433627    22.244191038    -0.417810779     0.182480399    -0.205268257
   50    27.504089653    39.767519962    27.365244949     0.402147542    -0.217685043     0.202214186
   51    30.781059756    36.201132341    21.293629834     0.418520541    -0.196334933     0.190507614
   52    30.488512326    39.963514099    21.994808463     0.402126587    -0.212916455     0.207269850
   53    29.757738990    34.643675718    29.917821269     0.406868443    -0.224221796     0.184885521
   54    25.916851222    32.750385006    30.229239008     0.403737716    -0.243426217     0.166551893
   55    24.363074368    40.418694233    23.130645542     0.403785355    -0.221370911     0.194813518
   56    27.474215901    34.411315884    30.094698255     0.414202772    -0.211962147     0.183052212
   57    26.363882419    36.337483588    27.724466911     0.416536613    -0.207539964     0.182823448
   58    25.236842765    30.625615403    27.514796582     0.405243220    -0.225709996     0.186635823
   59    26.888572806    32.104645177    28.229910294     0.411611805    -0.218801622     0.180835761
   60    29.993878725    36.783960337    29.475531543     0.407592589    -0.218988055     0.189505972
   61    30.158756029    32.157456671    30.378941370     0.423037332    -0.205736283     0.169446149
   62    29.990525224    37.673367133    22.813103437     0.420597767    -0.198168609     0.183920421
   63    23.253104528    38.206998651    30.006939395     0.399793330    -0.226919415     0.196654196
   64    24.593064012    39.528690805    21.073758234     0.406355217    -0.211986784     0.199842540
   65    25.720009722    34.255314721    23.920710805     0.376428889    -0.267590748     0.191563262
   66    22.118319297    37.137062171    28.514066753     0.396391162    -0.231555450     0.198131573
   67    28.949302764    33.165966230    28.625862857     0.413371363    -0.221561290     0.173305254
   68    22.112343570    32.696452340    25.725230790     0.471152912    -0.150832530     0.072556746
   21    33.006205971    36.909762398    24.791733534    -0.412248041     0.204519283    -0.195508097
   22    40.338511641    32.293384853    26.831660255     0.457716776    -0.168225485     0.110433416
   23    40.222585223    39.820710565    27.696499886     0.408668797    -0.217697631     0.188673144
   24    35.169375796    34.708424213    28.524611306     0.417572329    -0.201837759     0.186801685
   25    36.448034606    30.952274495    21.809627377     0.402311110    -0.222823335     0.196202784
   26    33.007260564    31.534652378    28.346772585     0.103879768     0.382963777    -0.304216600
   27    31.671883741    33.534910855    23.634976010     0.417179728    -0.213755056     0.173982328
   28    38.665044458    35.973724602    21.904254874     0.423408414    -0.198005487     0.177536311
   29    39.377674280    38.626537505    25.983769700     0.400831401    -0.224533937     0.197278228
   30    38.147641010    39.540198885    22.680814974     0.413743132    -0.216904103     0.178239253
   31    36.660010071    40.503949577    29.695206190     0.407151010    -0.227445704     0.180267874
   32    38.786884960    31.154936814    28.924134692     0.405980095    -0.226953798     0.183499689
   33    31.850108291    38.529263402    26.326352077     0.408428348    -0.224872114     0.180606802
   34    41.447412262    33.514029363    29.044584552     0.483240715     0.105015543    -0.073825109
   35    38.819701474    38.115673629    21.220797051     0.416078308    -0.212644266     0.177936105
   36    38.333469842    33.102433504    26.554867758     0.449484306    -0.175238263     0.131359850
   37    38.839029203    35.715313389    28.491579017     0.410277660    -0.214303176     0.189067158
   38    36.924077393    36.632520160    25.190717763     0.426974854    -0.197017411     0.169931203
   39    39.110584094    36.327860874    24.616243754     0.434327969    -0.184549938     0.165228738
   40    33.876994526    39.346616621    27.163208655     0.407286648    -0.223323051     0.185052429
   41    37.376366569    32.538521185    24.604185768     0.448565837    -0.174339237     0.135626401
   42    31.660476849    38.980108651    24.053219818     0.418141515    -0.199196525     0.188357155
   43    35.198287576    37.564799145    26.197610829     0.423849562    -0.199911254     0.174318787
   44    40.138682784    34.564140534    25.480949662     0.436047351    -0.185133891     0.159962964
   45    35.478113594    40.080847984    25.656774914     0.412765910    -0.210265566     0.188182612
   46    38.570140004    31.759351625    22.956516259     0.446472524    -0.180871052     0.133969952
   47    37.994604035    32.329085364    30.521280988     0.413837378    -0.210195353     0.185893890
   48    41.199519141    33.985935231    21.442383080     0.407387792    -0.227963472     0.179074964
   49    34.438985578    35.838093838    22.532277908    -0.417886283     0.182388804    -0.205195951
   50    37.593745603    39.912180174    27.653331819     0.402154037    -0.217677205     0.202209706
   51    40.870715706    36.345792553    21.581716704     0.418532428    -0.196326783     0.190489898
   52    40.578168276    40.108174310    22.282895332     0.402139418    -0.212916234     0.207245183
   53    39.847394940    34.788335930    30.205908139     0.406881627    -0.224204639     0.184877316
   54    36.006507172    32.895045218    30.517325877     0.403754704    -0.243409424     0.166535256
   55    34.452730317    40.563354445    23.418732412     0.403792692    -0.221368791     0.194800718
   56    37.563871851    34.555976096    30.382785124     0.414217432    -0.211947962     0.183035463
   57    36.453538369    36.482143800    28.012553781     0.416549879    -0.207526260     0.182808780
   58    35.326498714    30.770275615    27.802883452     0.405256461    -0.225711252     0.186605550
   59    36.978228755    32.249305389    28.517997164     0.411625247    -0.218796479     0.180811386
   60    40.083534675    36.928620549    29.763618413     0.407604389    -0.218972885     0.189498121
   61    40.248411979    32.302116883    30.667028239     0.423049088    -0.205724573     0.169431015
   62    40.080181174    37.818027345    23.101190307     0.420609412    -0.198162379     0.183900500
   63    33.342760478    38.351658863    30.295026265     0.399802661    -0.226911304     0.196644583
   64    34.682719962    39.673351017    21.361845104     0.406361998    -0.211983400     0.199832341
   65    35.809665671    34.399974932    24.208797675     0.376444164    -0.267478582     0.191689853
   66    32.207975247    37.281722383    28.802153622     0.396399293    -0.231548694     0.198123202
   67    39.038958714    33.310626442    28.913949727     0.413383879    -0.221548222     0.173292104
   68    32.201999520    32.841112552    26.013317659     0.471176858    -0.150716759     0.072641769
   21     2.618882879     6.432636937    33.847582017    -0.412246484     0.204529895    -0.195500277
   22     9.951188550     1.816259391    35.887508737     0.457690306    -0.168295310     0.110436736
   23     9.835262131     9.343585103    36.752348368     0.408671620    -0.217667187     0.188702153
   24     4.782052705     4.231298751    37.580459788     0.417563112    -0.201825912     0.186835084
   25     6.060711515     0.475149034    30.865475860     0.402299825    -0.222823895     0.196225286
   26     2.619937472     1.057526916    37.402621067     0.103973529     0.382343653    -0.304963663
   27     1.284560649     3.057785394    32.690824492     0.417195177    -0.213703568     0.174008533
   28     8.277721367     5.496599141    30.960103356     0.423402286    -0.198000314     0.177556694
   29     8.990351188     8.149412043    35.039618182     0.400835277    -0.224503572     0.197304907
   30     7.760317918     9.063073424    31.736663457     0.413738621    -0.216894386     0.178261546
   31     6.272686979    10.026824116    38.751054672     0.407150813    -0.227423844     0.180295897
   32     8.399561868     0.677811353    37.979983174     0.405967266    -0.226946789     0.183536738
   33     1.462785200     8.052137940    35.382200559     0.408429911    -0.224868298     0.180608019
   34    11.060089171     3.036903901    38.100433034     0.483266445     0.104798313    -0.073965240
   35     8.432378382     7.638548167    30.276645533     0.416074298    -0.212636933     0.177954246
   36     7.946146751     2.625308043    35.610716241     0.449463284    -0.175279666     0.131376538
   37     8.451706112     5.238187928    37.547427500     0.410267657    -0.214290111     0.189103670
   38     6.536754302     6.155394698    34.246566246     0.426969430    -0.197010000     0.169953422
   39     8.723261002     5.850735412    33.672092237     0.434322643    -0.184544637     0.165248658
   40     3.489671434     8.869491160    36.219057137     0.407287927    -0.223312808     0.185061974
   41     6.989043478     2.061395724    33.660034250     0.448545129    -0.174374259     0.135649861
   42     1.273153757     8.502983190    33.109068300     0.418145015    -0.199198678     0.188347107
   43     4.810964485     7.087673684    35.253459311     0.423844938    -0.199903803     0.174338573
   44     9.751359693     4.087015073    34.536798145     0.436040500    -0.185131136     0.159984826
   45     5.090790502     9.603722522    34.712623396     0.412765180    -0.210253569     0.188197617
   46     8.182816913     1.282226163    32.012364741     0.446453232    -0.180899620     0.133995667
   47     7.607280943     1.851959902    39.577129471     0.413824098    -0.210190433     0.185929012
   48    10.812196049     3.508809770    30.498231562     0.407377315    -0.227965598     0.179096089
   49     4.051662487     5.360968377    31.588126390    -0.417778433     0.182741564    -0.205101687
   50     7.206422511     9.435054713    36.709180301     0.402154033    -0.217654760     0.202233872
   51    10.483392615     5.868667091    30.637565186     0.418528741    -0.196317367     0.190507701
   52    10.190845185     9.631048849    31.338743815     0.402134497    -0.212906549     0.207264680
   53     9.460071848     4.311210468    39.261756621     0.406871180    -0.224188332     0.184920076
   54     5.619184080     2.417919756    39.573174360     0.403740711    -0.243406031     0.166574136
   55     4.065407226    10.086228983    32.474580894     0.403792605    -0.221361037     0.194809711
   56     7.176548759     4.078850634    39.438633607     0.414204948    -0.211939073     0.183074002
   57     6.066215277     6.005018338    37.068402263     0.416542065    -0.207514585     0.182839835
   58     4.939175623     0.293150153    36.858731934     0.405245764    -0.225690443     0.186653945
   59     6.590905664     1.772179927    37.573845646     0.411612763    -0.218785618     0.180852942
   60     9.696211583     6.451495087    38.819466895     0.407596130    -0.218958184     0.189532869
   61     9.861088887     1.824991422    39.722876722     0.423036609    -0.205724398     0.169462385
   62     9.692858082     7.340901883    32.157038789     0.420606080    -0.198150883     0.183920509
   63     2.955437386     7.874533401    39.350874747     0.399802770    -0.226897803     0.196659941
   64     4.295396870     9.196225555    30.417693586     0.406362040    -0.211978110     0.199837868
   65     5.422342580     3.922849471    33.264646157     0.376544733    -0.267262259     0.191794028
   66     1.820652155     6.804596922    37.858002105     0.396400878    -0.231535382     0.198135587
   67     8.651635622     2.833500981    37.969798209     0.413371618    -0.221539137     0.173332963
   68     1.814676428     2.363987091    35.069166142     0.471157772    -0.150867582     0.072452240
   21    12.708538829     6.577297148    34.135668886    -0.412251653     0.204506013    -0.195514360
   22    20.040844499     1.960919603    36.175595606     0.457688952    -0.168301375     0.110433103
   23    19.924918081     9.488245315    37.040435238     0.408674510    -0.217671014     0.188691480
   24    14.871708655     4.375958963    37.868546658     0.417566004    -0.201826168     0.186828344
   25    16.150367465     0.619809245    31.153562729     0.402295806    -0.222837910     0.196217609
   26    12.709593422     1.202187128    37.690707937     0.103873805     0.382563811    -0.304721452
   27    11.374216599     3.202445605    32.978911362     0.417210373    -0.213679790     0.174001300
   28    18.367377317     5.641259352    31.248190226     0.423402062    -0.198017184     0.177538415
   29    19.080007138     8.294072255    35.327705052     0.400837158    -0.224511027     0.197292604
   30    17.849973868     9.207733635    32.024750326     0.413738479    -0.216904052     0.178250115
   31    16.362342929    10.171484328    39.039141541     0.407155463    -0.227418079     0.180292667
   32    18.489217818     0.822471564    38.268070044     0.405968056    -0.226949408     0.183531751
   33    11.552441149     8.196798152    35.670287429     0.408433536    -0.224853751     0.180617931
   34    21.149745120     3.181564113    38.388519904     0.483280429     0.104741336    -0.073954575
   35    18.522034332     7.783208379    30.564732403     0.416072488    -0.212651971     0.177940506
   36    18.035802701     2.769968254    35.898803110     0.449464168    -0.175283747     0.131368069
   37    18.541362062     5.382848139    37.835514369     0.410270946    -0.214289744     0.189096951
   38    16.626410251     6.300054910    34.534653115     0.426971561    -0.197010629     0.169947338
   39    18.812916952     5.995395624    33.960179106     0.434322659    -0.184554600     0.165237489
   40    13.579327384     9.014151371    36.507144007     0.407290982    -0.223303118     0.185066944
   41    17.078699427     2.206055935    33.948121120     0.448547165    -0.174378022     0.135638292
   42    11.362809707     8.647643401    33.397155170     0.418147670    -0.199180464     0.188360477
   43    14.900620434     7.232333895    35.541546181     0.423847929    -0.199900653     0.174334914
   44    19.841015643     4.231675284    34.824885014     0.436040379    -0.185142304     0.159972232
   45    15.180446452     9.748382734    35.000710266     0.412768101    -0.210246471     0.188199141
   46    18.272472863     1.426886375    32.300451611     0.446454290    -0.180905745     0.133983875
   47    17.696936893     1.996620114    39.865216340     0.413826373    -0.210189452     0.185925058
   48    20.901851999     3.653469981    30.786318432     0.407376738    -0.227988248     0.179068568
   49    14.141318436     5.505628588    31.876213260    -0.417749965     0.182577513    -0.205305670
   50    17.296078461     9.579714924    36.997267171     0.402158785    -0.217650039     0.202229504
   51    20.573048564     6.013327303    30.925652056     0.418527939    -0.196332828     0.190493530
   52    20.280501134     9.775709060    31.626830684     0.402134054    -0.212919334     0.207252407
   53    19.549727798     4.455870680    39.549843491     0.406873754    -0.224187379     0.184915568
   54    15.708840030     2.562579968    39.861261229     0.403741043    -0.243404904     0.166574975
   55    14.155063176    10.230889195    32.762667764     0.403794277    -0.221356062     0.194811899
   56    17.266204709     4.223510846    39.726720476     0.414206750    -0.211938524     0.183070560
   57    16.155871227     6.149678550    37.356489133     0.416544717    -0.207515089     0.182833221
   58    15.028831573     0.437810365    37.146818804     0.405246607    -0.225695775     0.186645667
   59    16.680561614     1.916840139    37.861932516     0.411614161    -0.218788278     0.180846543
   60    19.785867533     6.596155299    39.107553765     0.407598651    -0.218957698     0.189528010
   61    19.950744837     1.969651633    40.010963591     0.423039488    -0.205722917     0.169456994
   62    19.782514032     7.485562095    32.445125659     0.420605646    -0.198163903     0.183907472
   63    13.045093336     8.019193613    39.638961617     0.399804177    -0.226886898     0.196669661
   64    14.385052820     9.340885767    30.705780456     0.406363842    -0.211971964     0.199840723
   65    15.511998530     4.067509683    33.552733027     0.376434304    -0.267514239     0.191659456
   66    11.910308105     6.949257133    38.146088974     0.396402057    -0.231522904     0.198147809
   67    18.741291572     2.978161192    38.257885079     0.413374207    -0.221538856     0.173327147
   68    11.904332378     2.508647302    35.357253011     0.471150248    -0.150831329     0.072576537
   21    22.798194779     6.721957360    34.423755756    -0.412245960     0.204527654    -0.195503726
   22    30.130500449     2.105579815    36.463682476     0.457660337    -0.168475618     0.110285910
   23    30.014574031     9.632905526    37.328522107     0.408671845    -0.217672740     0.188695260
   24    24.961364604     4.520619174    38.156633528     0.417554427    -0.201847435     0.186831243
   25    26.240023414     0.764469457    31.441649599     0.402294398    -0.222851409     0.196205164
   26    22.799249372     1.346847340    37.978794806     0.103975741     0.382445904    -0.304834670
   27    21.463872549     3.347105817    33.266998231     0.417208161    -0.213701852     0.173979508
   28    28.457033266     5.785919564    31.536277096     0.423394994    -0.198038364     0.177531645
   29    29.169663088     8.438732467    35.615791922     0.400834078    -0.224512370     0.197297332
   30    27.939629818     9.352393847    32.312837196     0.413732596    -0.216921106     0.178243017
   31    26.451998879    10.316144539    39.327228411     0.407152287    -0.227425130     0.180290945
   32    28.578873768     0.967131776    38.556156913     0.405958599    -0.226969862     0.183527375
   33    21.642097099     8.341458364    35.958374298     0.408430270    -0.224866633     0.180609281
   34    31.239401070     3.326224325    38.676606773     0.483290293     0.104319616    -0.074484299
   35    28.611690282     7.927868590    30.852819272     0.416065915    -0.212671910     0.177932046
   36    28.125458650     2.914628466    36.186889980     0.449446725    -0.175394240     0.131280242
   37    28.631018011     5.527508351    38.123601239     0.410261081    -0.214299945     0.189106792
   38    26.716066201     6.444715122    34.822739985     0.426961171    -0.197036737     0.169943175
   39    28.902572902     6.140055835    34.248265976     0.434311770    -0.184584464     0.165232751
   40    23.668983334     9.158811583    36.795230876     0.407287206    -0.223315889     0.185059843
   41    27.168355377     2.350716147    34.236207989     0.448532236    -0.174471474     0.135567467
   42    21.452465657     8.792303613    33.685242040     0.418146134    -0.199193450     0.188350153
   43    24.990276384     7.376994107    35.829633050     0.423838517    -0.199924211     0.174330781
   44    29.930671592     4.376335496    35.112971884     0.436027055    -0.185178874     0.159966222
   45    25.270102402     9.893042946    35.288797136     0.412763564    -0.210261396     0.188192418
   46    28.362128812     1.571546586    32.588538481     0.446440425    -0.180981236     0.133928114
   47    27.786592843     2.141280326    40.153303210     0.413818474    -0.210203868     0.185926341
   48    30.991507949     3.798130193    31.074405302     0.407367344    -0.228015171     0.179055658
   49    24.230974386     5.650288800    32.164300129    -0.417756197     0.182643417    -0.205234359
   50    27.385734411     9.724375136    37.285354040     0.402156336    -0.217658033     0.202225770
   51    30.662704514     6.157987514    31.213738926     0.418520709    -0.196354451     0.190487128
   52    30.370157084     9.920369272    31.914917554     0.402127953    -0.212935976     0.207247146
   53    29.639383748     4.600530891    39.837930360     0.406863372    -0.224186519     0.184939453
   54    25.798495980     2.707240179    40.149348099     0.403729033    -0.243427745     0.166570708
   55    24.244719125    10.375549407    33.050754633     0.403790985    -0.221371350     0.194801350
   56    27.355860659     4.368171057    40.014807346     0.414196321    -0.211954059     0.183076172
   57    26.245527177     6.294338761    37.644576002     0.416533531    -0.207535026     0.182836074
   58    25.118487522     0.582470577    37.434905673     0.405236380    -0.225714467     0.186645266
   59    26.770217563     2.061500351    38.150019386     0.411603582    -0.218812821     0.180840926
   60    29.875523483     6.740815511    39.395640635     0.407591871    -0.218963413     0.189535989
   61    30.040400787     2.114311845    40.299050461     0.423034265    -0.205739910     0.169449402
   62    29.872169982     7.630222307    32.733212529     0.420597861    -0.198183281     0.183904396
   63    23.134749286     8.163853824    39.927048486     0.399803607    -0.226891798     0.196665166
   64    24.474708770     9.485545978    30.993867325     0.406360777    -0.211988531     0.199829382
   65    25.601654479     4.212169894    33.840819896     0.376569844    -0.267418704     0.191526471
   66    21.999964055     7.093917345    38.434175844     0.396402464    -0.231526760     0.198142490
   67    28.830947522     3.122821404    38.545971948     0.413362181    -0.221552665     0.173338177
   68    21.993988328     2.653307514    35.645339881     0.471146207    -0.150843122     0.072578259
   21    32.887850729     6.866617572    34.711842625    -0.412244280     0.204525254    -0.195509779
   22    40.220156399     2.250240026    36.751769346     0.457701819    -0.168324493     0.110344505
   23    40.104229981     9.777565738    37.616608977     0.408670156    -0.217679737     0.188690847
   24    35.051020554     4.665279386    38.444720397     0.417564990    -0.201840347     0.186815293
   25    36.329679364     0.909129668    31.729736468     0.402304221    -0.222839970     0.196198016
   26    32.888905321     1.491507551    38.266881676     0.103915657     0.381913036    -0.305522453
   27    31.553528499     3.491766029    33.555085101     0.417198084    -0.213676774     0.174034466
   28    38.546689216     5.930579776    31.824363965     0.423401326    -0.198019375     0.177537726
   29    39.259319038     8.583392678    35.903878791     0.400833499    -0.224518100     0.197291989
   30    38.029285767     9.497054058    32.600924065     0.413738428    -0.216909195     0.178243974
   31    36.541654829    10.460804751    39.615315281     0.407149314    -0.227434800     0.180285462
   32    38.668529717     1.111791988    38.844243783     0.405972706    -0.226956315     0.183512923
   33    31.731753049     8.486118575    36.246461168     0.408428236    -0.224870828     0.180608657
   34    41.329057020     3.470884536    38.964693643     0.483250098     0.104726250    -0.074173818
   35    38.701346232     8.072528802    31.140906142     0.416072617    -0.212654879     0.177936729
   36    38.215114600     3.059288678    36.474976850     0.449474376    -0.175300858     0.131310298
   37    38.720673961     5.672168562    38.411688108     0.410269716    -0.214302824     0.189084796
   38    36.805722151     6.589375333    35.110826855     0.426968339    -0.197026486     0.169937050
   39    38.992228851     6.284716047    34.536352845     0.434320577    -0.184566184     0.165230022
   40    33.758639284     9.303471795    37.083317746     0.407285059    -0.223320493     0.185059014
   41    37.258011327     2.495376359    34.524294859     0.448556511    -0.174393866     0.135587007
   42    31.542121607     8.936963825    33.973328909     0.418141348    -0.199203908     0.188349717
   43    35.079932334     7.521654319    36.117719920     0.423843800    -0.199917884     0.174325194
   44    40.020327542     4.520995708    35.401058754     0.436038505    -0.185154763     0.159962919
   45    35.359758352    10.037703157    35.576884005     0.412762537    -0.210265256     0.188190357
   46    38.451784762     1.716206798    32.876625350     0.446462528    -0.180918530     0.133939153
   47    37.876248792     2.285940537    40.441390080     0.413828596    -0.210206748     0.185900556
   48    41.081163898     3.942790405    31.362492171     0.407377684    -0.227981926     0.179074463
   49    34.320630336     5.794949012    32.452386999    -0.417846076     0.182459223    -0.205215225
   50    37.475390360     9.869035348    37.573440910     0.402152133    -0.217668193     0.202223193
   51    40.752360464     6.302647726    31.501825795     0.418527296    -0.196337861     0.190489755
   52    40.459813034    10.065029484    32.203004424     0.402133554    -0.212925482     0.207247060
   53    39.729039697     4.745191103    40.126017230     0.406872316    -0.224199573     0.184903947
   54    35.888151929     2.851900391    40.437434969     0.403744576    -0.243419688     0.166544808
   55    34.334375075    10.520209618    33.338841503     0.403790132    -0.221373531     0.194800639
   56    37.445516608     4.512831269    40.302894216     0.414208004    -0.211952899     0.183051079
   57    36.335183127     6.438998973    37.932662872     0.416543177    -0.207529316     0.182820580
   58    35.208143472     0.727130788    37.722992543     0.405250551    -0.225686609     0.186648185
   59    36.859873513     2.206160562    38.438106255     0.411618558    -0.218789329     0.180835263
   60    39.965179432     6.885475722    39.683727504     0.407596574    -0.218970270     0.189517951
   61    40.130056736     2.258972057    40.587137330     0.423041708    -0.205742518     0.169427654
   62    39.961825932     7.774882518    33.021299398     0.420604400    -0.198170720     0.183902976
   63    33.224405235     8.308514036    40.215135356     0.399802142    -0.226895262     0.196664148
   64    34.564364719     9.630206190    31.281954195     0.406359668    -0.211991089     0.199828923
   65    35.691310429     4.356830106    34.128906766     0.376444261    -0.267341531     0.191880755
   66    32.089620005     7.238577557    38.722262713     0.396399095    -0.231530626     0.198144712
   67    38.920603471     3.267481616    38.834058818     0.413374593    -0.221552174     0.173309203
   68    32.083644278     2.797967725    35.933426750     0.471104629    -0.151085190     0.072344270
   21     2.753958350    16.457730458    33.878207440    -0.412254798     0.204512772    -0.195500659
   22    10.086264021    11.841352912    35.918134160     0.457701866    -0.168252195     0.110454519
   23     9.970337602    19.368678624    36.782973792     0.408666558    -0.217681280     0.188696859
   24     4.917128176    14.256392272    37.611085212     0.417564040    -0.201835515     0.186822638
   25     6.195786986    10.500242555    30.896101283     0.402303364    -0.222823309     0.196218696
   26     2.755012943    11.082620437    37.433246491     0.104015074     0.382624575    -0.304596945
   27     1.419636120    13.082878915    32.721449916     0.417201485    -0.213734909     0.173954908
   28     8.412796838    15.521692662    30.990728780     0.423400937    -0.198010579     0.177548464
   29     9.125426659    18.174505564    35.070243606     0.400827726    -0.224520017     0.197301535
   30     7.895393389    19.088166945    31.767288880     0.413736389    -0.216905292     0.178253457
   31     6.407762451    20.051917637    38.781680095     0.407150046    -0.227429647     0.180290309
   32     8.534637339    10.702904874    38.010608598     0.405969203    -0.226950562     0.183527787
   33     1.597860671    18.077231461    35.412825983     0.408434312    -0.224865294     0.180601806
   34    11.195164642    13.061997422    38.131058457     0.483258182     0.104935980    -0.073823908
   35     8.567453853    17.663641688    30.307270957     0.416071341    -0.212648050     0.177947875
   36     8.081222222    12.650401564    35.641341664     0.449470597    -0.175258603     0.131379620
   37     8.586781583    15.263281449    37.578052923     0.410269908    -0.214299279     0.189088396
   38     6.671829773    16.180488219    34.277191669     0.426969056    -0.197019347     0.169943526
   39     8.858336473    15.875828933    33.702717660     0.434320846    -0.184556418     0.165240221
   40     3.624746905    18.894584681    36.249682561     0.407289300    -0.223314584     0.185056810
   41     7.124118949    12.086489245    33.690659674     0.448552386    -0.174357826     0.135646989
   42     1.408229228    18.528076711    33.139693724     0.418150933    -0.199192930     0.188340047
   43     4.946039956    17.112767205    35.284084735     0.423845075    -0.199911304     0.174329639
   44     9.886435164    14.112108594    34.567423568     0.436038574    -0.185144337     0.159974799
   45     5.225865974    19.628816043    34.743248820     0.412765849    -0.210257866     0.188191349
   46     8.317892384    11.307319684    32.042990165     0.446459834    -0.180886340     0.133991598
   47     7.742356414    11.877053423    39.607754894     0.413824853    -0.210194767     0.185922432
   48    10.947271520    13.533903291    30.528856986     0.407378388    -0.227970903     0.179086896
   49     4.186737958    15.386061898    31.618751814    -0.417867272     0.182347294    -0.205271546
   50     7.341497982    19.460148234    36.739805725     0.402152945    -0.217662541     0.202227662
   51    10.618468086    15.893760612    30.668190610     0.418525584    -0.196330054     0.190501563
   52    10.325920656    19.656142370    31.369369238     0.402129460    -0.212919717     0.207260926
   53     9.595147319    14.336303989    39.292382045     0.406871837    -0.224201210     0.184903017
   54     5.754259551    12.443013277    39.603799783     0.403739266    -0.243415070     0.166564429
   55     4.200482697    20.111322504    32.505206318     0.403793795    -0.221366552     0.194800977
   56     7.311624230    14.103944155    39.469259030     0.414205010    -0.211948373     0.183063096
   57     6.201290749    16.030111859    37.099027686     0.416542671    -0.207524370     0.182827348
   58     5.074251094    10.318243674    36.889357358     0.405245207    -0.225703360     0.186639533
   59     6.725981135    11.797273448    37.604471070     0.411613477    -0.218793606     0.180841653
   60     9.831287054    16.476588608    38.850092319     0.407597273    -0.218968542     0.189518444
   61     9.996164358    11.850084943    39.753502145     0.423036563    -0.205726316     0.169460170
   62     9.827933554    17.365995404    32.187664213     0.420602574    -0.198165120     0.183913186
   63     3.090512857    17.899626922    39.381500171     0.399806666    -0.226898003     0.196651789
   64     4.430472341    19.221319076    30.448319010     0.406364307    -0.211983429     0.199827616
   65     5.557418051    13.947942992    33.295271581     0.376520483    -0.267424900     0.191614844
   66     1.955727626    16.829690443    37.888627528     0.396405241    -0.231533444     0.198129123
   67     8.786711093    12.858594502    38.000423632     0.413373566    -0.221546756     0.173318578
   68     1.949751899    12.389080612    35.099791565     0.471166414    -0.150768041     0.072603089
   21    12.843614300    16.602390669    34.166294310    -0.412250955     0.204513694    -0.195507798
   22    20.175919970    11.986013124    36.206221030     0.457709295    -0.168252966     0.110422556
   23    20.059993552    19.513338836    37.071060661     0.408679149    -0.217660089     0.188694035
   24    15.006784126    14.401052484    37.899172082     0.417568660    -0.201826216     0.186822356
   25    16.285442936    10.644902766    31.184188153     0.402304327    -0.222823307     0.196216722
   26    12.844668893    11.227280649    37.721333360     0.103945812     0.382740796    -0.304474549
   27    11.509292070    13.227539126    33.009536785     0.417196280    -0.213725992     0.173978344
   28    18.502452788    15.666352873    31.278815650     0.423405021    -0.198006256     0.177543547
   29    19.215082609    18.319165776    35.358330476     0.400843033    -0.224495395     0.197298454
   30    17.985049339    19.232827156    32.055375750     0.413739376    -0.216899200     0.178253937
   31    16.497418400    20.196577849    39.069766965     0.407157389    -0.227415088     0.180292092
   32    18.624293289    10.847565085    38.298695467     0.405973565    -0.226946025     0.183523748
   33    11.687516620    18.221891673    35.700912852     0.408430789    -0.224863399     0.180612133
   34    21.284820591    13.206657634    38.419145327     0.483243728     0.104938196    -0.073915319
   35    18.657109803    17.808301900    30.595357826     0.416075979    -0.212642049     0.177944202
   36    18.170878172    12.795061775    35.929428534     0.449477509    -0.175255505     0.131360104
   37    18.676437533    15.407941660    37.866139793     0.410274737    -0.214289162     0.189089385
   38    16.761485722    16.325148431    34.565278539     0.426973322    -0.197009591     0.169944118
   39    18.947992423    16.020489145    33.990804530     0.434325594    -0.184547676     0.165237508
   40    13.714402855    19.039244892    36.537769430     0.407290347    -0.223308457     0.185061899
   41    17.213774899    12.231149456    33.978746543     0.448558511    -0.174355445     0.135629796
   42    11.497885178    18.672736922    33.427780593     0.418143898    -0.199193263     0.188355314
   43    15.035695905    17.257427416    35.572171604     0.423848454    -0.199901694     0.174332443
   44    19.976091114    14.256768805    34.855510438     0.436043713    -0.185136280     0.159970117
   45    15.315521923    19.773476255    35.031335690     0.412767691    -0.210249223     0.188196965
   46    18.407548334    11.451979896    32.331077034     0.446464526    -0.180885502     0.133977095
   47    17.832012364    12.021713635    39.895841764     0.413830183    -0.210183995     0.185922748
   48    21.036927470    13.678563502    30.816943855     0.407379836    -0.227977357     0.179075385
   49    14.276393908    15.530722109    31.906838683    -0.417990740     0.182199317    -0.205151529
   50    17.431153932    19.604808445    37.027892594     0.402161130    -0.217646843     0.202228281
   51    20.708124035    16.038420824    30.956277480     0.418531598    -0.196321944     0.190496707
   52    20.415576605    19.800802581    31.657456108     0.402133965    -0.212912401     0.207259701
   53    19.684803269    14.480964201    39.580468914     0.406876522    -0.224190940     0.184905162
   54    15.843915501    12.587673489    39.891886653     0.403745901    -0.243402124     0.166567264
   55    14.290138647    20.255982716    32.793293187     0.403792744    -0.221359908     0.194810705
   56    17.401280180    14.248604367    39.757345900     0.414210295    -0.211937388     0.183063857
   57    16.290946698    16.174772071    37.387114556     0.416547435    -0.207514228     0.182828005
   58    15.163907044    10.462903886    37.177444227     0.405249829    -0.225698252     0.186635675
   59    16.815637085    11.941933660    37.892557939     0.411618686    -0.218787424     0.180837276
   60    19.920943004    16.621248820    39.138179189     0.407602741    -0.218957390     0.189519568
   61    20.085820308    11.994745154    40.041589015     0.423042731    -0.205713979     0.169459749
   62    19.917589503    17.510655616    32.475751082     0.420608882    -0.198154442     0.183910264
   63    13.180168807    18.044287134    39.669587040     0.399807593    -0.226893130     0.196655527
   64    14.520128291    19.365979288    30.736405879     0.406361731    -0.211977043     0.199839628
   65    15.647074001    14.092603204    33.583358450     0.376369347    -0.267552860     0.191733101
   66    12.045383576    16.974350654    38.176714398     0.396405073    -0.231530211     0.198133236
   67    18.876367043    13.003254713    38.288510502     0.413378801    -0.221537437     0.173318004
   68    12.039407849    12.533740823    35.387878435     0.471165816    -0.150762461     0.072618554
   21    22.933270250    16.747050881    34.454381179    -0.412254390     0.204507991    -0.195506520
   22    30.265575920    12.130673336    36.494307900     0.457710830    -0.168234596     0.110444179
   23    30.149649502    19.657999047    37.359147531     0.408682790    -0.217670042     0.188674666
   24    25.096440076    14.545712695    38.187258951     0.417568945    -0.201833374     0.186813987
   25    26.375098886    10.789562978    31.472275022     0.402301675    -0.222837831     0.196205665
   26    22.934324843    11.371940861    38.009420230     0.103894999     0.382690352    -0.304555288
   27    21.598948020    13.372199338    33.297623655     0.417201312    -0.213714489     0.173980408
   28    28.592108738    15.811013085    31.566902519     0.423408974    -0.198009238     0.177530794
   29    29.304738559    18.463825988    35.646417345     0.400846887    -0.224506988     0.197277432
   30    28.074705289    19.377487368    32.343462619     0.413746688    -0.216897788     0.178238681
   31    26.587074350    20.341238060    39.357853835     0.407163295    -0.227414886     0.180279008
   32    28.713949239    10.992225297    38.586782337     0.405970568    -0.226952597     0.183522250
   33    21.777172570    18.366551885    35.988999722     0.408439071    -0.224853544     0.180605673
   34    31.374476541    13.351317846    38.707232197     0.483248961     0.104976168    -0.073827137
   35    28.746765753    17.952962111    30.883444696     0.416080134    -0.212645683     0.177930143
   36    28.260534121    12.939721987    36.217515403     0.449478410    -0.175246409     0.131369155
   37    28.766093482    15.552601872    38.154226662     0.410272871    -0.214298577     0.189082763
   38    26.851141672    16.469808643    34.853365409     0.426977049    -0.197011634     0.169932385
   39    29.037648373    16.165149356    34.278891399     0.434328802    -0.184551561     0.165224735
   40    23.804058805    19.183905104    36.825856300     0.407298065    -0.223301989     0.185052717
   41    27.303430848    12.375809668    34.266833413     0.448559367    -0.174349330     0.135634824
   42    21.587541128    18.817397134    33.715867463     0.418151783    -0.199181050     0.188350724
   43    25.125351855    17.402087628    35.860258474     0.423853052    -0.199902326     0.174320541
   44    30.065747063    14.401429017    35.143597308     0.436046931    -0.185137893     0.159959477
   45    25.405177873    19.918136467    35.319422559     0.412775020    -0.210244742     0.188185895
   46    28.497204284    11.596640107    32.619163904     0.446465783    -0.180881425     0.133978411
   47    27.921668314    12.166373847    40.183928634     0.413825318    -0.210196179     0.185919803
   48    31.126583420    13.823223714    31.105030725     0.407383449    -0.227976819     0.179067851
   49    24.366049857    15.675382321    32.194925553    -0.417650009     0.182689153    -0.205409696
   50    27.520809882    19.749468657    37.315979464     0.402168057    -0.217646800     0.202214551
   51    30.797779985    16.183081035    31.244364349     0.418535233    -0.196328437     0.190482029
   52    30.505232555    19.945462793    31.945542978     0.402141415    -0.212914725     0.207242858
   53    29.774459219    14.625624412    39.868555784     0.406874083    -0.224201495     0.184897730
   54    25.933571451    12.732333700    40.179973523     0.403743157    -0.243412666     0.166558509
   55    24.379794596    20.400642928    33.081380057     0.403801407    -0.221353427     0.194800113
   56    27.490936130    14.393264578    40.045432770     0.414207537    -0.211947973     0.183057840
   57    26.380602648    16.319432282    37.675201426     0.416548192    -0.207521013     0.182818580
   58    25.253562993    10.607564098    37.465531097     0.405247627    -0.225704887     0.186632431
   59    26.905293034    12.086593872    38.180644809     0.411616713    -0.218793254     0.180834714
   60    30.010598954    16.765909032    39.426266058     0.407600013    -0.218967452     0.189513809
   61    30.175476258    12.139405366    40.329675884     0.423036647    -0.205727511     0.169458511
   62    30.007245453    17.655315828    32.763837952     0.420612847    -0.198160331     0.183894850
   63    23.269824757    18.188947345    39.957673910     0.399811999    -0.226884915     0.196656048
   64    24.609784241    19.510639499    31.024492749     0.406370125    -0.211970304     0.199829707
   65    25.736729950    14.237263415    33.871445320     0.376451097    -0.267422869     0.191753958
   66    22.135039526    17.119010866    38.464801267     0.396409791    -0.231521542     0.198133928
   67    28.966022993    13.147914925    38.576597372     0.413375568    -0.221547291     0.173313121
   68    22.129063799    12.678401035    35.675965304     0.471172459    -0.150764253     0.072571718
   21    33.022926200    16.891711093    34.742468049    -0.412254984     0.204522675    -0.195489907
   22    40.355231870    12.275333547    36.782394769     0.457704089    -0.168255851     0.110439735
   23    40.239305452    19.802659259    37.647234400     0.408678429    -0.217670469     0.188683621
   24    35.186096025    14.690372907    38.475345821     0.417565176    -0.201841317     0.186813828
   25    36.464754835    10.934223190    31.760361892     0.402304711    -0.222832838     0.196205111
   26    33.023980792    11.516601072    38.297507099     0.103993353     0.382770375    -0.304421127
   27    31.688603970    13.516859550    33.585710525     0.417205884    -0.213722452     0.173959663
   28    38.681764687    15.955673297    31.854989389     0.423407350    -0.198019492     0.177523229
   29    39.394394509    18.608486199    35.934504215     0.400842941    -0.224507030     0.197285403
   30    38.164361238    19.522147580    32.631549489     0.413743374    -0.216907905     0.178234063
   31    36.676730300    20.485898272    39.645940704     0.407156354    -0.227421058     0.180286898
   32    38.803605188    11.136885509    38.874869207     0.405968043    -0.226960474     0.183518095
   33    31.866828520    18.511212096    36.277086591     0.408436916    -0.224866263     0.180594712
   34    41.464132491    13.495978057    38.995319066     0.483261992     0.104903737    -0.073844794
   35    38.836421703    18.097622323    31.171531566     0.416077851    -0.212654472     0.177924976
   36    38.350190071    13.084382199    36.505602273     0.449473887    -0.175261313     0.131364747
   37    38.855749432    15.697262083    38.442313532     0.410271356    -0.214302102     0.189082054
   38    36.940797622    16.614468854    35.141452278     0.426971352    -0.197024883     0.169931341
   39    39.127304322    16.309809568    34.566978269     0.434324497    -0.184563056     0.165223211
   40    33.893714755    19.328565316    37.113943170     0.407292967    -0.223315484     0.185047652
   41    37.393086798    12.520469880    34.554920282     0.448556451    -0.174358914     0.135632147
   42    31.677197078    18.962057346    34.003954333     0.418153963    -0.199191121     0.188335236
   43    35.215007805    17.546747840    36.148345344     0.423847283    -0.199915620     0.174319321
   44    40.155403013    14.546089229    35.431684177     0.436042301    -0.185150576     0.159957419
   45    35.494833823    20.062796678    35.607509429     0.412769177    -0.210258583     0.188183248
   46    38.586860233    11.741300319    32.907250774     0.446463816    -0.180888416     0.133975528
   47    38.011324263    12.311034058    40.472015503     0.413825245    -0.210201431     0.185914027
   48    41.216239369    13.967883926    31.393117595     0.407383596    -0.227987884     0.179053429
   49    34.455705807    15.820042533    32.483012422    -0.417808208     0.182521803    -0.205236676
   50    37.610465831    19.894128869    37.604066334     0.402158838    -0.217654533     0.202224563
   51    40.887435935    16.327741247    31.532451219     0.418532872    -0.196336399     0.190479011
   52    40.594888505    20.090123005    32.233629847     0.402138692    -0.212921795     0.207240878
   53    39.864115169    14.770284624    40.156642654     0.406873553    -0.224203602     0.184896341
   54    36.023227400    12.876993912    40.468060392     0.403743061    -0.243414443     0.166556147
   55    34.469450546    20.545303139    33.369466926     0.403797258    -0.221368185     0.194791944
   56    37.580592079    14.537924790    40.333519639     0.414205771    -0.211954164     0.183054670
   57    36.470258598    16.464092494    37.963288295     0.416543949    -0.207529601     0.182818498
   58    35.343218943    10.752224309    37.753617967     0.405243354    -0.225716453     0.186627722
   59    36.994948984    12.231254083    38.468731679     0.411612869    -0.218803799     0.180830704
   60    40.100254903    16.910569243    39.714352928     0.407599660    -0.218968571     0.189513277
   61    40.265132207    12.284065578    40.617762754     0.423037362    -0.205732515     0.169450648
   62    40.096901403    17.799976039    33.051924822     0.420609520    -0.198167531     0.183894701
   63    33.359480706    18.333607557    40.245760779     0.399806073    -0.226899802     0.196650918
   64    34.699440191    19.655299711    31.312579619     0.406367642    -0.211984530     0.199819665
   65    35.826385900    14.381923627    34.159532189     0.376588958    -0.267271103     0.191694846
   66    32.224695476    17.263671078    38.752888137     0.396404783    -0.231535495     0.198127643
   67    39.055678942    13.292575137    38.864684241     0.413374385    -0.221551687     0.173310323
   68    32.218719749    12.823061247    35.964052174     0.471175388    -0.150737424     0.072608424
   21     2.889033821    26.482823979    33.908832864    -0.412249775     0.204517188    -0.195506632
   22    10.221339492    21.866446433    35.948759584     0.457695458    -0.168288111     0.110426353
   23    10.105413073    29.393772145    36.813599215     0.408669293    -0.217672737     0.188700792
   24     5.052203647    24.281485793    37.641710636     0.417563950    -0.201834107     0.186824357
   25     6.330862457    20.525336076    30.926726707     0.402303957    -0.222828495     0.196211591
   26     2.890088414    21.107713958    37.463871914     0.103960045     0.382675387    -0.304551896
   27     1.554711591    23.107972436    32.752075339     0.417198550    -0.213718017     0.173982696
   28     8.547872309    25.546786183    31.021354203     0.423399421    -0.198015242     0.177546880
   29     9.260502130    28.199599085    35.100869030     0.400830086    -0.224511304     0.197306657
   30     8.030468860    29.113260466    31.797914304     0.413733652    -0.216909122     0.178255149
   31     6.542837922    30.077011158    38.812305519     0.407152557    -0.227421177     0.180295323
   32     8.669712810    20.727998395    38.041234021     0.405966656    -0.226958072     0.183524135
   33     1.732936142    28.102324982    35.443451406     0.408435860    -0.224857989     0.180607400
   34    11.330240113    23.087090943    38.161683881     0.483261508     0.104820209    -0.073966468
   35     8.702529324    27.688735209    30.337896380     0.416069852    -0.212652320     0.177946254
   36     8.216297693    22.675495085    35.671967088     0.449467101    -0.175277779     0.131365998
   37     8.721857054    25.288374970    37.608678347     0.410270640    -0.214294322     0.189092425
   38     6.806905244    26.205581740    34.307817093     0.426968493    -0.197018069     0.169946424
   39     8.993411944    25.900922454    33.733343084     0.434319833    -0.184557518     0.165241656
   40     3.759822376    28.919678202    36.280307984     0.407290105    -0.223308838     0.185061972
   41     7.259194420    22.111582766    33.721285097     0.448549271    -0.174372553     0.135638359
   42     1.543304699    28.553170232    33.170319147     0.418152844    -0.199184732     0.188344476
   43     5.081115427    27.137860726    35.314710158     0.423844380    -0.199909151     0.174333797
   44    10.021510635    24.137202115    34.598048992     0.436037527    -0.185145777     0.159975986
   45     5.360941445    29.653909564    34.773874244     0.412764973    -0.210254285     0.188197272
   46     8.452967855    21.332413205    32.073615588     0.446456830    -0.180899606     0.133983699
   47     7.877431885    21.902146944    39.638380318     0.413825204    -0.210199329     0.185916495
   48    11.082346991    23.558996812    30.559482409     0.407377401    -0.227979702     0.179077939
   49     4.321813429    25.411155419    31.649377237    -0.417708176     0.182563012    -0.205403569
   50     7.476573453    29.485241755    36.770431148     0.402155711    -0.217653149     0.202232270
   51    10.753543557    25.918854133    30.698816034     0.418524633    -0.196333551     0.190500049
   52    10.460996127    29.681235891    31.399994662     0.402127661    -0.212921976     0.207262095
   53     9.730222790    24.361397510    39.323007468     0.406872343    -0.224194878     0.184909582
   54     5.889335022    22.468106798    39.634425207     0.403737811    -0.243419022     0.166562181
   55     4.335558168    30.136416025    32.535831741     0.403789950    -0.221367505     0.194807864
   56     7.446699701    24.129037676    39.499884454     0.414205117    -0.211948046     0.183063233
   57     6.336366220    26.055205380    37.129653110     0.416542699    -0.207521842     0.182830154
   58     5.209326565    20.343337195    36.919982781     0.405245455    -0.225707824     0.186633597
   59     6.861056606    21.822366969    37.635096493     0.411612996    -0.218798223     0.180837164
   60     9.966362525    26.501682129    38.880717742     0.407599910    -0.218960621     0.189521924
   61    10.131239829    21.875178464    39.784127569     0.423037987    -0.205732439     0.169449181
   62     9.963009025    27.391088925    32.218289636     0.420601812    -0.198165278     0.183914758
   63     3.225588328    27.924720443    39.412125594     0.399809129    -0.226887757     0.196658602
   64     4.565547812    29.246412597    30.478944433     0.406360156    -0.211984167     0.199835272
   65     5.692493522    23.973036513    33.325897004     0.376418462    -0.267230943     0.192085307
   66     2.090803098    26.854783964    37.919252952     0.396407878    -0.231524076     0.198134794
   67     8.921786564    22.883688023    38.031049056     0.413372274    -0.221547441     0.173320784
   68     2.084827370    22.414174133    35.130416989     0.471174450    -0.150776162     0.072534038
   21    12.978689771    26.627484190    34.196919733    -0.412248530     0.204512216    -0.195514458
   22    20.310995441    22.011106645    36.236846454     0.457709521    -0.168245453     0.110433067
   23    20.195069023    29.538432357    37.101686085     0.408670500    -0.217686161     0.188682690
   24    15.141859597    24.426146005    37.929797505     0.417567655    -0.201832227     0.186818109
   25    16.420518407    20.669996287    31.214813576     0.402301464    -0.222827559     0.196217765
   26    12.979744364    21.252374170    37.751958784     0.103808886     0.382557980    -0.304750894
   27    11.644367541    23.252632647    33.040162209     0.417200349    -0.213710732     0.173987332
   28    18.637528259    25.691446394    31.309441073     0.423396394    -0.198020839     0.177547856
   29    19.350158080    28.344259297    35.388955899     0.400832713    -0.224524963     0.197285776
   30    18.120124810    29.257920677    32.086001173     0.413729502    -0.216919693     0.178251917
   31    16.632493871    30.221671370    39.100392389     0.407152490    -0.227430626     0.180283556
   32    18.759368760    20.872658606    38.329320891     0.405976106    -0.226942276     0.183522763
   33    11.822592091    28.246985194    35.731538276     0.408430703    -0.224863686     0.180611970
   34    21.419896063    23.231751155    38.449770751     0.483249305     0.104926543    -0.073895399
   35    18.792185274    27.833395421    30.625983250     0.416066518    -0.212658772     0.177946339
   36    18.305953643    22.820155296    35.960053957     0.449476247    -0.175252832     0.131367988
   37    18.811513004    25.433035181    37.896765216     0.410275197    -0.214292374     0.189084745
   38    16.896561194    26.350241952    34.595903963     0.426968982    -0.197020979     0.169941819
   39    19.083067894    26.045582666    34.021429953     0.434319359    -0.184560859     0.165239170
   40    13.849478326    29.064338413    36.568394854     0.407287217    -0.223316451     0.185059142
   41    17.348850370    22.256242977    34.009371967     0.448557589    -0.174351754     0.135637589
   42    11.632960649    28.697830443    33.458406017     0.418143725    -0.199191629     0.188357426
   43    15.170771376    27.282520937    35.602797028     0.423844810    -0.199912895     0.174328459
   44    20.111166585    24.281862326    34.886135862     0.436037475    -0.185147246     0.159974429
   45    15.450597394    29.798569776    35.061961113     0.412762767    -0.210263196     0.188192153
   46    18.542623805    21.477073417    32.361702458     0.446463649    -0.180883307     0.133982980
   47    17.967087835    22.046807156    39.926467187     0.413830749    -0.210189757     0.185914974
   48    21.172002941    23.703657023    30.847569279     0.407374609    -0.227978807     0.179085431
   49    14.411469379    25.555815631    31.937464107    -0.417838846     0.182394982    -0.205287041
   50    17.566229403    29.629901966    37.058518018     0.402155167    -0.217664501     0.202221133
   51    20.843199506    26.063514345    30.986902903     0.418522965    -0.196338349     0.190498769
   52    20.550652076    29.825896102    31.688081532     0.402123409    -0.212933023     0.207258997
   53    19.819878740    24.506057722    39.611094338     0.406877913    -0.224192041     0.184900765
   54    15.978990972    22.612767010    39.922512077     0.403747727    -0.243406225     0.166556844
   55    14.425214118    30.281076237    32.823918611     0.403784652    -0.221379028     0.194805753
   56    17.536355651    24.273697888    39.787971324     0.414210895    -0.211941172     0.183058117
   57    16.426022169    26.199865592    37.417739980     0.416545803    -0.207521874     0.182823046
   58    15.298982515    20.487997407    37.208069651     0.405251819    -0.225691618     0.186639376
   59    16.950712556    21.967027181    37.923183363     0.411619963    -0.218783881     0.180838655
   60    20.056018475    26.646342341    39.168804612     0.407603347    -0.218959427     0.189515913
   61    20.220895779    22.019838675    40.072214438     0.423042676    -0.205721419     0.169450855
   62    20.052664974    27.535749137    32.506376506     0.420601184    -0.198170897     0.183910140
   63    13.315244278    28.069380655    39.700212464     0.399811400    -0.226885526     0.196656559
   64    14.655203762    29.391072809    30.767031303     0.406353476    -0.211997038     0.199835205
   65    15.782149472    24.117696725    33.613983874     0.376527145    -0.267234239     0.191867586
   66    12.180459047    26.999444175    38.207339821     0.396407800    -0.231524098     0.198134925
   67    19.011442514    23.028348234    38.319135926     0.413379424    -0.221538168     0.173315585
   68    12.174483320    22.558834344    35.418503858     0.471155735    -0.150818242     0.072568117
   21    23.068345721    26.772144402    34.485006603    -0.412250827     0.204513624    -0.195508141
   22    30.400651391    22.155766857    36.524933323     0.457712954    -0.168264148     0.110390343
   23    30.284724973    29.683092568    37.389772954     0.408681259    -0.217659071     0.188690639
   24    25.231515547    24.570806216    38.217884375     0.417577896    -0.201817440     0.186811192
   25    26.510174357    20.814656499    31.502900446     0.402312621    -0.222818616     0.196205045
   26    23.069400314    21.397034382    38.040045653     0.103941619     0.382665973    -0.304570013
   27    21.734023491    23.397292859    33.328249078     0.417193092    -0.213728413     0.173983016
   28    28.727184209    25.836106606    31.597527943     0.423412495    -0.198000317     0.177532345
   29    29.439814030    28.488919509    35.677042769     0.400843987    -0.224497991     0.197293564
   30    28.209780760    29.402580889    32.374088043     0.413743904    -0.216897514     0.178245478
   31    26.722149821    30.366331581    39.388479258     0.407158303    -0.227414335     0.180290977
   32    28.849024710    21.017318818    38.617407761     0.405981461    -0.226943926     0.183508876
   33    21.912248041    28.391645406    36.019625145     0.408433865    -0.224860972     0.180608198
   34    31.509552012    23.376411367    38.737857620     0.483246465     0.104852485    -0.074018990
   35    28.881841224    27.978055632    30.914070120     0.416082298    -0.212639028     0.177933034
   36    28.395609592    22.964815508    36.248140827     0.449484959    -0.175254532     0.131335909
   37    28.901168954    25.577695393    38.184852086     0.410282305    -0.214281938     0.189081149
   38    26.986217143    26.494902164    34.883990832     0.426980109    -0.197002612     0.169935157
   39    29.172723844    26.190242877    34.309516823     0.434332578    -0.184542367     0.165225080
   40    23.939134276    29.208998625    36.856481724     0.407293790    -0.223304608     0.185058966
   41    27.438506319    22.400903189    34.297458836     0.448566740    -0.174350994     0.135608300
   42    21.722616599    28.842490655    33.746492887     0.418145144    -0.199195456     0.188350229
   43    25.260427326    27.427181149    35.890883898     0.423855383    -0.199894397     0.174323963
   44    30.200822534    24.426522538    35.174222731     0.436051268    -0.185129076     0.159957859
   45    25.540253344    29.943229988    35.350047983     0.412770693    -0.210247018     0.188192844
   46    28.632279755    21.621733629    32.649789328     0.446473737    -0.180878250     0.133956190
   47    28.056743785    22.191467368    40.214554057     0.413837087    -0.210186643     0.185904386
   48    31.261658891    23.848317235    31.135656149     0.407392460    -0.227963126     0.179064785
   49    24.501125328    25.700475842    32.225550976    -0.417788802     0.182485585    -0.205308374
   50    27.655885353    29.774562178    37.346604888     0.402162026    -0.217646202     0.202227187
   51    30.932855456    26.208174556    31.274989773     0.418538003    -0.196319773     0.190484873
   52    30.640308026    29.970556314    31.976168401     0.402138374    -0.212913320     0.207250201
   53    29.909534690    24.650717933    39.899181208     0.406884153    -0.224182901     0.184898115
   54    26.068646922    22.757427221    40.210598946     0.403755320    -0.243401293     0.166545645
   55    24.514870068    30.425736449    33.112005480     0.403793199    -0.221361289     0.194808193
   56    27.626011601    24.418358099    40.076058193     0.414218969    -0.211934397     0.183047692
   57    26.515678119    26.344525803    37.705826849     0.416556031    -0.207506135     0.182817605
   58    25.388638464    20.632657619    37.496156521     0.405258082    -0.225692624     0.186624560
   59    27.040368505    22.111687393    38.211270233     0.411626662    -0.218782837     0.180824671
   60    30.145674425    26.791002553    39.456891482     0.407609749    -0.218949880     0.189513171
   61    30.310551729    22.164498887    40.360301308     0.423048936    -0.205718835     0.169438363
   62    30.142320924    27.680409349    32.794463376     0.420614592    -0.198152527     0.183899268
   63    23.404900228    28.214040866    39.988299333     0.399811316    -0.226885717     0.196656511
   64    24.744859712    29.535733020    31.055118173     0.406361083    -0.211980157     0.199837642
   65    25.871805421    24.262356936    33.902070743     0.376436183    -0.267497080     0.191679712
   66    22.270114997    27.144104387    38.495426691     0.396409357    -0.231523627     0.198132359
   67    29.101098464    23.173008446    38.607222795     0.413385766    -0.221534077     0.173305686
   68    22.264139270    22.703494556    35.706590728     0.471172524    -0.150757534     0.072585253
   21    33.158001671    26.916804614    34.773093473    -0.412260798     0.204505399    -0.195495719
   22    40.490307341    22.300427068    36.813020193     0.457713148    -0.168260449     0.110395179
   23    40.374380923    29.827752780    37.677859824     0.408684318    -0.217663192     0.188679259
   24    35.321171496    24.715466428    38.505971244     0.417571837    -0.201827287     0.186814099
   25    36.599830306    20.959316711    31.790987315     0.402308269    -0.222833142     0.196197472
   26    33.159056263    21.541694593    38.328132523     0.103952543     0.382510630    -0.304761360
   27    31.823679441    23.541953071    33.616335948     0.417211447    -0.213698105     0.173976229
   28    38.816840158    25.980766818    31.885614812     0.423408670    -0.198008002     0.177532898
   29    39.529469980    28.633579720    35.965129638     0.400848688    -0.224499962     0.197281769
   30    38.299436709    29.547241101    32.662174913     0.413746779    -0.216897551     0.178238760
   31    36.811805771    30.510991793    39.676566128     0.407165749    -0.227412473     0.180276509
   32    38.938680660    21.161979030    38.905494630     0.405975207    -0.226947878     0.183517824
   33    32.001903991    28.536305617    36.307712015     0.408443069    -0.224851332     0.180599385
   34    41.599207962    23.521071578    39.025944490     0.483240484     0.104909385    -0.073977400
   35    38.971497174    28.122715844    31.202156989     0.416079829    -0.212644082     0.177932769
   36    38.485265542    23.109475720    36.536227697     0.449481122    -0.175260890     0.131340554
   37    38.990824903    25.722355604    38.472938955     0.410276367    -0.214289758     0.189085172
   38    37.075873093    26.639562375    35.172077702     0.426977407    -0.197009146     0.169934371
   39    39.262379794    26.334903089    34.597603692     0.434327567    -0.184550771     0.165228865
   40    34.028790226    29.353658837    37.144568593     0.407300833    -0.223300064     0.185048947
   41    37.528162269    22.545563401    34.585545706     0.448562248    -0.174360644     0.135610751
   42    31.812272549    28.987150867    34.034579756     0.418156455    -0.199179936     0.188341530
   43    35.350083276    27.571841361    36.178970767     0.423853996    -0.199899416     0.174321580
   44    40.290478484    24.571182750    35.462309601     0.436045128    -0.185139714     0.159962286
   45    35.629909294    30.087890199    35.638134852     0.412777841    -0.210242669     0.188182022
   46    38.721935704    21.766393840    32.937876197     0.446468224    -0.180890379     0.133958187
   47    38.146399734    22.336127579    40.502640927     0.413831071    -0.210188764     0.185915378
   48    41.351314841    23.992977447    31.423743018     0.407385000    -0.227973326     0.179068769
   49    34.590781278    25.845136054    32.513637846    -0.417783804     0.182515792    -0.205291691
   50    37.745541302    29.919222390    37.634691757     0.402170312    -0.217643863     0.202213227
   51    41.022511406    26.352834768    31.563076642     0.418534515    -0.196325569     0.190486564
   52    40.729963976    30.115216526    32.264255271     0.402141917    -0.212911301     0.207245401
   53    39.999190640    24.795378145    40.187268077     0.406877613    -0.224191241     0.184902396
   54    36.158302871    22.902087433    40.498685816     0.403745398    -0.243408926     0.166558544
   55    34.604526017    30.570396660    33.400092350     0.403804828    -0.221352964     0.194793547
   56    37.715667550    24.563018311    40.364145063     0.414211279    -0.211941470     0.183056904
   57    36.605334069    26.489186015    37.993913719     0.416550606    -0.207515273     0.182819594
   58    35.478294414    20.777317830    37.784243390     0.405251159    -0.225699104     0.186631758
   59    37.130024455    22.256347604    38.499357102     0.411619909    -0.218789866     0.180831538
   60    40.235330374    26.935662764    39.744978351     0.407604080    -0.218957547     0.189516508
   61    40.400207679    22.309159099    40.648388178     0.423044558    -0.205717117     0.169451378
   62    40.231976874    27.825069560    33.082550245     0.420611923    -0.198157497     0.183900018
   63    33.494556177    28.358701078    40.276386203     0.399819273    -0.226877513     0.196649798
   64    34.834515662    29.680393232    31.343205042     0.406373880    -0.211970105     0.199822282
   65    35.961461371    24.407017148    34.190157613     0.376429890    -0.267470723     0.191728846
   66    32.359770947    27.288764599    38.783513561     0.396416779    -0.231514451     0.198128231
   67    39.190754413    23.317668658    38.895309665     0.413379466    -0.221540034     0.173313099
   68    32.353795220    22.848154768    35.994677597     0.471171430    -0.150789467     0.072526001
   21     3.024109292    36.507917500    33.939458287    -0.412257359     0.204515482    -0.195492422
   22    10.356414963    31.891539954    35.979385008     0.457698836    -0.168272216     0.110436572
   23    10.240488544    39.418865666    36.844224639     0.408666779    -0.217673483     0.188705374
   24     5.187279118    34.306579314    37.672336059     0.417564798    -0.201831053     0.186825763
   25     6.465937928    30.550429597    30.957352130     0.402298188    -0.222836181     0.196214690
   26     3.025163885    31.132807479    37.494497338     0.103917028     0.382641157    -0.304609580
   27     1.689787062    33.133065957    32.782700763     0.417209478    -0.213709707     0.173966700
   28     8.682947780    35.571879704    31.051979627     0.423398018    -0.198015445     0.177549998
   29     9.395577601    38.224692606    35.131494453     0.400828477    -0.224511615     0.197309571
   30     8.165544331    39.138353987    31.828539727     0.413732795    -0.216905324     0.178261760
   31     6.677913393    40.102104679    38.842930943     0.407150604    -0.227416258     0.180305939
   32     8.804788281    30.753091916    38.071859445     0.405969415    -0.226950208     0.183527756
   33     1.868011613    38.127418504    35.474076830     0.408436263    -0.224862312     0.180601107
   34    11.465315584    33.112184464    38.192309305     0.483256718     0.104889049    -0.073900149
   35     8.837604795    37.713828730    30.368521804     0.416067862    -0.212651688     0.177951661
   36     8.351373164    32.700588606    35.702592511     0.449469331    -0.175269927     0.131368844
   37     8.856932525    35.313468491    37.639303770     0.410269622    -0.214294472     0.189094465
   38     6.941980715    36.230675261    34.338442517     0.426969295    -0.197014924     0.169948054
   39     9.128487415    35.926015975    33.763968507     0.434320882    -0.184552508     0.165244494
   40     3.894897847    38.944771723    36.310933408     0.407291151    -0.223309421     0.185058967
   41     7.394269891    32.136676287    33.751910521     0.448550488    -0.174370308     0.135637219
   42     1.678380170    38.578263753    33.200944571     0.418152954    -0.199191846     0.188336708
   43     5.216190898    37.162954247    35.345335582     0.423845634    -0.199906242     0.174334085
   44    10.156586106    34.162295636    34.628674415     0.436039038    -0.185138980     0.159979735
   45     5.496016916    39.679003085    34.804499667     0.412766382    -0.210249558     0.188199461
   46     8.588043326    31.357506726    32.104241012     0.446457342    -0.180899409     0.133982259
   47     8.012507356    31.927240465    39.669005741     0.413827378    -0.210192937     0.185918882
   48    11.217422462    33.584090333    30.590107833     0.407375255    -0.227980134     0.179082273
   49     4.456888900    35.436248940    31.680002661    -0.417843991     0.182605069    -0.205089707
   50     7.611648924    39.510335276    36.801056572     0.402153525    -0.217649087     0.202240989
   51    10.888619028    35.943947654    30.729441457     0.418523857    -0.196331751     0.190503609
   52    10.596071598    39.706329412    31.430620086     0.402128300    -0.212916801     0.207266172
   53     9.865298261    34.386491031    39.353632892     0.406872442    -0.224195471     0.184908645
   54     6.024410493    32.493200319    39.665050631     0.403741896    -0.243409225     0.166566595
   55     4.470633639    40.161509546    32.566457165     0.403792620    -0.221358388     0.194812690
   56     7.581775172    34.154131197    39.530509877     0.414207023    -0.211943728     0.183063919
   57     6.471441691    36.080298901    37.160278534     0.416543394    -0.207519689     0.182831015
   58     5.344402036    30.368430716    36.950608205     0.405247025    -0.225700036     0.186639606
   59     6.996132077    31.847460490    37.665721917     0.411614823    -0.218791205     0.180841494
   60    10.101437996    36.526775650    38.911343166     0.407596681    -0.218962147     0.189527105
   61    10.266315300    31.900271985    39.814752992     0.423040290    -0.205725160     0.169452270
   62    10.098084496    37.416182446    32.248915060     0.420602009    -0.198162645     0.183917144
   63     3.360663799    37.949813964    39.442751018     0.399809600    -0.226890245     0.196654776
   64     4.700623283    39.271506118    30.509569857     0.406362025    -0.211976611     0.199839489
   65     5.827568993    33.998130034    33.356522428     0.376563958    -0.267459238     0.191481439
   66     2.225878569    36.879877485    37.949878375     0.396409624    -0.231527106     0.198127760
   67     9.056862035    32.908781544    38.061674480     0.413374144    -0.221544135     0.173320550
   68     2.219902841    32.439267654    35.161042412     0.471175815    -0.150766671     0.072544900
   21    13.113765242    36.652577711    34.227545157    -0.412249278     0.204508382    -0.195516892
   22    20.446070912    32.036200166    36.267471877     0.457691797    -0.168318606     0.110395043
   23    20.330144494    39.563525878    37.132311508     0.408666083    -0.217678480     0.188701118
   24    15.276935068    34.451239526    37.960422929     0.417564178    -0.201839708     0.186817799
   25    16.555593878    30.695089808    31.245439000     0.402291189    -0.222849300     0.196214140
   26    13.114819835    31.277467691    37.782584207     0.103875454     0.382688921    -0.304563753
   27    11.779443012    33.277726168    33.070787632     0.417201606    -0.213702666     0.173994225
   28    18.772603730    35.716539915    31.340066497     0.423391288    -0.198030840     0.177548877
   29    19.485233551    38.369352818    35.419581323     0.400827997    -0.224517244     0.197304140
   30    18.255200281    39.283014198    32.116626597     0.413727679    -0.216919510     0.178256370
   31    16.767569342    40.246764891    39.131017812     0.407152206    -0.227418018     0.180300101
   32    18.894444231    30.897752128    38.359946314     0.405969938    -0.226959862     0.183514659
   33    11.957667562    38.272078715    35.762163699     0.408430783    -0.224859611     0.180616863
   34    21.554971534    33.256844676    38.480396174     0.483260470     0.104798825    -0.074003540
   35    18.927260745    37.858488942    30.656608674     0.416062019    -0.212666809     0.177947252
   36    18.441029114    32.845248818    35.990679381     0.449463169    -0.175304199     0.131344195
   37    18.946588475    35.458128702    37.927390640     0.410270781    -0.214299039     0.189086775
   38    17.031636665    36.375335473    34.626529386     0.426966686    -0.197022339     0.169946011
   39    19.218143365    36.070676187    34.052055377     0.434315648    -0.184567742     0.165241236
   40    13.984553797    39.089431934    36.599020277     0.407288255    -0.223308634     0.185066289
   41    17.483925841    32.281336498    34.039997390     0.448544137    -0.174402355     0.135617018
   42    11.768036120    38.722923965    33.489031441     0.418143725    -0.199188859     0.188360357
   43    15.305846847    37.307614458    35.633422452     0.423843353    -0.199912064     0.174332953
   44    20.246242056    34.306955847    34.916761285     0.436032917    -0.185156565     0.159976068
   45    15.585672865    39.823663297    35.092586537     0.412763998    -0.210253693     0.188200070
   46    18.677699276    31.502166938    32.392327882     0.446450255    -0.180927687     0.133967692
   47    18.102163306    32.071900677    39.957092611     0.413829344    -0.210199548     0.185907031
   48    21.307078412    33.728750544    30.878194703     0.407365112    -0.227997803     0.179082851
   49    14.546544850    35.580909152    31.968089530    -0.417815885     0.182302301    -0.205416059
   50    17.701304874    39.654995487    37.089143442     0.402154794    -0.217651734     0.202235616
   51    20.978274977    36.088607866    31.017528327     0.418517610    -0.196347434     0.190501168
   52    20.685727547    39.850989623    31.718706955     0.402122850    -0.212931341     0.207261808
   53    19.954954211    34.531151243    39.641719762     0.406873899    -0.224197502     0.184902977
   54    16.114066443    32.637860531    39.953137500     0.403744135    -0.243419288     0.166546461
   55    14.560289589    40.306169758    32.854544034     0.403788088    -0.221367529     0.194811696
   56    17.671431122    34.298791409    39.818596747     0.414208002    -0.211951627     0.183052558
   57    16.561097640    36.224959113    37.448365403     0.416542562    -0.207527343     0.182824222
   58    15.434057986    30.513090928    37.238695074     0.405246155    -0.225710365     0.186629004
   59    17.085788027    31.992120702    37.953808787     0.411614133    -0.218802824     0.180829007
   60    20.191093946    36.671435862    39.199430036     0.407599106    -0.218964827     0.189518794
   61    20.355971250    32.044932196    40.102839862     0.423042636    -0.205730413     0.169440034
   62    20.187740445    37.560842658    32.537001930     0.420596365    -0.198176710     0.183914898
   63    13.450319749    38.094474176    39.730837887     0.399805474    -0.226887854     0.196665922
   64    14.790279233    39.416166330    30.797656726     0.406357444    -0.211984845     0.199840070
   65    15.917224943    34.142790246    33.644609297     0.376404035    -0.267528664     0.191698766
   66    12.315534518    37.024537696    38.237965245     0.396402944    -0.231525791     0.198142661
   67    19.146517985    33.053441755    38.349761349     0.413373682    -0.221551774     0.173311889
   68    12.309558791    32.583927865    35.449129282     0.471161212    -0.150791509     0.072588107
   21    23.203421192    36.797237923    34.515632027    -0.412242008     0.204528139    -0.195511552
   22    30.535726862    32.180860378    36.555558747     0.457714676    -0.168234434     0.110428485
   23    30.419800444    39.708186089    37.420398378     0.408658151    -0.217715764     0.188675282
   24    25.366591018    34.595899737    38.248509798     0.417565287    -0.201834442     0.186821009
   25    26.645249828    30.839750020    31.533525869     0.402302945    -0.222828378     0.196213798
   26    23.204475785    31.422127903    38.070671077     0.103965579     0.382581993    -0.304667322
   27    21.869098962    33.422386380    33.358874502     0.417192804    -0.213709770     0.174006606
   28    28.862259680    35.861200127    31.628153366     0.423397698    -0.198031470     0.177532887
   29    29.574889501    38.514013030    35.707668192     0.400821542    -0.224551820     0.197277903
   30    28.344856231    39.427674410    32.404713467     0.413729986    -0.216929955     0.178238305
   31    26.857225292    40.391425102    39.419104682     0.407142035    -0.227437762     0.180298163
   32    28.984100181    31.042412339    38.648033184     0.405976953    -0.226941386     0.183521989
   33    22.047323512    38.416738927    36.050250569     0.408424482    -0.224874039     0.180613148
   34    31.644627483    33.401504888    38.768483044     0.483237212     0.104973338    -0.073908016
   35    29.016916695    38.003149153    30.944695543     0.416067354    -0.212668168     0.177933153
   36    28.530685063    32.989909029    36.278766251     0.449478985    -0.175249011     0.131363718
   37    29.036244425    35.602788914    38.215477509     0.410271472    -0.214296583     0.189088059
   38    27.121292614    36.519995685    34.914616256     0.426966647    -0.197026721     0.169941028
   39    29.307799315    36.215336398    34.340142246     0.434319407    -0.184567099     0.165232076
   40    24.074209747    39.234092146    36.887107147     0.407280862    -0.223325714     0.185061948
   41    27.573581790    32.425996710    34.328084260     0.448558591    -0.174352008     0.135633947
   42    21.857692070    38.867584176    33.777118310     0.418138944    -0.199201843     0.188357237
   43    25.395502797    37.452274670    35.921509321     0.423841549    -0.199918578     0.174329869
   44    30.335898005    34.451616059    35.204848155     0.436037531    -0.185153569     0.159966956
   45    25.675328815    39.968323509    35.380673406     0.412757660    -0.210269584     0.188196216
   46    28.767355226    31.646827150    32.680414751     0.446464650    -0.180883293     0.133979666
   47    28.191819256    32.216560889    40.245179481     0.413831148    -0.210185473     0.185918929
   48    31.396734362    33.873410756    31.166281572     0.407375155    -0.227995575     0.179062841
   49    24.636200799    35.725569363    32.256176400    -0.417865926     0.182484977    -0.205151897
   50    27.790960824    39.799655699    37.377230311     0.402145465    -0.217669038     0.202235543
   51    31.067930927    36.233268077    31.305615196     0.418523366    -0.196348403     0.190487524
   52    30.775383497    39.995649835    32.006793825     0.402126336    -0.212935316     0.207250962
   53    30.044610161    34.675811454    39.929806631     0.406875180    -0.224195689     0.184902354
   54    26.203722393    32.782520742    40.241224370     0.403749176    -0.243401595     0.166560099
   55    24.649945539    40.450829970    33.142630904     0.403782090    -0.221383652     0.194805806
   56    27.761087072    34.443451620    40.106683617     0.414210413    -0.211939832     0.183060758
   57    26.650753590    36.369619324    37.736452273     0.416542776    -0.207525104     0.182826274
   58    25.523713935    30.657751140    37.526781944     0.405252502    -0.225692607     0.186636697
   59    27.175443976    32.136780914    38.241895656     0.411620623    -0.218783998     0.180837012
   60    30.280749896    36.816096074    39.487516905     0.407598449    -0.218965212     0.189519763
   61    30.445627200    32.189592408    40.390926731     0.423042567    -0.205716630     0.169456940
   62    30.277396395    37.705502870    32.825088799     0.420600099    -0.198181310     0.183901401
   63    23.539975699    38.239134387    40.018924757     0.399801639    -0.226898506     0.196661427
   64    24.879935183    39.560826541    31.085743596     0.406352114    -0.212000343     0.199834465
   65    26.006880893    34.287450457    33.932696167     0.376378714    -0.267500109     0.191788310
   66    22.405190468    37.169197908    38.526052115     0.396401145    -0.231533688     0.198137032
   67    29.236173935    33.198101967    38.637848219     0.413379054    -0.221539328     0.173314984
   68    22.399214741    32.728588077    35.737216151     0.471151441    -0.150850871     0.072528164
   21    33.293077142    36.941898135    34.803718896    -0.412250200     0.204530288    -0.195492031
   22    40.625382812    32.325520589    36.843645616     0.457715461    -0.168250056     0.110401428
   23    40.509456394    39.852846301    37.708485247     0.408675224    -0.217686076     0.188672556
   24    35.456246967    34.740559949    38.536596668     0.417576267    -0.201827397     0.186804077
   25    36.734905777    30.984410232    31.821612739     0.402314102    -0.222821864     0.196198318
   26    33.294131734    31.566788114    38.358757946     0.103905027     0.382640229    -0.304614840
   27    31.958754912    33.567046592    33.646961372     0.417187178    -0.213746742     0.173974679
   28    38.951915629    36.005860339    31.916240236     0.423409572    -0.198012925     0.177525253
   29    39.664545451    38.658673241    35.995755062     0.400839648    -0.224524315     0.197272423
   30    38.434512180    39.572334622    32.692800336     0.413742999    -0.216910336     0.178231976
   31    36.946881242    40.536085314    39.707191551     0.407155785    -0.227420629     0.180288725
   32    39.073756131    31.187072551    38.936120054     0.405983400    -0.226941403     0.183507708
   33    32.136979462    38.561399138    36.338337439     0.408431399    -0.224876430     0.180594528
   34    41.734283433    33.546165099    39.056569913     0.483245304     0.104897251    -0.073963117
   35    39.106572645    38.147809365    31.232782413     0.416079374    -0.212650762     0.177925849
   36    38.620341013    33.134569241    36.566853120     0.449485086    -0.175250227     0.131341218
   37    39.125900374    35.747449126    38.503564379     0.410280016    -0.214293187     0.189073368
   38    37.210948564    36.664655896    35.202703125     0.426978603    -0.197012808     0.169927119
   39    39.397455265    36.359996610    34.628229116     0.434330773    -0.184550998     0.165220183
   40    34.163865697    39.378752358    37.175194017     0.407292239    -0.223320497     0.185043206
   41    37.663237740    32.570656922    34.616171130     0.448566771    -0.174348124     0.135611887
   42    31.947348020    39.012244388    34.065205180     0.418142883    -0.199209752     0.188340129
   43    35.485158747    37.596934882    36.209596191     0.423853355    -0.199906031     0.174315553
   44    40.425553955    34.596276271    35.492935024     0.436049756    -0.185136421     0.159953481
   45    35.764984765    40.112983720    35.668760276     0.412769903    -0.210256837     0.188183606
   46    38.857011175    31.791487361    32.968501621     0.446473298    -0.180876587     0.133959901
   47    38.281475205    32.361221100    40.533266350     0.413838924    -0.210188270     0.185898457
   48    41.486390312    34.018070968    31.454368442     0.407388610    -0.227976690     0.179056273
   49    34.725856749    35.870229575    32.544263269    -0.417940781     0.182366758    -0.205104533
   50    37.880616773    39.944315911    37.665317181     0.402159143    -0.217656345     0.202222005
   51    41.157586877    36.377928289    31.593702066     0.418534996    -0.196330978     0.190479930
   52    40.865039447    40.140310047    32.294880694     0.402139206    -0.212921802     0.207239875
   53    40.134266111    34.820471666    40.217893501     0.406883406    -0.224192358     0.184888293
   54    36.293378342    32.927180954    40.529311239     0.403758222    -0.243399096     0.166541822
   55    34.739601488    40.595490181    33.430717773     0.403793733    -0.221371058     0.194795986
   56    37.850743021    34.588111832    40.394770486     0.414220277    -0.211936389     0.183042425
   57    36.740409540    36.514279536    38.024539142     0.416554199    -0.207516617     0.182809882
   58    35.613369885    30.802411351    37.814868814     0.405260451    -0.225689806     0.186622825
   59    37.265099926    32.281441125    38.529982526     0.411628794    -0.218780916     0.180822142
   60    40.370405845    36.960756285    39.775603775     0.407605694    -0.218965082     0.189504330
   61    40.535283150    32.334252620    40.679013601     0.423049530    -0.205722093     0.169432925
   62    40.367052345    37.850163081    33.113175669     0.420612293    -0.198163387     0.183892824
   63    33.629631649    38.383794599    40.307011627     0.399807608    -0.226897195     0.196650806
   64    34.969591133    39.705486753    31.373830466     0.406362348    -0.211989441     0.199825222
   65    36.096536842    34.432110669    34.220783037     0.376513602    -0.267526647     0.191486294
   66    32.494846418    37.313858120    38.814138984     0.396405151    -0.231533433     0.198129316
   67    39.325829884    33.342762179    38.925935088     0.413386586    -0.221537066     0.173299909
   68    32.488870691    32.873248289    36.025303021     0.471180190    -0.150736219     0.072579755
