CRYSTAL
PRIMVEC
    40.358642790     0.578641119     1.152348021
     0.540302138    40.100392953     0.122501752
     1.147485224     0.128543006    40.047960291
PRIMCOORD
 3072    1
   21     1.758269367     6.336229727     3.811625931     0.371502328    -0.246868039     0.225925191
   22     9.090575037     1.719852182     5.851552651    -0.425805388     0.222741796    -0.138115401
   23     8.974648619     9.247177894     6.716392283    -0.367331880     0.257947921    -0.220295619
   24     3.921439192     4.134891542     7.544503703    -0.377349359     0.245126287    -0.217992121
   25     5.200098002     0.378741824     0.829519774    -0.357851126     0.264589968    -0.227891904
   26     1.759323959     0.961119707     7.366664982    -0.045694406    -0.445077906     0.223198743
   27     0.423947137     2.961378184     2.654868407    -0.373430484     0.262641134    -0.203885528
   28     7.417107854     5.400191931     0.924147271    -0.383228420     0.242058647    -0.211053524
   29     8.129737675     8.053004834     5.003662097    -0.358163515     0.264049206    -0.228028317
   30     6.899704405     8.966666214     1.700707371    -0.372279626     0.259995536    -0.209308866
   31     5.412073467     9.930416906     8.715098586    -0.366401788     0.266137722    -0.211944433
   32     7.538948355     0.581404143     7.944027089    -0.363873920     0.269668786    -0.211836061
   33     0.602171687     7.955730731     5.346244474    -0.367188777     0.267383084    -0.208994469
   34    10.199475658     2.940496692     8.064476948    -0.496287765    -0.032408262     0.051460263
   35     7.571764870     7.542140958     0.240689448    -0.374442313     0.255730523    -0.210700863
   36     7.085533238     2.528900833     5.574760155    -0.415775840     0.227292570    -0.159588652
   37     7.591092599     5.141780718     7.511471414    -0.368926313     0.257089514    -0.218628354
   38     5.676140789     6.058987489     4.210610160    -0.388575115     0.242752249    -0.200201713
   39     7.862647489     5.754328203     3.636136151    -0.397444129     0.230054348    -0.197770477
   40     2.629057922     8.773083950     6.183101052    -0.366117818     0.263911617    -0.215193870
   41     6.128429965     1.964988514     3.624078165    -0.414362973     0.225509896    -0.165676231
   42     0.412540245     8.406575980     3.073112215    -0.379005174     0.242015761    -0.218594259
   43     3.950350972     6.991266474     5.217503226    -0.385008709     0.244891281    -0.204442056
   44     8.890746180     3.990607863     4.500842059    -0.399490570     0.231040429    -0.192425582
   45     4.230176990     9.507315313     4.676667311    -0.372617461     0.251945566    -0.218356725
   46     7.322203400     1.185818954     1.976408656    -0.411498450     0.230903196    -0.165386638
   47     6.746667430     1.755552693     9.541173385    -0.372777179     0.254347900    -0.215277311
   48     9.951582536     3.412402560     0.462275477    -0.363648870     0.270472622    -0.211196734
   49     3.191048974     5.264561167     1.552170305     0.380957174    -0.223830885     0.234032831
   50     6.345808998     9.338647503     6.673224216    -0.360302861     0.255728745    -0.234061226
   51     9.622779102     5.772259882     0.601609101    -0.377714220     0.239904686    -0.223109188
   52     9.330231672     9.534641639     1.302787729    -0.359284334     0.254428698    -0.237024904
   53     8.599458335     4.214803259     9.225800536    -0.364661477     0.266371761    -0.214634788
   54     4.758570567     2.321512547     9.537218274    -0.360801668     0.287031508    -0.193481446
   55     3.204793713     9.989821774     2.438624809    -0.362007602     0.262128347    -0.224141084
   56     6.315935246     3.982443425     9.402677521    -0.373383778     0.255592677    -0.212736780
   57     5.205601765     5.908611129     7.032446177    -0.376141262     0.251134203    -0.213188561
   58     4.078562110     0.196742944     6.822775849    -0.364404220     0.269326671    -0.211359194
   59     5.730292151     1.675772718     7.537889561    -0.371347839     0.263132261    -0.207031872
   60     8.835598070     6.355087878     8.783510810    -0.365886145     0.260487553    -0.219712457
   61     9.000475374     1.728584212     9.686920636    -0.383643787     0.252554434    -0.197569487
   62     8.832244570     7.244494674     2.121082704    -0.380698123     0.241358808    -0.216367430
   63     2.094823873     7.778126192     9.314918662    -0.357008523     0.268483161    -0.224636833
   64     3.434783357     9.099818346     0.381737501    -0.365022829     0.253256220    -0.229389672
   65     4.561729067     3.826442261     3.228690072    -0.345033532     0.289549381    -0.217055333
   66     0.960038643     6.708189712     7.822046019    -0.352925971     0.273297898    -0.225280975
   67     7.791022109     2.737093771     7.933842124    -0.372190324     0.264562626    -0.203668799
   68     0.954062916     2.267579881     5.033210056    -0.458027966     0.172675420    -0.101948917
   21    11.847925316     6.480889939     4.099712801     0.371717331    -0.244791708     0.227822837
   22    19.180230987     1.864512394     6.139639521    -0.426968585     0.222935378    -0.134155301
   23    19.064304568     9.391838105     7.004479152    -0.367732436     0.258952033    -0.218441526
   24    14.011095142     4.279551753     7.832590573    -0.377260720     0.244427588    -0.218928078
   25    15.289753952     0.523402036     1.117606644    -0.359560888     0.263450168    -0.226517056
   26    11.848979909     1.105779919     7.654751851    -0.200925938    -0.349477766     0.295793945
   27    10.513603086     3.106038396     2.942955276    -0.376365278     0.254791514    -0.208399764
   28    17.506763804     5.544852143     1.212234141    -0.384158477     0.241502536    -0.209997119
   29    18.219393625     8.197665046     5.291748967    -0.358928636     0.264905408    -0.225821521
   30    16.989360355     9.111326426     1.988794241    -0.372665554     0.260298025    -0.208243422
   31    15.501729417    10.075077118     9.003185456    -0.365802029     0.267616374    -0.211116915
   32    17.628604305     0.726064355     8.232113958    -0.364247913     0.268302423    -0.212925497
   33    10.691827637     8.100390943     5.634331343    -0.366977441     0.266471496    -0.210524346
   34    20.289131608     3.085156904     8.352563818    -0.494206610    -0.038472958     0.065419099
   35    17.661420819     7.686801169     0.528776317    -0.375276477     0.255366279    -0.209655979
   36    17.175189188     2.673561045     5.862847025    -0.416341737     0.227879679    -0.157259054
   37    17.680748549     5.286440930     7.799558284    -0.369259043     0.255973708    -0.219374611
   38    15.765796739     6.203647701     4.498697030    -0.388680284     0.242464371    -0.200346364
   39    17.952303439     5.898988414     3.924223021    -0.397644373     0.230123187    -0.197287281
   40    12.718713871     8.917744162     6.471187921    -0.365814722     0.263823729    -0.215816192
   41    16.218085915     2.109648726     3.912165034    -0.414513775     0.226736272    -0.163612326
   42    10.502196194     8.551236192     3.361199084    -0.378283589     0.241156354    -0.220783014
   43    14.040006922     7.135926686     5.505590095    -0.384914408     0.244762168    -0.204773971
   44    18.980402130     4.135268075     4.788928929    -0.399572306     0.231372071    -0.191856554
   45    14.319832940     9.651975525     4.964754181    -0.372125350     0.252519908    -0.218532423
   46    17.411859350     1.330479165     2.264495525    -0.411874880     0.231658256    -0.163381565
   47    16.836323380     1.900212905     9.829260255    -0.373729346     0.252470596    -0.215835524
   48    20.041238486     3.557062772     0.750362347    -0.364969623     0.269746345    -0.209842998
   49    13.280704924     5.409221379     1.840257174     0.380628503    -0.214412733     0.243205927
   50    16.435464948     9.483307715     6.961311085    -0.359716558     0.257329838    -0.233206674
   51    19.712435052     5.916920093     0.889695971    -0.378495352     0.239514924    -0.222202317
   52    19.419887622     9.679301851     1.590874599    -0.359419906     0.254918870    -0.236291559
   53    18.689114285     4.359463470     9.513887405    -0.365118924     0.264940771    -0.215625971
   54    14.848226517     2.466172758     9.825305144    -0.361675790     0.285726979    -0.193780072
   55    13.294449663    10.134481985     2.726711678    -0.361130474     0.263231907    -0.224262667
   56    16.405591196     4.127103636     9.690764391    -0.373837091     0.254291609    -0.213498494
   57    15.295257715     6.053271340     7.320533047    -0.376084185     0.250522886    -0.214006937
   58    14.168218060     0.341403156     7.110862718    -0.362752590     0.268348909    -0.215405250
   59    15.819948101     1.820432930     7.825976431    -0.370685816     0.262207274    -0.209378537
   60    18.925254020     6.499748089     9.071597680    -0.366354451     0.259310463    -0.220323624
   61    19.090131324     1.873244424     9.975007506    -0.384953650     0.250266453    -0.197932790
   62    18.921900520     7.389154886     2.409169573    -0.381142856     0.241432449    -0.215500572
   63    12.184479823     7.922786403     9.603005531    -0.357506068     0.267028892    -0.225576998
   64    13.524439307     9.244478557     0.669824370    -0.364047315     0.254440328    -0.229629424
   65    14.651385017     3.971102473     3.516776941    -0.113707774     0.409203004    -0.263862546
   66    11.049694593     6.852849924     8.110132889    -0.353328605     0.271724622    -0.226549391
   67    17.880678059     2.881753983     8.221928993    -0.372601664     0.263437828    -0.204373458
   68    11.043718865     2.412240093     5.321296926    -0.443012296     0.210111316    -0.097945599
   21    21.937581266     6.625550151     4.387799670     0.371769630    -0.245530022     0.226941292
   22    29.269886936     2.009172605     6.427726391    -0.427624053     0.222738596    -0.132382729
   23    29.153960518     9.536498317     7.292566022    -0.368260771     0.258304293    -0.218318337
   24    24.100751092     4.424211965     8.120677442    -0.376815950     0.244844110    -0.219228423
   25    25.379409902     0.668062247     1.405693513    -0.359682557     0.263433858    -0.226342795
   26    21.938635859     1.250440130     7.942838721    -0.159206086    -0.359904256     0.308419112
   27    20.603259036     3.250698608     3.231042146    -0.375426033     0.255411981    -0.209332305
   28    27.596419754     5.689512354     1.500321010    -0.384493495     0.241052995    -0.209900467
   29    28.309049575     8.342325257     5.579835836    -0.359410695     0.264209728    -0.225869811
   30    27.079016305     9.255986637     2.276881110    -0.373349134     0.259399029    -0.208140741
   31    25.591385366    10.219737330     9.291272326    -0.366279130     0.267185208    -0.210835632
   32    27.718260255     0.870724567     8.520200828    -0.363999766     0.268652326    -0.212908661
   33    20.781483586     8.245051154     5.922418213    -0.367086346     0.266612514    -0.210155613
   34    30.378787558     3.229817115     8.640650688    -0.493575172    -0.036480098     0.071082710
   35    27.751076769     7.831461381     0.816863187    -0.375853966     0.254635063    -0.209510813
   36    27.264845138     2.818221257     6.150933894    -0.417247361     0.227093916    -0.155990362
   37    27.770404499     5.431101141     8.087645153    -0.368271175     0.257074881    -0.219747235
   38    25.855452689     6.348307912     4.786783900    -0.388731925     0.242374717    -0.200354653
   39    28.041959389     6.043648626     4.212309890    -0.398192816     0.229481672    -0.196928016
   40    22.808369821     9.062404373     6.759274791    -0.365980353     0.263596710    -0.215812779
   41    26.307741865     2.254308937     4.200251904    -0.415840326     0.225240888    -0.162306396
   42    20.591852144     8.695896404     3.649285954    -0.378564483     0.241550200    -0.219869126
   43    24.129662871     7.280586898     5.793676965    -0.385020313     0.244617598    -0.204747624
   44    29.070058080     4.279928286     5.077015799    -0.400238541     0.230583469    -0.191416756
   45    24.409488889     9.796635736     5.252841050    -0.372496873     0.252137125    -0.218341361
   46    27.501515300     1.475139377     2.552582395    -0.412932431     0.230481023    -0.162373967
   47    26.925979330     2.044873116    10.117347125    -0.373097178     0.253333790    -0.215917777
   48    30.130894436     3.701722983     1.038449216    -0.365427477     0.269097875    -0.209878756
   49    23.370360874     5.553881591     2.128344044     0.378582422    -0.228522956     0.233350828
   50    26.525120898     9.627967926     7.249397955    -0.360198038     0.256901146    -0.232935988
   51    29.802091001     6.061580305     1.177782840    -0.378999329     0.238972855    -0.221926752
   52    29.509543571     9.823962063     1.878961469    -0.360087530     0.254167654    -0.236084252
   53    28.778770235     4.504123682     9.801974275    -0.363927477     0.266110527    -0.216198934
   54    24.937882467     2.610832970    10.113392014    -0.360683683     0.286557121    -0.194402411
   55    23.384105613    10.279142197     3.014798548    -0.361970199     0.262211122    -0.224104668
   56    26.495247146     4.271763848     9.978851261    -0.373158529     0.254931269    -0.213922322
   57    25.384913664     6.197931552     7.608619917    -0.375688452     0.250904503    -0.214254796
   58    24.257874010     0.486063367     7.398949588    -0.363301939     0.267838420    -0.215114578
   59    25.909604051     1.965093141     8.114063300    -0.370835975     0.262118279    -0.209224013
   60    29.014909970     6.644408301     9.359684549    -0.365007272     0.260848132    -0.220744067
   61    29.179787274     2.017904635    10.263094375    -0.384170889     0.251478438    -0.197917465
   62    29.011556469     7.533815097     2.697256443    -0.381647123     0.240836139    -0.215275237
   63    22.274135773     8.067446615     9.891092401    -0.357526002     0.266649706    -0.225993567
   64    23.614095257     9.389138769     0.957911240    -0.364978409     0.253285659    -0.229427844
   65    24.741040967     4.115762685     3.804863811    -0.351223276     0.301674420    -0.188771698
   66    21.139350542     6.997510135     8.398219758    -0.353422441     0.271248956    -0.226972646
   67    27.970334009     3.026414194     8.510015863    -0.371954762     0.264157278    -0.204623037
   68    21.133374815     2.556900304     5.609383795    -0.444684324     0.209399028    -0.091694597
   21    32.027237216     6.770210362     4.675886540     0.372336316    -0.245170976     0.226399780
   22    39.359542886     2.153832817     6.715813260    -0.437400722     0.197986807    -0.139577335
   23    39.243616468     9.681158529     7.580652891    -0.367283206     0.261027995    -0.216719708
   24    34.190407042     4.568872177     8.408764312    -0.378409474     0.244280013    -0.217102615
   25    35.469065852     0.812722459     1.693780383    -0.360577063     0.260694538    -0.228084500
   26    32.028291809     1.395100342     8.230925590    -0.158044343    -0.352979506     0.316902909
   27    30.692914986     3.395358819     3.519129016    -0.376598804     0.253743788    -0.209254463
   28    37.686075704     5.834172566     1.788407880    -0.385173476     0.240791420    -0.208951873
   29    38.398705525     8.486985469     5.867922706    -0.358509349     0.266827211    -0.224219281
   30    37.168672255     9.400646849     2.564967980    -0.373715951     0.259462047    -0.207402590
   31    35.681041316    10.364397541     9.579359195    -0.365623528     0.268707010    -0.210038041
   32    37.807916205     1.015384778     8.808287698    -0.366191330     0.266202763    -0.212226292
   33    30.871139536     8.389711366     6.210505082    -0.367341841     0.266810611    -0.209456606
   34    40.468443507     3.374477327     8.928737557    -0.485483645    -0.114538201     0.034447514
   35    37.840732719     7.976121592     1.104950057    -0.376284628     0.254537525    -0.208855277
   36    37.354501087     2.962881468     6.439020764    -0.423540341     0.211911710    -0.160334047
   37    37.860060449     5.575761353     8.375732023    -0.369513656     0.257624718    -0.217000374
   38    35.945108638     6.492968124     5.074870769    -0.389817899     0.242008746    -0.198680076
   39    38.131615339     6.188308837     4.500396760    -0.399152811     0.228864834    -0.195698547
   40    32.898025771     9.207064585     7.047361661    -0.366050119     0.264178288    -0.214981725
   41    36.397397814     2.398969149     4.488338774    -0.421132521     0.212304347    -0.166055004
   42    30.681508094     8.840556615     3.937372824    -0.379061165     0.241154002    -0.219447899
   43    34.219318821     7.425247109     6.081763835    -0.386026622     0.244360084    -0.203154119
   44    39.159714029     4.424588498     5.365102668    -0.401570223     0.229419010    -0.190021772
   45    34.499144839     9.941295948     5.540927920    -0.372744695     0.252501867    -0.217495286
   46    37.591171250     1.619799589     2.840669265    -0.417588857     0.219607549    -0.165505502
   47    37.015635280     2.189533328    10.405433994    -0.374766773     0.251450583    -0.215226555
   48    40.220550386     3.846383195     1.326536086    -0.366673144     0.268256664    -0.208780190
   49    33.460016823     5.698541802     2.416430913     0.385621863    -0.214296656     0.235314092
   50    36.614776848     9.772628138     7.537484825    -0.359563312     0.258411804    -0.232244621
   51    39.891746951     6.206240517     1.465869710    -0.379480579     0.238919815    -0.221160150
   52    39.599199521     9.968622274     2.167048338    -0.360224198     0.254412948    -0.235611075
   53    38.868426185     4.648783894    10.090061145    -0.365157456     0.267894700    -0.211878414
   54    35.027538417     2.755493182    10.401478883    -0.363248046     0.284420282    -0.192758812
   55    33.473761563    10.423802409     3.302885417    -0.362337762     0.262030662    -0.223721430
   56    36.584903096     4.416424060    10.266938130    -0.374900388     0.254068095    -0.211894083
   57    35.474569614     6.342591764     7.896706786    -0.377031207     0.250740999    -0.212076449
   58    34.347529959     0.630723579     7.687036458    -0.365055039     0.265371338    -0.215204255
   59    35.999260000     2.109753353     8.402150170    -0.373026071     0.259240694    -0.208915804
   60    39.104565920     6.789068513     9.647771419    -0.365675175     0.262096131    -0.218145100
   61    39.269443224     2.162564847    10.551181245    -0.385810470     0.248379168    -0.198640556
   62    39.101212419     7.678475309     2.985343313    -0.382130158     0.240985070    -0.214249243
   63    32.363791723     8.212106827    10.179179270    -0.356284993     0.268516466    -0.225743020
   64    33.703751207     9.533798980     1.245998110    -0.365398218     0.252971192    -0.229106348
   65    34.830696916     4.260422896     4.092950681    -0.325788264     0.271013450    -0.265355831
   66    31.229006492     7.142170347     8.686306628    -0.352192543     0.272925838    -0.226874194
   67    38.059989959     3.171074406     8.798102732    -0.374013135     0.263388733    -0.201842886
   68    31.223030765     2.701560516     5.897470665    -0.445002899     0.209829786    -0.089128450
   21     1.893344838    16.361323248     3.842251355     0.371949147    -0.244292770     0.227979987
   22     9.225650508    11.744945703     5.882178075    -0.425196382     0.222529619    -0.140316092
   23     9.109724090    19.272271415     6.747017706    -0.367345908     0.259527229    -0.218409252
   24     4.056514663    14.159985063     7.575129127    -0.377880620     0.242415795    -0.220092751
   25     5.335173473    10.403835345     0.860145198    -0.359581538     0.263219724    -0.226752055
   26     1.894399430    10.986213228     7.397290405    -0.171531407    -0.312708130     0.350414900
   27     0.559022608    12.986471705     2.685493830    -0.375694322     0.249165063    -0.216264994
   28     7.552183325    15.425285452     0.954772694    -0.384088091     0.241195322    -0.210478396
   29     8.264813147    18.078098355     5.034287521    -0.358493665     0.265294744    -0.226055282
   30     7.034779876    18.991759735     1.731332795    -0.372707911     0.260185229    -0.208308567
   31     5.547148938    19.955510427     8.745724010    -0.366053548     0.267206285    -0.211200382
   32     7.674023826    10.606497664     7.974652512    -0.364696004     0.266189204    -0.214802543
   33     0.737247158    17.980824252     5.376869897    -0.367054093     0.265976930    -0.211015556
   34    10.334551129    12.965590213     8.095102372    -0.496638084    -0.025027593     0.052194186
   35     7.706840341    17.567234479     0.271314871    -0.375291495     0.255139253    -0.209905348
   36     7.220608709    12.553994354     5.605385579    -0.415651919     0.226267672    -0.161358059
   37     7.726168070    15.166874239     7.542096838    -0.369624373     0.254879838    -0.220032023
   38     5.811216260    16.084081010     4.241235584    -0.388980986     0.241356051    -0.201099599
   39     7.997722960    15.779421724     3.666761575    -0.398035272     0.228884162    -0.197939291
   40     2.764133393    18.798177471     6.213726475    -0.365979988     0.263289500    -0.216188084
   41     6.263505436    11.990082035     3.654703588    -0.414430353     0.224368073    -0.167052239
   42     0.547615716    18.431669501     3.103737638    -0.378468165     0.240447929    -0.221238879
   43     4.085426443    17.016359995     5.248128649    -0.385231628     0.243692648    -0.205451907
   44     9.025821651    14.015701384     4.531467483    -0.400089997     0.229676461    -0.192812649
   45     4.365252461    19.532408834     4.707292735    -0.372584063     0.251565599    -0.218851241
   46     7.457278871    11.210912475     2.007034079    -0.411785394     0.229764623    -0.166255850
   47     6.881742901    11.780646214     9.571798809    -0.373974075     0.250958532    -0.217170914
   48    10.086658007    13.437496081     0.492900900    -0.365152943     0.268570450    -0.211029007
   49     3.326124445    15.289654688     1.582795728     0.384887437    -0.213101121     0.237591189
   50     6.480884469    19.363741024     6.703849639    -0.360010493     0.256814322    -0.233321342
   51     9.757854573    15.797353403     0.632234525    -0.378505634     0.239323187    -0.222391316
   52     9.465307143    19.559735160     1.333413153    -0.359619454     0.254693937    -0.236230495
   53     8.734533807    14.239896780     9.256425959    -0.365627111     0.263663517    -0.216329299
   54     4.893646038    12.346606068     9.567843698    -0.362143640     0.283439608    -0.196249771
   55     3.339869184    20.014915295     2.469250232    -0.361782806     0.261992373    -0.224662409
   56     6.451010717    14.007536946     9.433302945    -0.374320543     0.252180361    -0.215149243
   57     5.340677236    15.933704650     7.063071601    -0.376619810     0.248848348    -0.215016322
   58     4.213637581    10.221836465     6.853401272    -0.364071515     0.264692323    -0.217692228
   59     5.865367622    11.700866239     7.568514984    -0.371544243     0.259223104    -0.211561475
   60     8.970673541    16.380181399     8.814136233    -0.366502853     0.258926350    -0.220528465
   61     9.135550845    11.753677733     9.717546060    -0.384908600     0.249390898    -0.199121946
   62     8.967320041    17.269588195     2.151708127    -0.381332786     0.240980178    -0.215670722
   63     2.229899344    17.803219713     9.345544085    -0.356749643     0.267146257    -0.226633117
   64     3.569858828    19.124911867     0.412362924    -0.364844264     0.252962944    -0.229996548
   65     4.696804538    13.851535782     3.259315495    -0.324483013     0.297316662    -0.237304817
   66     1.095114114    16.733283233     7.852671443    -0.352385680     0.271721823    -0.228016630
   67     7.926097580    12.762187292     7.964467547    -0.373036578     0.261742325    -0.205753899
   68     1.089138387    12.292673402     5.063835480    -0.441586352     0.221792140    -0.076221656
   21    11.983000787    16.505983460     4.130338224     0.371639544    -0.246114272     0.226521113
   22    19.315306458    11.889605915     6.170264945    -0.428210583     0.220289603    -0.134566665
   23    19.199380039    19.416931626     7.035104576    -0.367182023     0.261346641    -0.216507033
   24    14.146170613    14.304645274     7.863215996    -0.376827046     0.245175545    -0.218838593
   25    15.424829423    10.548495557     1.148232067    -0.359351966     0.263964559    -0.226249589
   26    11.984055380    11.130873440     7.685377275    -0.206803472    -0.327124932     0.316577957
   27    10.648678557    13.131131917     2.973580700    -0.377997826     0.252467348    -0.208273575
   28    17.641839275    15.569945664     1.242859564    -0.383498254     0.244105407    -0.208186549
   29    18.354469096    18.222758567     5.322374390    -0.358155974     0.267437943    -0.224056343
   30    17.124435826    19.136419947     2.019419664    -0.372412615     0.262192890    -0.206309797
   31    15.636804888    20.100170639     9.033810880    -0.365905060     0.268631597    -0.209643869
   32    17.763679776    10.751157876     8.262739382    -0.364347258     0.267574255    -0.213670526
   33    10.826903108    18.125484464     5.664956767    -0.367069927     0.267235197    -0.209392020
   34    20.424207079    13.110250425     8.383189242    -0.494055620    -0.044607480     0.062603649
   35    17.796496290    17.711894690     0.559401741    -0.374638068     0.257704603    -0.207929448
   36    17.310264659    12.698654566     5.893472448    -0.417195236     0.226311341    -0.157261922
   37    17.815824020    15.311534451     7.830183707    -0.368498371     0.257229622    -0.219184562
   38    15.900872210    16.228741222     4.529322454    -0.388131271     0.244264453    -0.199220966
   39    18.087378910    15.924081935     3.954848444    -0.397059497     0.232343865    -0.195857305
   40    12.853789342    18.942837683     6.501813345    -0.365799867     0.264807415    -0.214633385
   41    16.353161386    12.134742247     3.942790458    -0.415621789     0.224910316    -0.163321396
   42    10.637271665    18.576329713     3.391824508    -0.378704533     0.241464014    -0.219722567
   43    14.175082393    17.161020207     5.536215519    -0.384564325     0.246269171    -0.203621648
   44    19.115477601    14.160361596     4.819554353    -0.399031023     0.233418604    -0.190499338
   45    14.454908411    19.677069046     4.995379604    -0.372365911     0.253365172    -0.217139857
   46    17.546934821    11.355572686     2.295120949    -0.412690334     0.230431456    -0.163058373
   47    16.971398851    11.925306426     9.859885678    -0.373847944     0.251518552    -0.216739781
   48    20.176313957    13.582156293     0.780987770    -0.364063285     0.272244856    -0.208184204
   49    13.415780395    15.434314900     1.870882598     0.376300755    -0.227760446     0.237745496
   50    16.570540419    19.508401236     6.991936509    -0.359752874     0.258590769    -0.231751340
   51    19.847510523    15.942013614     0.920321394    -0.377741827     0.242245727    -0.220517845
   52    19.554963093    19.704395372     1.621500023    -0.359183355     0.257013350    -0.234374604
   53    18.824189756    14.384556991     9.544512829    -0.364482663     0.265843783    -0.215590981
   54    14.983301988    12.491266279     9.855930568    -0.361450479     0.285001073    -0.195263770
   55    13.429525134    20.159575507     2.757337102    -0.361812526     0.263583441    -0.222745294
   56    16.540666667    14.152197157     9.721389815    -0.373610109     0.254003278    -0.214237768
   57    15.430333186    16.078364861     7.351158471    -0.375583310     0.251551794    -0.213679367
   58    14.303293531    10.366496677     7.141488142    -0.363265254     0.266569044    -0.216747088
   59    15.955023572    11.845526451     7.856601854    -0.370967990     0.260989781    -0.210397445
   60    19.060329491    16.524841611     9.102223103    -0.365298545     0.261123996    -0.219934608
   61    19.225206795    11.898337945    10.005632929    -0.385030824     0.249307177    -0.198990443
   62    19.056975991    17.414248407     2.439794997    -0.380472726     0.243906735    -0.213892518
   63    12.319555294    17.947879924     9.633630955    -0.357655735     0.267008963    -0.225363239
   64    13.659514778    19.269572078     0.700449794    -0.364949655     0.254524761    -0.228098434
   65    14.786460488    13.996195994     3.547402365    -0.321978809     0.315573342    -0.216201554
   66    11.184770064    16.877943445     8.140758312    -0.353580171     0.271375981    -0.226574800
   67    18.015753530    12.906847504     8.252554417    -0.372446974     0.263448218    -0.204641854
   68    11.178794336    12.437333614     5.351922349    -0.442034196     0.211101180    -0.100210085
   21    22.072656737    16.650643672     4.418425094     0.370626687    -0.248583743     0.225481666
   22    29.404962407    12.034266126     6.458351814    -0.428787409     0.219637139    -0.133794191
   23    29.289035989    19.561591838     7.323191445    -0.366167762     0.260932477    -0.218713083
   24    24.235826563    14.449305486     8.151302866    -0.376546707     0.244944486    -0.219578633
   25    25.514485373    10.693155768     1.436318937    -0.360107712     0.262959071    -0.226218838
   26    22.073711330    11.275533651     7.973464144    -0.165797570    -0.360114789     0.304677706
   27    20.738334507    13.275792129     3.261667569    -0.373836205     0.259588552    -0.207027234
   28    27.731495225    15.714605876     1.530946434    -0.383464391     0.242338670    -0.210302235
   29    28.444125046    18.367418778     5.610461260    -0.357228618     0.266876962    -0.226195494
   30    27.214091776    19.281080158     2.307506534    -0.371695804     0.261612493    -0.208329385
   31    25.726460837    20.244830851     9.321897749    -0.364517973     0.269654712    -0.210743882
   32    27.853335726    10.895818088     8.550826252    -0.364747843     0.267079980    -0.213605467
   33    20.916559057    18.270144675     5.953043636    -0.366144474     0.269123800    -0.208591957
   34    30.513863029    13.254910636     8.671276111    -0.493563586    -0.044153966     0.066673936
   35    27.886152240    17.856554902     0.847488611    -0.374487661     0.256197881    -0.210051511
   36    27.399920609    12.843314778     6.181559318    -0.417835692     0.225238731    -0.157101395
   37    27.905479970    15.456194662     8.118270577    -0.368414726     0.256763871    -0.219870199
   38    25.990528160    16.373401433     4.817409323    -0.387790573     0.243803616    -0.200445175
   39    28.177034860    16.068742147     4.242935314    -0.397124116     0.230902569    -0.197424518
   40    22.943445292    19.087497894     6.789900215    -0.364673850     0.266187347    -0.214842453
   41    26.442817336    12.279402459     4.230877327    -0.416414017     0.223555851    -0.163162950
   42    20.726927615    18.720989925     3.679911378    -0.377860967     0.244100869    -0.218256399
   43    24.264738342    17.305680419     5.824302389    -0.383993102     0.246307263    -0.204650996
   44    29.205133551    14.305021807     5.107641222    -0.399221429     0.231919306    -0.191926251
   45    24.544564360    19.821729257     5.283466474    -0.371181292     0.254565660    -0.217763113
   46    27.636590771    11.500232898     2.583207819    -0.413441534     0.229111218    -0.163015791
   47    27.061054801    12.069966637    10.147972548    -0.373748410     0.251559538    -0.216863839
   48    30.265969907    13.726816504     1.069074640    -0.364725162     0.269866881    -0.210112880
   49    23.505436345    15.578975112     2.158969467     0.371884344    -0.241441098     0.231102209
   50    26.660196369    19.653061447     7.280023379    -0.358412158     0.259512750    -0.232795742
   51    29.937166472    16.086673826     1.208408264    -0.377699223     0.240455948    -0.222540411
   52    29.644619042    19.849055584     1.909586892    -0.358507416     0.256037737    -0.236467989
   53    28.913845706    14.529217203     9.832599699    -0.364407340     0.265482095    -0.216163243
   54    25.072957938    12.635926491    10.144017437    -0.361346858     0.284989146    -0.195472849
   55    23.519181084    20.304235718     3.045423971    -0.360411669     0.264916164    -0.223434229
   56    26.630322617    14.296857369    10.009476684    -0.373548787     0.253798466    -0.214587145
   57    25.519989135    16.223025073     7.639245340    -0.375256582     0.251330434    -0.214512263
   58    24.392949481    10.511156888     7.429575012    -0.363933577     0.266318849    -0.215931985
   59    26.044679522    11.990186662     8.144688724    -0.371426919     0.260598314    -0.210072756
   60    29.149985441    16.669501822     9.390309973    -0.365135362     0.260733552    -0.220667584
   61    29.314862745    12.042998156    10.293719799    -0.384821771     0.249600908    -0.199026609
   62    29.146631940    17.558908618     2.727881867    -0.380326584     0.242421761    -0.215831832
   63    22.409211244    18.092540136     9.921717824    -0.356206937     0.269072917    -0.225202983
   64    23.749170728    19.414232290     0.988536664    -0.363534530     0.256035108    -0.228667158
   65    24.876116438    14.140856206     3.835489234    -0.356225667     0.302574058    -0.177629428
   66    21.274426013    17.022603656     8.428845182    -0.352243695     0.273357493    -0.226274303
   67    28.105409480    13.051507715     8.540641286    -0.372592138     0.262974321    -0.204986841
   68    21.268450286    12.581993825     5.640009219    -0.446290414     0.205522337    -0.092657623
   21    32.162312687    16.795303883     4.706511964     0.370525929    -0.246731268     0.227671292
   22    39.494618357    12.178926338     6.746438684    -0.425688378     0.230827158    -0.124532036
   23    39.378691939    19.706252050     7.611278315    -0.366923743     0.258828902    -0.219942188
   24    34.325482513    14.593965698     8.439389735    -0.376415025     0.244223160    -0.220605479
   25    35.604141323    10.837815980     1.724405806    -0.360487798     0.262455190    -0.226198632
   26    32.163367280    11.420193863     8.261551014    -0.160801061    -0.353914528     0.314463870
   27    30.827990457    13.420452340     3.549754439    -0.374328996     0.256859856    -0.209525218
   28    37.821151175    15.859266087     1.819033303    -0.383759821     0.239925672    -0.212518403
   29    38.533780996    18.512078990     5.898548129    -0.357907120     0.264554160    -0.227845539
   30    37.303747726    19.425740370     2.595593404    -0.372306379     0.258659643    -0.210910288
   31    35.816116787    20.389491062     9.609984619    -0.364929206     0.268010066    -0.212125620
   32    37.942991676    11.040478299     8.838913121    -0.363843251     0.268798697    -0.212991430
   33    31.006215007    18.414804887     6.241130506    -0.366053780     0.267469329    -0.210866755
   34    40.603518978    13.399570848     8.959362981    -0.489734811    -0.012786674     0.099981580
   35    37.975808190    18.001215114     1.135575480    -0.375278670     0.254218940    -0.211041821
   36    37.489576558    12.987974989     6.469646188    -0.416590895     0.231063470    -0.151860787
   37    37.995135920    15.600854874     8.406357446    -0.367902472     0.256343762    -0.221214029
   38    36.080184109    16.518061645     5.105496193    -0.387965194     0.241938477    -0.202358053
   39    38.266690810    16.213402359     4.531022183    -0.397459026     0.229097574    -0.198848244
   40    33.033101242    19.232158106     7.077987084    -0.364885259     0.263996573    -0.217174025
   41    36.532473285    12.424062670     4.518964197    -0.415400019     0.228318384    -0.159102293
   42    30.816583565    18.865650136     3.967998247    -0.377595537     0.242550370    -0.220433500
   43    34.354394292    17.450340630     6.112389258    -0.383973304     0.244732603    -0.206568281
   44    39.294789500    14.449682019     5.395728092    -0.399309348     0.230269510    -0.193721441
   45    34.634220310    19.966389469     5.571553343    -0.371377168     0.252406139    -0.219932126
   46    37.726246721    11.644893110     2.871294688    -0.412841989     0.232377338    -0.159882033
   47    37.150710751    12.214626849    10.436059418    -0.372588811     0.253619534    -0.216459487
   48    40.355625857    13.871476716     1.357161509    -0.365106306     0.267676040    -0.212242605
   49    33.595092294    15.723635323     2.447056337     0.380857687    -0.229811640     0.228328781
   50    36.749852319    19.797721659     7.568110248    -0.358762749     0.257632012    -0.234339574
   51    40.026822422    16.231334038     1.496495133    -0.378251990     0.238497838    -0.223705640
   52    39.734274992    19.993715795     2.197673762    -0.359186172     0.252874020    -0.238830534
   53    39.003501656    14.673877415    10.120686568    -0.363553022     0.264940118    -0.218256578
   54    35.162613888    12.780586703    10.432104307    -0.360635065     0.286103153    -0.195159771
   55    33.608837034    20.448895930     3.333510841    -0.360669068     0.262358255    -0.226022055
   56    36.719978567    14.441517581    10.297563554    -0.372831704     0.254569149    -0.214921075
   57    35.609645085    16.367685285     7.927332210    -0.375170794     0.250322588    -0.215836690
   58    34.482605430    10.655817100     7.717661881    -0.363613010     0.267308559    -0.215248027
   59    36.134335471    12.134846874     8.432775593    -0.370882048     0.262021500    -0.209263566
   60    39.239641391    16.814162034     9.678396842    -0.364680826     0.260171187    -0.222078474
   61    39.404518695    12.187658368    10.581806669    -0.383622602     0.252176258    -0.198092994
   62    39.236287890    17.703568830     3.015968736    -0.380632183     0.240004094    -0.217984349
   63    32.498867194    18.237200348    10.209804694    -0.356312161     0.268044064    -0.226260964
   64    33.838826678    19.558892502     1.276623533    -0.363625608     0.253523283    -0.231305777
   65    34.965772388    14.285516417     4.123576104    -0.356695636     0.300631900    -0.179968564
   66    31.364081963    17.167263868     8.716932052    -0.352146121     0.272690422    -0.227229054
   67    38.195065430    13.196167927     8.828728156    -0.371749851     0.263573937    -0.205744570
   68    31.358106236    12.726654037     5.928096088    -0.446652462     0.205395009    -0.091183704
   21     2.028420309    26.386416769     3.872876778     0.370427051    -0.246356443     0.228237383
   22     9.360725979    21.770039224     5.912803499    -0.425873802     0.225973500    -0.132542379
   23     9.244799561    29.297364936     6.777643130    -0.365861467     0.261260811    -0.218833671
   24     4.191590134    24.185078584     7.605754550    -0.376241424     0.245204209    -0.219811936
   25     5.470248944    20.428928866     0.890770621    -0.359509796     0.263738907    -0.226262007
   26     2.029474901    21.011306749     7.427915829    -0.129875069    -0.336271586     0.346487932
   27     0.694098079    23.011565226     2.716119254    -0.374494630     0.254372666    -0.212245893
   28     7.687258796    25.450378973     0.985398118    -0.382794239     0.243249929    -0.210471003
   29     8.399888618    28.103191876     5.064912944    -0.356840212     0.267195848    -0.226431982
   30     7.169855347    29.016853256     1.761958218    -0.371252538     0.261689327    -0.209022127
   31     5.682224409    29.980603948     8.776349434    -0.363804841     0.270195178    -0.211283231
   32     7.809099297    20.631591185     8.005277936    -0.364206972     0.267632683    -0.213836453
   33     0.872322629    28.005917773     5.407495321    -0.365545732     0.267990360    -0.211086439
   34    10.469626600    22.990683734     8.125727796    -0.493732885    -0.027246073     0.074064090
   35     7.841915812    27.592328000     0.301940295    -0.373996980     0.256886195    -0.210085082
   36     7.355684180    22.579087875     5.636011002    -0.415793138     0.229329707    -0.156601251
   37     7.861243541    25.191967760     7.572722261    -0.367782151     0.257663500    -0.219876807
   38     5.946291731    26.109174531     4.271861008    -0.387368147     0.243959199    -0.201071698
   39     8.132798432    25.804515245     3.697386998    -0.396689915     0.231333868    -0.197792197
   40     2.899208864    28.823270992     6.244351899    -0.364049100     0.265517750    -0.216722351
   41     6.398580907    22.015175556     3.685329012    -0.414444318     0.227193728    -0.163153049
   42     0.682691187    28.456763022     3.134363062    -0.377295926     0.242244097    -0.221281680
   43     4.220501914    27.041453516     5.278754073    -0.383539292     0.246295816    -0.205513946
   44     9.160897122    24.040794905     4.562092906    -0.398737993     0.232388418    -0.192363293
   45     4.500327932    29.557502355     4.737918158    -0.370494063     0.254183757    -0.219373578
   46     7.592354342    21.236005996     2.037659503    -0.411718106     0.232152659    -0.163074659
   47     7.016818372    21.805739735     9.602424232    -0.373349285     0.252510924    -0.216445245
   48    10.221733479    23.462589602     0.523526324    -0.364100845     0.270816676    -0.209973575
   49     3.461199916    25.314748209     1.613421152     0.380524900    -0.218524034     0.239683223
   50     6.615959940    29.388834545     6.734475063    -0.357733150     0.259852027    -0.233460740
   51     9.892930044    25.822446924     0.662859948    -0.377303905     0.241115523    -0.222497343
   52     9.600382614    29.584828681     1.364038577    -0.357895474     0.256483887    -0.236911049
   53     8.869609278    24.264990301     9.287051383    -0.363877617     0.266007128    -0.216409998
   54     5.028721509    22.371699589     9.598469122    -0.361166355     0.285554147    -0.194981264
   55     3.474944655    30.040008816     2.499875656    -0.359441657     0.264289235    -0.225727481
   56     6.586086188    24.032630467     9.463928369    -0.373212075     0.254391231    -0.214471090
   57     5.475752707    25.958798171     7.093697025    -0.374914474     0.251629614    -0.214759574
   58     4.348713052    20.246929986     6.884026696    -0.364087918     0.265301406    -0.216921994
   59     6.000443093    21.725959760     7.599140408    -0.371138778     0.260627388    -0.210545415
   60     9.105749012    26.405274920     8.844761657    -0.364496854     0.261820285    -0.220436345
   61     9.270626317    21.778771254     9.748171483    -0.384459608     0.250873749    -0.198124133
   62     9.102395512    27.294681716     2.182333551    -0.379952433     0.242886501    -0.215968277
   63     2.364974815    27.828313234     9.376169509    -0.355552219     0.268731358    -0.226640855
   64     3.704934300    29.150005388     0.442988348    -0.362367887     0.255395785    -0.231219609
   65     4.831880009    23.876629303     3.289940919    -0.320577503     0.292455679    -0.248394324
   66     1.230189585    26.758376754     7.883296866    -0.351472753     0.272995179    -0.227904664
   67     8.061173051    22.787280813     7.995092971    -0.371908125     0.263754554    -0.205226416
   68     1.224213858    22.317766923     5.094460903    -0.443416492     0.212507530    -0.090677254
   21    12.118076258    26.531076981     4.160963648     0.370328083    -0.247527684     0.227128062
   22    19.450381929    21.914699436     6.200890368    -0.426185510     0.227902235    -0.128165840
   23    19.334455510    29.442025147     7.065729999    -0.367814912     0.259403943    -0.217765435
   24    14.281246084    24.329738795     7.893841420    -0.376850318     0.245362174    -0.218589208
   25    15.559904894    20.573589078     1.178857491    -0.359935000     0.264592198    -0.224583535
   26    12.119130851    21.155966961     7.716002698    -0.172223276    -0.341903277     0.321622904
   27    10.783754028    23.156225438     3.004206123    -0.375151873     0.254718864    -0.210664124
   28    17.776914746    25.595039185     1.273484988    -0.384340862     0.242372522    -0.208656805
   29    18.489544567    28.247852088     5.352999814    -0.359254023     0.264967008    -0.225231062
   30    17.259511297    29.161513468     2.050045088    -0.373014154     0.260456577    -0.207419411
   31    15.771880359    30.125264160     9.064436303    -0.365810666     0.268163407    -0.210406614
   32    17.898755247    20.776251397     8.293364805    -0.364207891     0.268933895    -0.212196070
   33    10.961978579    28.150577985     5.695582190    -0.366114689     0.268115968    -0.209937758
   34    20.559282550    23.135343946     8.413814665    -0.492455136    -0.024222120     0.083073630
   35    17.931571761    27.736988211     0.590027165    -0.375390645     0.256136740    -0.208508594
   36    17.445340130    22.723748087     5.924097872    -0.416178466     0.231115588    -0.152908694
   37    17.950899491    25.336627972     7.860809131    -0.368595034     0.257341662    -0.218890314
   38    16.035947681    26.253834743     4.559947877    -0.388473518     0.243227829    -0.199821293
   39    18.222454381    25.949175456     3.985473868    -0.397725886     0.230972658    -0.196126874
   40    12.988864813    28.967931204     6.532438768    -0.365341367     0.264829150    -0.215386181
   41    16.488236857    22.159835768     3.973415881    -0.414482309     0.229811076    -0.159346429
   42    10.772347136    28.601423234     3.422449932    -0.377394335     0.243164339    -0.220101387
   43    14.310157864    27.186113728     5.566840943    -0.384630068     0.245609029    -0.204293699
   44    19.250553072    24.185455117     4.850179776    -0.399648891     0.232349901    -0.190510597
   45    14.589983882    29.702162567     5.026005028    -0.372073139     0.253032002    -0.218028405
   46    17.682010292    21.380666207     2.325746373    -0.411833911     0.234322103    -0.159643296
   47    17.106474322    21.950399947     9.890511102    -0.373638927     0.253078967    -0.215278863
   48    20.311389428    23.607249814     0.811613194    -0.365152824     0.270926172    -0.207996212
   49    13.550855866    25.459408421     1.901508021     0.365142360    -0.230675845     0.251912111
   50    16.705615890    29.533494757     7.022561933    -0.359679839     0.258013899    -0.232506433
   51    19.982585994    25.967107135     0.950946818    -0.378605411     0.240513664    -0.220932388
   52    19.690038564    29.729488893     1.652125446    -0.359994080     0.255161363    -0.235153017
   53    18.959265227    24.409650512     9.575138253    -0.364576421     0.265790124    -0.215498592
   54    15.118377459    22.516359800     9.886555991    -0.361405190     0.286331673    -0.193391989
   55    13.564600605    30.184669028     2.787962525    -0.361622237     0.262878378    -0.223884603
   56    16.675742138    24.177290678     9.752015238    -0.373562174     0.254837203    -0.213329093
   57    15.565408657    26.103458382     7.381783894    -0.375706548     0.251452100    -0.213580035
   58    14.438369002    20.391590198     7.172113565    -0.363557263     0.267461886    -0.215151705
   59    16.090099043    21.870619972     7.887227278    -0.371037163     0.262155486    -0.208820317
   60    19.195404962    26.549935132     9.132848527    -0.365455891     0.261222994    -0.219555322
   61    19.360282266    21.923431466    10.036258353    -0.384808349     0.251259374    -0.196954973
   62    19.192051462    27.439341928     2.470420421    -0.381328743     0.242170288    -0.214340715
   63    12.454630765    27.972973445     9.664256378    -0.356182941     0.268933330    -0.225407580
   64    13.794590249    29.294665599     0.731075218    -0.364589070     0.254009517    -0.229246539
   65    14.921535959    24.021289515     3.578027788    -0.077818543     0.469643334    -0.152903280
   66    11.319845535    26.903036966     8.171383736    -0.351971002     0.273438192    -0.226600902
   67    18.150829001    22.931941025     8.283179840    -0.372270208     0.264273512    -0.203898022
   68    11.313869807    22.462427135     5.382547773    -0.442899929     0.214482315    -0.088526773
   21    22.207732208    26.675737193     4.449050518     0.372179131    -0.246733788     0.224955845
   22    29.540037878    22.059359647     6.488977238    -0.426109257     0.224330642    -0.134561005
   23    29.424111460    29.586685359     7.353816869    -0.365995159     0.261551208    -0.218262479
   24    24.370902034    24.474399007     8.181928289    -0.375784708     0.246596574    -0.219034205
   25    25.649560844    20.718249289     1.466944360    -0.358258516     0.265600136    -0.226069467
   26    22.208786801    21.300627172     8.004089568    -0.177381354    -0.329526381     0.331584407
   27    20.873409978    23.300885650     3.292292993    -0.375658367     0.254684753    -0.209801019
   28    27.866570696    25.739699397     1.561571857    -0.382315611     0.244439354    -0.209962320
   29    28.579200517    28.392512299     5.641086683    -0.356758742     0.267698445    -0.225966242
   30    27.349167247    29.306173679     2.338131958    -0.370979797     0.262624615    -0.208332191
   31    25.861536308    30.269924372     9.352523173    -0.364822118     0.269879082    -0.209928804
   32    27.988411197    20.920911609     8.581451675    -0.362964388     0.269594001    -0.213485192
   33    21.051634528    28.295238196     5.983669060    -0.366764358     0.268004741    -0.208943447
   34    30.648938500    23.280004157     8.701901535    -0.494710777    -0.038067488     0.061742313
   35    28.021227711    27.881648423     0.878114034    -0.373441216     0.257977447    -0.209736252
   36    27.534996080    22.868408299     6.212184742    -0.415555463     0.229372503    -0.157168419
   37    28.040555441    25.481288183     8.148896000    -0.367413212     0.258883311    -0.219059268
   38    26.125603631    26.398494954     4.848034747    -0.387311903     0.244938163    -0.199986964
   39    28.312110331    26.093835668     4.273560737    -0.396249790     0.232664215    -0.197112828
   40    23.078520763    29.112591416     6.820525638    -0.365029228     0.265619457    -0.214941774
   41    26.577892807    22.304495980     4.261502751    -0.414084521     0.227817835    -0.163196334
   42    20.862003086    28.746083446     3.710536801    -0.378707797     0.242413139    -0.218669326
   43    24.399813813    27.330773940     5.854927812    -0.383759150     0.247028139    -0.204220501
   44    29.340209022    24.330115329     5.138266646    -0.398310575     0.233760889    -0.191584271
   45    24.679639831    29.846822778     5.314091897    -0.371370353     0.254385853    -0.217650863
   46    27.771666242    21.525326419     2.613833242    -0.411194504     0.233073863    -0.163081743
   47    27.196130272    22.095060158    10.178597972    -0.372353767     0.254205010    -0.216176975
   48    30.401045378    23.751910026     1.099700063    -0.363196476     0.272349183    -0.209557253
   49    23.640511816    25.604068633     2.189594891     0.399155630    -0.221331877     0.204173904
   50    26.795271840    29.678154968     7.310648802    -0.358740594     0.259552061    -0.232245374
   51    30.072241943    26.111767347     1.239033687    -0.376635901     0.242402087    -0.222231020
   52    29.779694513    29.874149105     1.940212316    -0.357757682     0.257253434    -0.236283964
   53    29.048921177    24.554310724     9.863225122    -0.363181735     0.267879335    -0.215266554
   54    25.208033409    22.661020012    10.174642861    -0.360104465     0.287270719    -0.194423012
   55    23.654256555    30.329329239     3.076049395    -0.360576056     0.264569470    -0.223579748
   56    26.765398088    24.321950890    10.040102108    -0.372267669     0.256283735    -0.213858433
   57    25.655064606    26.248118594     7.669870764    -0.374589286     0.252835066    -0.213909552
   58    24.528024952    20.536250409     7.460200435    -0.362201907     0.268403365    -0.216262368
   59    26.179754993    22.015280183     8.175314147    -0.369727816     0.263030821    -0.210038400
   60    29.285060912    26.694595343     9.420935396    -0.364207960     0.262724256    -0.219837501
   61    29.449938216    22.068091677    10.324345223    -0.383451683     0.252379639    -0.198164894
   62    29.281707411    27.584002139     2.758507290    -0.379418505     0.244066016    -0.215576849
   63    22.544286715    28.117633657     9.952343248    -0.356617235     0.269260102    -0.224328208
   64    23.884246199    29.439325811     1.019162087    -0.363685902     0.255645207    -0.228862607
   65    25.011191909    24.165949727     3.866114658    -0.333949144     0.325227672    -0.180845047
   66    21.409501484    27.047697177     8.459470606    -0.352592995     0.273422845    -0.225650454
   67    28.240484951    23.076601236     8.571266710    -0.371064718     0.265617575    -0.204348426
   68    21.403525757    22.607087346     5.670634642    -0.442978961     0.216483226    -0.083094243
   21    32.297388158    26.820397404     4.737137387     0.369696389    -0.248019110     0.227620521
   22    39.629693828    22.204019859     6.777064107    -0.426217407     0.223888055    -0.134955033
   23    39.513767410    29.731345571     7.641903738    -0.366937830     0.259619482    -0.218984826
   24    34.460557984    24.619059219     8.470015159    -0.376032488     0.244702243    -0.220726936
   25    35.739216794    20.862909501     1.755031230    -0.358883084     0.262466582    -0.228723032
   26    32.298442751    21.445287384     8.292176437    -0.165828250    -0.364387149     0.299537972
   27    30.963065928    23.445545861     3.580379863    -0.374534843     0.257496938    -0.208372211
   28    37.956226646    25.884359608     1.849658727    -0.382717045     0.242183628    -0.211836620
   29    38.668856467    28.537172511     5.929173553    -0.357927246     0.265303923    -0.226940334
   30    37.438823197    29.450833891     2.626218827    -0.371656714     0.260148541    -0.210223746
   31    35.951192258    30.414584583     9.640610042    -0.365501063     0.268274604    -0.210802538
   32    38.078067147    21.065571820     8.869538545    -0.363512203     0.267625380    -0.215024496
   33    31.141290478    28.439898408     6.271755930    -0.365584983     0.268703637    -0.210109438
   34    40.738594449    23.424664369     8.989988404    -0.493375386    -0.028823283     0.075828402
   35    38.110883661    28.026308635     1.166200904    -0.373887347     0.255692496    -0.211730015
   36    37.624652029    23.013068510     6.500271611    -0.415954196     0.227283820    -0.159135703
   37    38.130211391    25.625948395     8.436982870    -0.367612331     0.256898568    -0.221052708
   38    36.215259580    26.543155166     5.136121616    -0.387245735     0.243485334    -0.201880243
   39    38.401766281    26.238495880     4.561647607    -0.396374921     0.230562684    -0.199318265
   40    33.168176713    29.257251627     7.108612508    -0.364795521     0.265023514    -0.216071204
   41    36.667548756    22.449156191     4.549589621    -0.414737485     0.224602023    -0.165972135
   42    30.951659036    28.890743657     3.998623671    -0.376922355     0.243940816    -0.220050940
   43    34.489469763    27.475434151     6.143014682    -0.383654299     0.245719220    -0.205988942
   44    39.429864971    24.474775540     5.426353515    -0.398452981     0.231408447    -0.194127155
   45    34.769295781    29.991482990     5.602178767    -0.371396668     0.253281242    -0.218890674
   46    37.861322192    21.669986631     2.901920112    -0.411894327     0.229668688    -0.166118503
   47    37.285786222    22.239720370    10.466684841    -0.372460114     0.252603828    -0.217864109
   48    40.490701328    23.896570237     1.387786933    -0.363679127     0.270377565    -0.211266337
   49    33.730167765    25.748728844     2.477681760     0.383082499    -0.219993382     0.234202287
   50    36.884927790    29.822815180     7.598735672    -0.359418329     0.257909001    -0.233026634
   51    40.161897893    26.256427559     1.527120557    -0.376985804     0.240128256    -0.224098470
   52    39.869350463    30.018809316     2.228299185    -0.358391336     0.254563584    -0.238228949
   53    39.138577127    24.698970936    10.151311992    -0.363624261     0.265212105    -0.217807108
   54    35.297689359    22.805680224    10.462729730    -0.360268243     0.285815314    -0.196255953
   55    33.743912505    30.473989451     3.364136264    -0.360302891     0.263497662    -0.225279402
   56    36.855054038    24.466611102    10.328188977    -0.372536267     0.254297102    -0.215753827
   57    35.744720556    26.392778806     7.957957633    -0.374731564     0.251070523    -0.215730961
   58    34.617680902    20.680910621     7.748287305    -0.362595420     0.267154999    -0.217146881
   59    36.269410942    22.159940395     8.463401017    -0.370181369     0.261365015    -0.211315128
   60    39.374716862    26.839255555     9.709022266    -0.364441278     0.260744858    -0.221798724
   61    39.539594166    22.212751889    10.612432092    -0.383562402     0.251000116    -0.199696834
   62    39.371363361    27.728662351     3.046594160    -0.379809366     0.241933706    -0.217285360
   63    32.633942665    28.262293869    10.240430118    -0.355580671     0.269567518    -0.225600842
   64    33.973902149    29.583986023     1.307248957    -0.363166815     0.254776662    -0.230648471
   65    35.100847859    24.310609938     4.154201528    -0.380297632     0.228406652    -0.230660166
   66    31.499157434    27.192357389     8.747557475    -0.351380749     0.274210704    -0.226583447
   67    38.330140901    23.221261448     8.859353579    -0.371495663     0.263131100    -0.206767977
   68    31.493181707    22.751747558     5.958721512    -0.443815042     0.210824144    -0.092635788
   21     2.163495780    36.411510290     3.903502202     0.370973433    -0.246637421     0.227043376
   22     9.495801450    31.795132745     5.943428922    -0.425920558     0.224460585    -0.134941187
   23     9.379875032    39.322458457     6.808268553    -0.366429905     0.260983863    -0.218212162
   24     4.326665605    34.210172105     7.636379974    -0.374865635     0.247585359    -0.219493157
   25     5.605324415    30.454022387     0.921396045    -0.357613285     0.264887306    -0.227919840
   26     2.164550372    31.036400270     7.458541252    -0.179734516    -0.345157780     0.313945235
   27     0.829173550    33.036658747     2.746744677    -0.375068646     0.251929454    -0.214137949
   28     7.822334267    35.475472494     1.016023542    -0.381967447     0.243317341    -0.211890398
   29     8.534964089    38.128285397     5.095538368    -0.357176648     0.267003818    -0.226127848
   30     7.304930818    39.041946777     1.792583642    -0.370765750     0.261667717    -0.209911325
   31     5.817299880    40.005697469     8.806974857    -0.365760478     0.270220311    -0.207846713
   32     7.944174769    30.656684706     8.035903359    -0.362247890     0.270241749    -0.213882826
   33     1.007398100    38.031011294     5.438120744    -0.367006683     0.266662639    -0.210231138
   34    10.604702071    33.015777255     8.156353219    -0.494363559    -0.034458220     0.066462790
   35     7.976991283    37.617421521     0.332565719    -0.373142644     0.257094126    -0.211346109
   36     7.490759651    32.604181396     5.666636426    -0.415313953     0.229273841    -0.157948808
   37     7.996319012    35.217061281     7.603347685    -0.366617919     0.259821795    -0.219280497
   38     6.081367202    36.134268052     4.302486431    -0.386730804     0.245239307    -0.200741047
   39     8.267873903    35.829608766     3.728012422    -0.395757999     0.232505543    -0.198284589
   40     3.034284335    38.848364513     6.274977322    -0.364968512     0.265011584    -0.215793525
   41     6.533656378    32.040269077     3.715954435    -0.413940913     0.227403341    -0.164136045
   42     0.817766658    38.481856543     3.164988486    -0.379071785     0.239987113    -0.220705159
   43     4.355577385    37.066547037     5.309379497    -0.383215081     0.247305390    -0.204905454
   44     9.295972593    34.065888426     4.592718330    -0.397670974     0.233834531    -0.192819107
   45     4.635403403    39.582595876     4.768543582    -0.371439506     0.254142787    -0.217816751
   46     7.727429813    31.261099517     2.068284927    -0.411047007     0.232605154    -0.164119469
   47     7.151893843    31.830833256     9.633049656    -0.371170846     0.255648475    -0.216508800
   48    10.356808950    33.487683123     0.554151748    -0.362617643     0.271324273    -0.211876341
   49     3.596275387    35.339841730     1.644046575     0.367280567    -0.243256384     0.236498027
   50     6.751035411    39.413928066     6.765100486    -0.359658314     0.259755719    -0.230592419
   51    10.028005515    35.847540445     0.693485372    -0.376396262     0.241557753    -0.223552469
   52     9.735458085    39.609922202     1.394664000    -0.357345008     0.256777288    -0.237423608
   53     9.004684749    34.290083822     9.317676806    -0.362235930     0.268754239    -0.215769066
   54     5.163796980    32.396793110     9.629094545    -0.358706726     0.288686347    -0.194909409
   55     3.610020126    40.065102337     2.530501079    -0.360364812     0.263651651    -0.225000021
   56     6.721161659    34.057723988     9.494553792    -0.371311968     0.257251992    -0.214356795
   57     5.610828178    35.983891692     7.124322448    -0.373752432     0.253723124    -0.214321478
   58     4.483788523    30.272023507     6.914652119    -0.361502242     0.268881518    -0.216838322
   59     6.135518564    31.751053281     7.629765832    -0.369071734     0.263556771    -0.210532381
   60     9.240824483    36.430368441     8.875387081    -0.363567275     0.263576485    -0.219877860
   61     9.405701788    31.803864775     9.778796907    -0.382134951     0.254293788    -0.198261315
   62     9.237470983    37.319775237     2.212958975    -0.379162765     0.243591017    -0.216561803
   63     2.500050287    37.853406755     9.406794932    -0.356477817     0.268931876    -0.224942687
   64     3.840009771    39.175098909     0.473613771    -0.363321096     0.254475200    -0.230738280
   65     4.966955480    33.901722824     3.320566342    -0.331459181     0.327183998    -0.181894043
   66     1.365265056    36.783470275     7.913922290    -0.352385632     0.273144273    -0.226310788
   67     8.196248522    32.812374334     8.025718394    -0.370153871     0.266415442    -0.204960786
   68     1.359289329    32.342860444     5.125086327    -0.444345808     0.211555533    -0.088323607
   21    12.253151729    36.556170502     4.191589072     0.369928598    -0.247814613     0.227465931
   22    19.585457400    31.939792957     6.231515792    -0.427906418     0.220914615    -0.134509591
   23    19.469530981    39.467118668     7.096355423    -0.367497842     0.259650261    -0.218007060
   24    14.416321555    34.354832316     7.924466843    -0.376548730     0.245625132    -0.218813502
   25    15.694980365    30.598682599     1.209482914    -0.359931223     0.263302710    -0.226099972
   26    12.254206322    31.181060482     7.746628122    -0.156671068    -0.343512806     0.327800440
   27    10.918829499    33.181318959     3.034831547    -0.373052539     0.258016837    -0.210378504
   28    17.911990217    35.620132706     1.304110411    -0.384269458     0.241281158    -0.210048533
   29    18.624620038    38.272945609     5.383625237    -0.358728311     0.265260636    -0.225722825
   30    17.394586768    39.186606989     2.080670512    -0.372848794     0.260077305    -0.208191193
   31    15.906955830    40.150357681     9.095061727    -0.365355435     0.269045698    -0.210070985
   32    18.033830718    30.801344918     8.323990229    -0.364281933     0.268237226    -0.212949440
   33    11.097054050    38.175671506     5.726207614    -0.365567571     0.268863482    -0.209935179
   34    20.694358021    33.160437467     8.444440089    -0.494392501    -0.041375336     0.062162183
   35    18.066647233    37.762081732     0.620652588    -0.375479737     0.255142046    -0.209565033
   36    17.580415601    32.748841608     5.954723296    -0.417372949     0.226054823    -0.157159279
   37    18.085974962    35.361721493     7.891434554    -0.368395384     0.257626846    -0.218890953
   38    16.171023152    36.278928264     4.590573301    -0.388309323     0.243397651    -0.199933621
   39    18.357529852    35.974268977     4.016099291    -0.397895635     0.230188782    -0.196703300
   40    13.123940284    38.993024725     6.563064192    -0.364831325     0.265465952    -0.215466778
   41    16.623312328    32.184929289     4.004041305    -0.415953171     0.224364282    -0.163228761
   42    10.907422607    38.626516755     3.453075355    -0.376816843     0.243739329    -0.220454545
   43    14.445233335    37.211207249     5.597466366    -0.384461269     0.245816830    -0.204361490
   44    19.385628543    34.210548638     4.880805200    -0.400061930     0.231135777    -0.191119609
   45    14.725059353    39.727256088     5.056630451    -0.371580217     0.253732176    -0.218055325
   46    17.817085763    31.405759728     2.356371796    -0.413084758     0.229838226    -0.162896816
   47    17.241549793    31.975493468     9.921136526    -0.373451564     0.252918736    -0.215791664
   48    20.446464899    33.632343335     0.842238617    -0.366012047     0.268639484    -0.209446914
   49    13.685931337    35.484501942     1.932133445     0.367057638    -0.233182053     0.246768759
   50    16.840691361    39.558588278     7.053187356    -0.359420893     0.258604552    -0.232250528
   51    20.117661465    35.992200656     0.981572241    -0.378712104     0.239496137    -0.221852977
   52    19.825114035    39.754582414     1.682750870    -0.359700281     0.254786252    -0.236007783
   53    19.094340698    34.434744033     9.605763676    -0.364152911     0.266778149    -0.214993202
   54    15.253452930    32.541453321     9.917181415    -0.361270062     0.285922855    -0.194247428
   55    13.699676076    40.209762549     2.818587949    -0.360981804     0.263308231    -0.224412372
   56    16.810817609    34.202384199     9.782640662    -0.373401344     0.254857482    -0.213586282
   57    15.700484128    36.128551903     7.412409318    -0.375395129     0.251797547    -0.213720593
   58    14.573444473    30.416683719     7.202738989    -0.363604286     0.266764974    -0.215936036
   59    16.225174514    31.895713493     7.917852701    -0.371104773     0.261349332    -0.209708783
   60    19.330480433    36.575028653     9.163473950    -0.365151547     0.261625322    -0.219582647
   61    19.495357737    31.948524987    10.066883776    -0.384536906     0.251023880    -0.197783668
   62    19.327126933    37.464435449     2.501045844    -0.381335335     0.241513177    -0.215069169
   63    12.589706236    37.998066966     9.694881802    -0.355590339     0.270044428    -0.225014482
   64    13.929665720    39.319759120     0.761700641    -0.363883098     0.254414964    -0.229917631
   65    15.056611430    34.046383036     3.608653212    -0.307517263     0.310247391    -0.243268760
   66    11.454921006    36.928130487     8.202009160    -0.351031974     0.274941812    -0.226237825
   67    18.285904472    32.957034546     8.313805264    -0.372342020     0.264116368    -0.203970499
   68    11.448945278    32.487520656     5.413173196    -0.443685341     0.211216319    -0.092363331
   21    22.342807679    36.700830714     4.479675941     0.371340969    -0.246555918     0.226530493
   22    29.675113349    32.084453168     6.519602661    -0.425546163     0.225610918    -0.134201999
   23    29.559186931    39.611778880     7.384442292    -0.367411406     0.259975030    -0.217765567
   24    24.505977505    34.499492528     8.212553713    -0.376331788     0.246085597    -0.218669303
   25    25.784636315    30.743342810     1.497569784    -0.357875345     0.265800343    -0.226440755
   26    22.343862272    31.325720693     8.034714991    -0.170397720    -0.355849825     0.307140879
   27    21.008485449    33.325979171     3.322918417    -0.376338300     0.255407842    -0.207692847
   28    28.001646167    35.764792918     1.592197281    -0.383027775     0.242673329    -0.210711602
   29    28.714275988    38.417605820     5.671712107    -0.358307890     0.266087430    -0.225417247
   30    27.484242718    39.331267200     2.368757381    -0.372252314     0.260655224    -0.208535533
   31    25.996611779    40.295017893     9.383148596    -0.365549820     0.268910243    -0.209906194
   32    28.123486668    30.946005130     8.612077099    -0.363119129     0.269850932    -0.212896625
   33    21.186710000    38.320331717     6.014294484    -0.366795573     0.267639989    -0.209355784
   34    30.784013971    33.305097678     8.732526958    -0.494423871    -0.035402957     0.065510808
   35    28.156303182    37.906741944     0.908739458    -0.374329360     0.256269425    -0.210246313
   36    27.670071551    32.893501820     6.242810165    -0.415316207     0.229693064    -0.157332593
   37    28.175630912    35.506381704     8.179521424    -0.367959868     0.258367240    -0.218750783
   38    26.260679102    36.423588475     4.878660170    -0.387815527     0.243952126    -0.200216077
   39    28.447185802    36.118929189     4.304186161    -0.396838374     0.231237434    -0.197607070
   40    23.213596234    39.137684937     6.851151062    -0.365425536     0.264954231    -0.215089360
   41    26.712968278    32.329589501     4.292128175    -0.413748142     0.228030619    -0.163751371
   42    20.997078557    38.771176967     3.741162225    -0.378730003     0.241797116    -0.219311968
   43    24.534889284    37.355867461     5.885553236    -0.384208440     0.246151981    -0.204433552
   44    29.475284493    34.355208850     5.168892069    -0.398746138     0.232414026    -0.192315466
   45    24.814715302    39.871916299     5.344717321    -0.371937013     0.253477318    -0.217743215
   46    27.906741713    31.550419940     2.644458666    -0.410861759     0.233243823    -0.163676308
   47    27.331205743    32.120153679    10.209223395    -0.372720950     0.254173396    -0.215580561
   48    30.536120849    33.777003547     1.130325487    -0.363258035     0.271185196    -0.210955420
   49    23.775587287    35.629162154     2.220220314     0.378173904    -0.222031412     0.240180246
   50    26.930347311    39.703248490     7.341274226    -0.359494590     0.258581358    -0.232162274
   51    30.207317415    36.136860868     1.269659111    -0.377562986     0.240572989    -0.222645073
   52    29.914769984    39.899242626     1.970837739    -0.358973630     0.255446168    -0.236400483
   53    29.183996648    34.579404245     9.893850546    -0.363728429     0.267377163    -0.214967632
   54    25.343108880    32.686113533    10.205268284    -0.360584071     0.286961851    -0.193989752
   55    23.789332026    40.354422760     3.106674818    -0.361523164     0.263162678    -0.223710542
   56    26.900473559    34.347044411    10.070727531    -0.372733470     0.255974762    -0.213416685
   57    25.790140077    36.273212115     7.700496187    -0.375172687     0.252187244    -0.213651701
   58    24.663100423    30.561343930     7.490825859    -0.362647231     0.268669038    -0.215183490
   59    26.314830464    32.040373704     8.205939571    -0.370079576     0.263170917    -0.209241907
   60    29.420136383    36.719688864     9.451560820    -0.364907034     0.262099205    -0.219423935
   61    29.585013687    32.093185198    10.354970646    -0.383895603     0.252322018    -0.197377216
   62    29.416782882    37.609095660     2.789132714    -0.380354702     0.242428043    -0.215775218
   63    22.679362186    38.142727178     9.982968672    -0.356346262     0.269289041    -0.224723727
   64    24.019321670    39.464419332     1.049787511    -0.364649348     0.254094494    -0.229056415
   65    25.146267380    34.191043248     3.896740082    -0.311462258     0.321108472    -0.223339677
   66    21.544576955    37.072790698     8.490096029    -0.352296481     0.273599986    -0.225898731
   67    28.375560422    33.101694757     8.601892133    -0.371302316     0.265510655    -0.204055586
   68    21.538601228    32.632180867     5.701260066    -0.445522473     0.207162941    -0.092699742
   21    32.432463629    36.845490925     4.767762811     0.371364494    -0.246104651     0.226982188
   22    39.764769299    32.229113380     6.807689531    -0.427118580     0.223587175    -0.132583912
   23    39.648842881    39.756439092     7.672529162    -0.370573537     0.254940303    -0.218359098
   24    34.595633455    34.644152740     8.500640582    -0.376979585     0.244219410    -0.219643512
   25    35.874292265    30.888003022     1.785656654    -0.358596023     0.263173913    -0.228360206
   26    32.433518222    31.470380905     8.322801861    -0.138982195    -0.369887966     0.306376960
   27    31.098141399    33.470639382     3.611005286    -0.374687587     0.255837381    -0.210134354
   28    38.091302117    35.909453129     1.880284150    -0.383879894     0.239555657    -0.212718861
   29    38.803931938    38.562266032     5.959798976    -0.361688363     0.260782009    -0.226217310
   30    37.573898668    39.475927412     2.656844251    -0.373576468     0.257098548    -0.210572931
   31    36.086267729    40.439678104     9.671235466    -0.367385594     0.266638103    -0.209599493
   32    38.213142618    31.090665341     8.900163968    -0.363930134     0.268030652    -0.213809324
   33    31.276365949    38.464991929     6.302381353    -0.367051894     0.267105991    -0.209588399
   34    40.873669920    33.449757890     9.020613828    -0.493599058    -0.031491055     0.073268572
   35    38.245959132    38.051402156     1.196826327    -0.375297166     0.253234248    -0.212189662
   36    37.759727501    33.038162031     6.530897035    -0.416779840     0.227137465    -0.157172317
   37    38.265286862    35.651041916     8.467608294    -0.368583107     0.256728126    -0.219629603
   38    36.350335051    36.568248687     5.166747040    -0.388518893     0.241730617    -0.201542499
   39    38.536841752    36.263589401     4.592273030    -0.397540819     0.228613877    -0.199241040
   40    33.303252184    39.282345148     7.139237931    -0.366454007     0.263395788    -0.215253617
   41    36.802624227    32.474249712     4.580215044    -0.415281777     0.225000232    -0.164060784
   42    31.086734507    38.915837178     4.029249094    -0.378094012     0.242370429    -0.219776006
   43    34.624545234    37.500527672     6.173640105    -0.384940153     0.244069236    -0.205551177
   44    39.564940442    34.499869061     5.456978939    -0.399409496     0.229773490    -0.194103575
   45    34.904371252    40.016576511     5.632804190    -0.372940331     0.251573668    -0.218234276
   46    37.996397663    31.695080152     2.932545535    -0.412339208     0.230183175    -0.164292678
   47    37.420861693    32.264813891    10.497310265    -0.373016175     0.252698722    -0.216800113
   48    40.625776799    33.921663758     1.418412356    -0.364360170     0.267720000    -0.213465849
   49    33.865243236    35.773822365     2.508307184     0.381001857    -0.215078725     0.242030425
   50    37.020003261    39.847908701     7.629361095    -0.361433910     0.256302811    -0.231677358
   51    40.296973364    36.281521080     1.557745980    -0.378343741     0.237770372    -0.224324015
   52    40.004425934    40.043902837     2.258924609    -0.360330095     0.252130357    -0.237891794
   53    39.273652598    34.724064457    10.181937415    -0.364375281     0.265501819    -0.216193059
   54    35.432764830    32.830773745    10.493355154    -0.361118310     0.285407024    -0.195285424
   55    33.878987976    40.499082972     3.394761688    -0.361983552     0.261407521    -0.225020035
   56    36.990129509    34.491704623    10.358814401    -0.373296403     0.254280530    -0.214455607
   57    35.879796027    36.417872327     7.988583057    -0.375717820     0.250482543    -0.214696567
   58    34.752756373    30.706004142     7.778912728    -0.363197484     0.267438418    -0.215787582
   59    36.404486414    32.185033916     8.494026440    -0.370806672     0.261519972    -0.210023133
   60    39.509792333    36.864349076     9.739647689    -0.365391299     0.260762543    -0.220209206
   61    39.674669637    32.237845410    10.643057516    -0.384152080     0.250902791    -0.198683088
   62    39.506438832    37.753755872     3.077219583    -0.381391792     0.239485791    -0.217225361
   63    32.769018136    38.287387390    10.271055541    -0.356761504     0.268748444    -0.224712044
   64    34.108977620    39.609079544     1.337874380    -0.364795003     0.252615623    -0.230455967
   65    35.235923330    34.335703459     4.184826951    -0.328806478     0.271415370    -0.261189580
   66    31.634232905    37.217450910     8.778182899    -0.352501375     0.273398250    -0.225823333
   67    38.465216372    33.246354969     8.889979003    -0.372201312     0.263343404    -0.205222890
   68    31.628257178    32.776841079     5.989346936    -0.443042722     0.212889885    -0.091602640
   21     2.045140537     6.368365464    13.823611293     0.370544947    -0.247899562     0.226367509
   22     9.377446208     1.751987918    15.863538013    -0.424326652     0.228189034    -0.133703615
   23     9.261519789     9.279313630    16.728377644    -0.367102412     0.259767583    -0.218532886
   24     4.208310363     4.167027278    17.556489065    -0.375627165     0.246208346    -0.219740035
   25     5.486969173     0.410877561    10.841505136    -0.359328647     0.265412766    -0.224586258
   26     2.046195130     0.993255443    17.378650343    -0.185428701    -0.347289346     0.308230931
   27     0.710818307     2.993513921    12.666853769    -0.374991960     0.259001221    -0.205668173
   28     7.703979025     5.432327668    10.936132633    -0.384708555     0.241516421    -0.208971639
   29     8.416608846     8.085140570    15.015647459    -0.358439862     0.265573300    -0.225813391
   30     7.186575576     8.998801951    11.712692733    -0.373571925     0.259206977    -0.207980191
   31     5.698944638     9.962552643    18.727083948    -0.364710609     0.268680990    -0.211652302
   32     7.825819526     0.613539880    17.956012451    -0.361998485     0.270886408    -0.213489229
   33     0.889042858     7.987866467    15.358229835    -0.365867461     0.268570885    -0.209787227
   34    10.486346829     2.972632428    18.076462310    -0.494970461    -0.018925178     0.068162164
   35     7.858636041     7.574276694    10.252674810    -0.375932106     0.254992167    -0.208935507
   36     7.372404409     2.561036570    15.586745517    -0.415017794     0.230754946    -0.156564319
   37     7.877963770     5.173916455    17.523456776    -0.366785356     0.258743970    -0.220272697
   38     5.963011960     6.091123225    14.222595522    -0.388146154     0.243331978    -0.200330006
   39     8.149518660     5.786463939    13.648121513    -0.397932493     0.230121636    -0.196707305
   40     2.915929093     8.805219687    16.195086414    -0.364842570     0.265197343    -0.215778284
   41     6.415301136     1.997124251    13.636063527    -0.413979184     0.228382527    -0.162673465
   42     0.699411415     8.438711717    13.085097577    -0.377754799     0.243621163    -0.218974978
   43     4.237222143     7.023402211    15.229488588    -0.384285955     0.245742021    -0.204780770
   44     9.177617351     4.022743600    14.512827421    -0.399977321     0.231242618    -0.191167451
   45     4.517048161     9.539451049    14.688652673    -0.371702021     0.253105498    -0.218575421
   46     7.609074571     1.217954690    11.988394018    -0.411302859     0.233305308    -0.162476433
   47     7.033538601     1.787688429    19.553158747    -0.371109176     0.255559731    -0.216719181
   48    10.238453707     3.444538297    10.474260839    -0.365376448     0.270763702    -0.207814988
   49     3.477920145     5.296696904    11.564155666     0.378430267    -0.228931206     0.233197418
   50     6.632680169     9.370783240    16.685209578    -0.358732529     0.258259150    -0.233694639
   51     9.909650273     5.804395618    10.613594463    -0.379089123     0.239359534    -0.221355937
   52     9.617102843     9.566777376    11.314773091    -0.360454001     0.253724875    -0.236001274
   53     8.886329506     4.246938995    19.237785898    -0.362274690     0.267846627    -0.216829964
   54     5.045441738     2.353648283    19.549203636    -0.358820010     0.288521691    -0.194944694
   55     3.491664884    10.021957510    12.450610170    -0.361869333     0.262493933    -0.223936422
   56     6.602806417     4.014579161    19.414662883    -0.371325690     0.256975240    -0.214664757
   57     5.492472936     5.940746865    17.044431539    -0.374567014     0.252249771    -0.214638311
   58     4.365433281     0.228878680    16.834761211    -0.361661299     0.269457001    -0.215856503
   59     6.017163322     1.707908454    17.549874923    -0.369022045     0.264133460    -0.209895796
   60     9.122469241     6.387223614    18.795496172    -0.363620921     0.262338884    -0.221264855
   61     9.287346545     1.760719949    19.698905998    -0.382053047     0.254195804    -0.198544609
   62     9.119115741     7.276630410    12.133068066    -0.381680046     0.241135453    -0.214881445
   63     2.381695044     7.810261928    19.326904024    -0.355173114     0.269293828    -0.226567635
   64     3.721654528     9.131954082    10.393722863    -0.365054101     0.253551718    -0.229013164
   65     4.848600238     3.858577998    13.240675434    -0.341527068     0.302352816    -0.204797549
   66     1.246909814     6.740325449    17.834031381    -0.351065725     0.273679216    -0.227711535
   67     8.077893280     2.769229508    17.945827485    -0.370190866     0.266099113    -0.205304614
   68     1.240934086     2.299715618    15.045195418    -0.446865875     0.204409631    -0.092344965
   21    12.134796487     6.513025675    14.111698163     0.373676029    -0.245257424     0.224087084
   22    19.467102157     1.896648130    16.151624883    -0.428890988     0.219543201    -0.133616254
   23    19.351175739     9.423973842    17.016464514    -0.369072167     0.255632448    -0.220085862
   24    14.297966313     4.311687490    17.844575934    -0.378401677     0.242129728    -0.219511652
   25    15.576625123     0.555537772    11.129592005    -0.359679991     0.264150673    -0.225509925
   26    12.135851080     1.137915655    17.666737213    -0.196699582    -0.324910847     0.325180282
   27    10.800474257     3.138174132    12.954940638    -0.378096415     0.252624155    -0.207904153
   28    17.793634975     5.576987879    11.224219502    -0.385253242     0.239990085    -0.209725294
   29    18.506264796     8.229800782    15.303734328    -0.360048405     0.261796943    -0.227656555
   30    17.276231526     9.143462162    12.000779603    -0.373798286     0.258483084    -0.208473828
   31    15.788600587    10.107212855    19.015170818    -0.366953027     0.264959212    -0.212466684
   32    17.915475476     0.758200091    18.244099320    -0.364926920     0.266779244    -0.213675404
   33    10.978698808     8.132526679    15.646316705    -0.367610648     0.266203555    -0.209757192
   34    20.576002779     3.117292640    18.364549180    -0.493625906    -0.045797889     0.065084699
   35    17.948291990     7.718936906    10.540761679    -0.376331052     0.253851132    -0.209605683
   36    17.462060359     2.705696781    15.874832387    -0.418276655     0.224580035    -0.156870799
   37    17.967619720     5.318576666    17.811543646    -0.370129156     0.254197696    -0.219972588
   38    16.052667910     6.235783437    14.510682392    -0.389871986     0.240466394    -0.200438888
   39    18.239174610     5.931124151    13.936208382    -0.398879114     0.228136036    -0.197102515
   40    13.005585042     8.949879898    16.483173283    -0.366602101     0.262666739    -0.215891371
   41    16.504957086     2.141784462    13.924150396    -0.416752483     0.222996332    -0.163064416
   42    10.789067365     8.583371928    13.373184446    -0.379208707     0.241213243    -0.219127653
   43    14.326878093     7.168062422    15.517575457    -0.386129479     0.242795393    -0.204827787
   44    19.267273301     4.167403811    14.800914291    -0.401000413     0.229177382    -0.191510826
   45    14.606704110     9.684111261    14.976739542    -0.373211521     0.250662697    -0.218818127
   46    17.698730521     1.362614902    12.276480887    -0.413777193     0.228666659    -0.162788187
   47    17.123194551     1.932348641    19.841245617    -0.374733310     0.250468072    -0.216427103
   48    20.328109657     3.589198508    10.762347708    -0.365937612     0.269034809    -0.209069212
   49    13.567576095     5.441357116    11.852242536     0.420020541    -0.229988933     0.143832665
   50    16.722336119     9.515443451    16.973296447    -0.360679128     0.254835090    -0.234456059
   51    19.999306223     5.949055830    10.901681332    -0.379476987     0.237979667    -0.222177619
   52    19.706758793     9.711437587    11.602859961    -0.360415098     0.253426007    -0.236381506
   53    18.975985456     4.391599207    19.525872767    -0.365933231     0.263314907    -0.216236283
   54    15.135097688     2.498308495    19.837290506    -0.362392130     0.283844112    -0.195203648
   55    13.581320834    10.166617722    12.738697040    -0.362539231     0.261251614    -0.224305373
   56    16.692462367     4.159239373    19.702749753    -0.374735397     0.252191829    -0.214412368
   57    15.582128885     6.085407077    17.332518409    -0.377230707     0.248349886    -0.214521160
   58    14.455089231     0.373538892    17.122848080    -0.363396770     0.266332839    -0.216816988
   59    16.106819272     1.852568666    17.837961792    -0.371435963     0.260247665    -0.210491041
   60    19.212125191     6.531883826    19.083583041    -0.366893293     0.257955353    -0.221016622
   61    19.377002495     1.905380160    19.986992868    -0.386181546     0.248073515    -0.198301147
   62    19.208771690     7.421290622    12.421154935    -0.382279259     0.239435303    -0.215715795
   63    12.471350994     7.954922140    19.614990893    -0.356433963     0.267571961    -0.226627615
   64    13.811310478     9.276614294    10.681809732    -0.365590628     0.252321898    -0.229515037
   65    14.938256188     4.003238210    13.528762303    -0.352134267     0.267178915    -0.233702558
   66    11.336565763     6.884985660    18.122118251    -0.351756328     0.272842249    -0.227650155
   67    18.167549230     2.913889719    18.233914355    -0.373621709     0.261701122    -0.204742133
   68    11.330590036     2.444375829    15.333282288    -0.440832023     0.217657936    -0.091061246
   21    22.224452437     6.657685887    14.399785032     0.371653338    -0.244646128     0.228083468
   22    29.556758107     2.041308342    16.439711752    -0.426878564     0.224333825    -0.132094762
   23    29.440831689     9.568634053    17.304551384    -0.368117683     0.257200889    -0.219856940
   24    24.387622263     4.456347701    18.132662804    -0.376348181     0.244659610    -0.220235605
   25    25.666281073     0.700197984    11.417678875    -0.359621625     0.264350240    -0.225369114
   26    22.225507030     1.282575867    17.954824083    -0.155670437    -0.372106125     0.295472075
   27    20.890130207     3.282834344    13.243027508    -0.376897407     0.253709822    -0.208757446
   28    27.883290925     5.721648091    11.512306372    -0.383701592     0.241815785    -0.210471410
   29    28.595920746     8.374460994    15.591821198    -0.359234039     0.263136084    -0.227399004
   30    27.365887476     9.288122374    12.288866472    -0.372875887     0.259553961    -0.208794910
   31    25.878256537    10.251873066    19.303257687    -0.366451671     0.265941614    -0.212104292
   32    28.005131426     0.902860303    18.532186190    -0.363704549     0.268779532    -0.213252348
   33    21.068354757     8.277186891    15.934403575    -0.367753979     0.264903827    -0.211146806
   34    30.665658728     3.261952852    18.652636049    -0.493734865    -0.033368912     0.071501037
   35    28.037947940     7.863597117    10.828848549    -0.375012883     0.255365623    -0.210127905
   36    27.551716309     2.850356993    16.162919256    -0.416539978     0.228317269    -0.156095072
   37    28.057275670     5.463236878    18.099630515    -0.367995760     0.256368132    -0.221030545
   38    26.142323859     6.380443649    14.798769261    -0.387968474     0.242595329    -0.201563810
   39    28.328830560     6.075784362    14.224295252    -0.397056884     0.230327477    -0.198229878
   40    23.095240992     9.094540110    16.771260153    -0.366350532     0.262175830    -0.216912707
   41    26.594613035     2.286444674    14.212237266    -0.415256711     0.226381941    -0.162213073
   42    20.878723315     8.728032140    13.661271316    -0.379402590     0.239535953    -0.220626838
   43    24.416534042     7.312722634    15.805662327    -0.384423509     0.244545678    -0.205951395
   44    29.356929250     4.312064023    15.089001160    -0.398954927     0.231662841    -0.192788211
   45    24.696360060     9.828771473    15.264826412    -0.372656724     0.250985018    -0.219393452
   46    27.788386471     1.507275113    12.564567757    -0.412443904     0.231513339    -0.162146846
   47    27.212850501     2.077008853    20.129332486    -0.372925031     0.252791214    -0.216849079
   48    30.417765607     3.733858720    11.050434578    -0.364656205     0.270198032    -0.209806756
   49    23.657232044     5.586017327    12.140329406     0.369520078    -0.241408147     0.234897889
   50    26.811992069     9.660103663    17.261383317    -0.360334870     0.255613491    -0.234137831
   51    30.088962172     6.093716041    11.189768202    -0.378090929     0.239667140    -0.222726091
   52    29.796414742     9.856097799    11.890946830    -0.359387849     0.254547119    -0.236740657
   53    29.065641406     4.536259418    19.813959637    -0.363865880     0.265204994    -0.217411897
   54    25.224753638     2.642968706    20.125377375    -0.360513395     0.286356561    -0.195012850
   55    23.670976784    10.311277934    13.026783910    -0.362226610     0.261295183    -0.224759228
   56    26.782118317     4.303899584    19.990836622    -0.372906554     0.254544324    -0.214820597
   57    25.671784835     6.230067288    17.620605278    -0.375227142     0.250676020    -0.215327947
   58    24.544745181     0.518199104    17.410934950    -0.363050678     0.268332742    -0.214922648
   59    26.196475222     1.997228878    18.126048662    -0.370589056     0.262332482    -0.209392981
   60    29.301781141     6.676544038    19.371669911    -0.364887998     0.259807348    -0.222164108
   61    29.466658445     2.050040372    20.275079737    -0.384032260     0.250794266    -0.199051399
   62    29.298427640     7.565950834    12.709241805    -0.380789031     0.241269018    -0.216307593
   63    22.561006944     8.099582351    19.903077763    -0.357963135     0.265503463    -0.226650183
   64    23.900966428     9.421274505    10.969896602    -0.365295732     0.252380627    -0.229919654
   65    25.027912138     4.147898421    13.816849173    -0.353661126     0.307014738    -0.175116415
   66    21.426221713     7.029645872    18.410205120    -0.353944932     0.269953668    -0.227701564
   67    28.257205180     3.058549931    18.522001224    -0.371786073     0.263708706    -0.205506287
   68    21.420245986     2.589036041    15.621369157    -0.446557498     0.205596394    -0.091194975
   21    32.314108387     6.802346099    14.687871902     0.371323095    -0.244324601     0.228964296
   22    39.646414057     2.185968553    16.727798622    -0.428932335     0.218909139    -0.134520781
   23    39.530487639     9.713294265    17.592638253    -0.365607122     0.261575165    -0.218883223
   24    34.477278212     4.601007913    18.420749674    -0.375656895     0.246177103    -0.219724216
   25    35.755937022     0.844858196    11.705765745    -0.360850078     0.262876451    -0.225129279
   26    32.315162980     1.427236078    18.242910952    -0.165993284    -0.353401352     0.312335900
   27    30.979786157     3.427494556    13.531114377    -0.374351167     0.255254793    -0.211438394
   28    37.972946874     5.866308303    11.800393242    -0.384435759     0.243609812    -0.207034796
   29    38.685576696     8.519121205    15.879908068    -0.356774466     0.267791825    -0.225830731
   30    37.455543426     9.432782586    12.576953342    -0.372631625     0.261641171    -0.206614545
   31    35.967912487    10.396533278    19.591344557    -0.364302448     0.268945307    -0.212019216
   32    38.094787376     1.047520515    18.820273059    -0.363312940     0.268656999    -0.214072709
   33    31.158010707     8.421847102    16.222490444    -0.366271181     0.266756872    -0.211391089
   34    40.755314678     3.406613063    18.940722919    -0.493910016    -0.043551436     0.064468356
   35    38.127603890     8.008257329    11.116935418    -0.375476251     0.256940018    -0.207362996
   36    37.641372258     2.995017205    16.451006126    -0.417981436     0.224669944    -0.157527572
   37    38.146931619     5.607897089    18.387717385    -0.367152910     0.257899866    -0.220649948
   38    36.231979809     6.525103860    15.086856131    -0.387759453     0.244384261    -0.199797247
   39    38.418486510     6.220444574    14.512382122    -0.397589485     0.231559092    -0.195711493
   40    33.184896942     9.239200322    17.059347022    -0.364673196     0.264565682    -0.216837405
   41    36.684268985     2.431104886    14.500324135    -0.416731907     0.222354964    -0.163990206
   42    30.968379265     8.872692352    13.949358185    -0.378174433     0.241086087    -0.221046594
   43    34.506189992     7.457382846    16.093749196    -0.383948812     0.246420357    -0.204597940
   44    39.446585200     4.456724235    15.377088030    -0.399679428     0.232614500    -0.190123247
   45    34.786016010     9.973431684    15.552913282    -0.371176877     0.253494436    -0.219016658
   46    37.878042420     1.651935325    12.852654626    -0.414003661     0.227757205    -0.163485854
   47    37.302506451     2.221669064    20.417419356    -0.372215982     0.253164569    -0.217630338
   48    40.507421557     3.878518932    11.338521447    -0.365481267     0.272529371    -0.205307538
   49    33.746887994     5.730677539    12.428416275     0.396646366    -0.161447527     0.258082072
   50    36.901648019     9.804763875    17.549470186    -0.358315907     0.258462730    -0.234108368
   51    40.178618122     6.238376253    11.477855072    -0.378528642     0.241490728    -0.219996125
   52    39.886070692    10.000758011    12.179033700    -0.359522910     0.256113201    -0.234838892
   53    39.155297356     4.680919630    20.102046506    -0.362848868     0.266795980    -0.217164925
   54    35.314409587     2.787628918    20.413464245    -0.359613904     0.286777212    -0.196052725
   55    33.760632733    10.455938145    13.314870779    -0.361010428     0.263440652    -0.224210824
   56    36.871774267     4.448559796    20.278923492    -0.372109771     0.255330193    -0.215269159
   57    35.761440785     6.374727500    17.908692148    -0.374499352     0.252356624    -0.214630776
   58    34.634401130     0.662859315    17.699021819    -0.362548214     0.267939766    -0.216256964
   59    36.286131171     2.141889089    18.414135532    -0.370085478     0.262216025    -0.210426936
   60    39.391437091     6.821204249    19.659756781    -0.363837434     0.261662912    -0.221708912
   61    39.556314395     2.194700584    20.563166607    -0.383269519     0.251165063    -0.200051461
   62    39.388083590     7.710611045    12.997328674    -0.380856503     0.243257396    -0.213948975
   63    32.650662894     8.244242563    20.191164632    -0.355736711     0.267689754    -0.227582047
   64    33.990622378     9.565934717    11.257983471    -0.364195949     0.254424145    -0.229411563
   65    35.117568087     4.292558633    14.104936042    -0.339294973     0.163853317    -0.328680714
   66    31.515877663     7.174306084    18.698291990    -0.351697189     0.272081063    -0.228650350
   67    38.346861130     3.203210143    18.810088094    -0.371296891     0.264334021    -0.205587315
   68    31.509901936     2.733696253    15.909456027    -0.444296509     0.211618774    -0.088420056
   21     2.180216008    16.393458985    13.854236717     0.371344360    -0.245143319     0.228052886
   22     9.512521679    11.777081439    15.894163437    -0.425651354     0.225510697    -0.134036749
   23     9.396595261    19.304407151    16.759003068    -0.367618186     0.259454089    -0.218037714
   24     4.343385834    14.192120799    17.587114488    -0.376830145     0.244353755    -0.219750504
   25     5.622044644    10.435971082    10.872130559    -0.360448259     0.262130014    -0.226638276
   26     2.181270601    11.018348964    17.409275767    -0.191494584    -0.323380220     0.329780317
   27     0.845893778    13.018607442    12.697479192    -0.376768595     0.249761477    -0.213692841
   28     7.839054496    15.457421189    10.966758056    -0.385309408     0.239732999    -0.209916053
   29     8.551684317    18.110234091    15.046272882    -0.359038848     0.265103320    -0.225413697
   30     7.321651047    19.023895472    11.743318157    -0.373800183     0.258772509    -0.208111057
   31     5.834020109    19.987646164    18.757709372    -0.365159771     0.268401535    -0.211232001
   32     7.960894997    10.638633401    17.986637874    -0.363448656     0.268458344    -0.214091550
   33     1.024118329    18.012959989    15.388855259    -0.366358478     0.266895836    -0.211064157
   34    10.621422300    12.997725949    18.107087734    -0.495025601    -0.014988033     0.068738731
   35     7.993711512    17.599370215    10.283300233    -0.376478065     0.253675250    -0.209554609
   36     7.507479880    12.586130091    15.617370941    -0.416356099     0.227806752    -0.157326676
   37     8.013039241    15.199009976    17.554082199    -0.368402982     0.256680000    -0.219987773
   38     6.098087431    16.116216746    14.253220946    -0.388825818     0.241917584    -0.200724602
   39     8.284594131    15.811557460    13.678746936    -0.398531069     0.228488150    -0.197398460
   40     3.051004564    18.830313208    16.225711837    -0.365453287     0.263825147    -0.216425938
   41     6.550376607    12.022217772    13.666688950    -0.415412236     0.225031490    -0.163687210
   42     0.834486886    18.463805238    13.115723000    -0.377776375     0.241466576    -0.221311777
   43     4.372297614    17.048495732    15.260114011    -0.385004198     0.244295307    -0.205162302
   44     9.312692822    14.047837121    14.543452845    -0.400620191     0.229317228    -0.192138157
   45     4.652123632    19.564544570    14.719278096    -0.372146864     0.252235047    -0.218824571
   46     7.744150042    11.243048211    12.019019441    -0.412815950     0.229867794    -0.163535282
   47     7.168614072    11.812781950    19.583784171    -0.372124750     0.253909781    -0.216917019
   48    10.373529178    13.469631818    10.504886262    -0.366520967     0.267742248    -0.209705673
   49     3.612995616    15.321790425    11.594781090     0.387369602    -0.209025770     0.237177188
   50     6.767755640    19.395876761    16.715835001    -0.359180656     0.257962467    -0.233333714
   51    10.044725744    15.829489139    10.644219886    -0.379603598     0.237944704    -0.221998709
   52     9.752178314    19.591870897    11.345398515    -0.360733964     0.253278443    -0.236053039
   53     9.021404977    14.272032516    19.268411321    -0.363980724     0.265563641    -0.216780960
   54     5.180517209    12.378741804    19.579829060    -0.360186626     0.286288919    -0.195714714
   55     3.626740355    20.047051031    12.481235594    -0.361880262     0.261953496    -0.224550756
   56     6.737881888    14.039672682    19.445288307    -0.372659748     0.254831082    -0.214908893
   57     5.627548407    15.965840386    17.075056963    -0.375726393     0.250501774    -0.214659123
   58     4.500508752    10.253972201    16.865386634    -0.362521048     0.267190608    -0.217227229
   59     6.152238793    11.733001975    17.580500346    -0.370247405     0.261619022    -0.210884675
   60     9.257544712    16.412317135    18.826121595    -0.365272112     0.260519742    -0.220693788
   61     9.422422016    11.785813470    19.729531422    -0.382953773     0.252754498    -0.198649368
   62     9.254191212    17.301723931    12.163693489    -0.382144731     0.239986733    -0.215341061
   63     2.516770515    17.835355449    19.357529447    -0.355934081     0.267720241    -0.227237326
   64     3.856729999    19.157047603    10.424348286    -0.364852035     0.252997352    -0.229946369
   65     4.983675709    13.883671519    13.271300857    -0.364471060     0.242791575    -0.241273906
   66     1.381985285    16.765418970    17.864656805    -0.351771659     0.272137431    -0.228468638
   67     8.212968751    12.794323029    17.976452909    -0.371660279     0.263912721    -0.205471926
   68     1.376009558    12.324809139    15.075820841    -0.438681714     0.223084826    -0.088269554
   21    12.269871958    16.538119196    14.142323586     0.372796772    -0.244761311     0.226085090
   22    19.602177629    11.921741651    16.182250306    -0.430015725     0.214798262    -0.137652399
   23    19.486251210    19.449067363    17.047089938    -0.367875389     0.258976605    -0.218171529
   24    14.433041784    14.336781011    17.875201358    -0.378142066     0.242481689    -0.219570510
   25    15.711700594    10.580631293    11.160217429    -0.360356498     0.262452013    -0.226411430
   26    12.270926551    11.163009176    17.697362637    -0.240657865    -0.293041730     0.325899274
   27    10.935549728    13.163267653    12.985566062    -0.378173057     0.250647192    -0.210145485
   28    17.928710446    15.602081400    11.254844926    -0.384243540     0.241900968    -0.209382004
   29    18.641340267    18.254894303    15.334359752    -0.358860895     0.264899954    -0.225935548
   30    17.411306997    19.168555683    12.031405026    -0.373173919     0.260209171    -0.207442554
   31    15.923676059    20.132306376    19.045796241    -0.366466716     0.266977381    -0.210772921
   32    18.050550947    10.783293613    18.274724744    -0.365544611     0.264871417    -0.214989000
   33    11.113774279    18.157620200    15.676942129    -0.367858429     0.266062071    -0.209502150
   34    20.711078250    13.142386161    18.395174603    -0.493897053    -0.052965218     0.057099800
   35    18.083367461    17.744030427    10.571387103    -0.375540937     0.255468579    -0.209056954
   36    17.597135830    12.730790302    15.905457810    -0.418722263     0.221939293    -0.159419623
   37    18.102695191    15.343670187    17.842169069    -0.369837669     0.254930538    -0.219614479
   38    16.187743381    16.260876958    14.541307815    -0.389354115     0.241388940    -0.200336599
   39    18.374250081    15.956217672    13.966833806    -0.398272805     0.229313595    -0.196962046
   40    13.140660513    18.974973419    16.513798707    -0.366655451     0.263084540    -0.215291211
   41    16.640032557    12.166877983    13.954775820    -0.417115126     0.220863400    -0.165028270
   42    10.924142836    18.608465450    13.403809870    -0.379521471     0.240525666    -0.219341873
   43    14.461953564    17.193155943    15.548200881    -0.385709936     0.243602111    -0.204660344
   44    19.402348772    14.192497332    14.831539714    -0.400508600     0.229966903    -0.191593540
   45    14.741779581    19.709204782    15.007364966    -0.373097317     0.251492701    -0.218059196
   46    17.833805992    11.387708423    12.307106311    -0.414151947     0.226735903    -0.164526579
   47    17.258270022    11.957442162    19.871871040    -0.374987695     0.249240463    -0.217401519
   48    20.463185128    13.614292029    10.792973132    -0.365389300     0.269604778    -0.209293867
   49    13.702651566    15.466450637    11.882867960     0.383255552    -0.218844800     0.234993905
   50    16.857411590    19.540536972    17.003921871    -0.360210402     0.256812957    -0.233014101
   51    20.134381694    15.974149351    10.932306756    -0.378639732     0.239785460    -0.221663905
   52    19.841834264    19.736531108    11.633485384    -0.359892429     0.255036347    -0.235444052
   53    19.111060927    14.416692728    19.556498191    -0.365840831     0.263742912    -0.215870707
   54    15.270173159    12.523402016    19.867915929    -0.362742100     0.282464713    -0.196549878
   55    13.716396305    20.191711243    12.769322464    -0.362568216     0.261864719    -0.223542296
   56    16.827537838    14.184332894    19.733375176    -0.374977367     0.251266700    -0.215074452
   57    15.717204356    16.110500598    17.363143832    -0.376932959     0.248884188    -0.214425290
   58    14.590164702    10.398632413    17.153473504    -0.364232033     0.263972285    -0.218297181
   59    16.241894743    11.877662187    17.868587216    -0.372118275     0.258153649    -0.211860055
   60    19.347200662    16.556977347    19.114208465    -0.366556627     0.259252155    -0.220055809
   61    19.512077966    11.930473681    20.017618291    -0.386262994     0.246963290    -0.199524518
   62    19.343847161    17.446384143    12.451780359    -0.381476505     0.241263400    -0.215099158
   63    12.606426465    17.980015661    19.645616317    -0.357614850     0.267036902    -0.225395013
   64    13.946385949    19.301707815    10.712435156    -0.365593718     0.252956581    -0.228810406
   65    15.073331659    14.028331731    13.559387727    -0.322489838     0.331509808    -0.190004083
   66    11.471641234    16.910079181    18.152743674    -0.353115876     0.271844380    -0.226737317
   67    18.302624701    12.938983240    18.264539778    -0.373847319     0.260884250    -0.205371834
   68    11.465665507    12.469469350    15.363907711    -0.441895511     0.215497366    -0.091045276
   21    22.359527908    16.682779408    14.430410456     0.371523311    -0.246074135     0.226755263
   22    29.691833578    12.066401863    16.470337176    -0.429003448     0.217829521    -0.136038013
   23    29.575907160    19.593727574    17.335176807    -0.367436762     0.259456967    -0.218339892
   24    24.522697734    14.481441222    18.163288228    -0.376947970     0.243738223    -0.220231483
   25    25.801356544    10.725291505    11.448304299    -0.360222997     0.262466298    -0.226607226
   26    22.360582501    11.307669388    17.985449506    -0.151439108    -0.362024337     0.309846053
   27    21.025205678    13.307927865    13.273652931    -0.375664872     0.256853622    -0.207128271
   28    28.018366396    15.746741612    11.542931795    -0.384058515     0.241578843    -0.210092170
   29    28.730996217    18.399554515    15.622446622    -0.358561155     0.265413180    -0.225809083
   30    27.500962947    19.313215895    12.319491896    -0.372507316     0.260621436    -0.208121999
   31    26.013332008    20.276966587    19.333883111    -0.365275457     0.269176392    -0.210042640
   32    28.140206897    10.927953824    18.562811613    -0.364823885     0.265898302    -0.214945635
   33    21.203430228    18.302280412    15.965028998    -0.366859742     0.267291467    -0.209688344
   34    30.800734199    13.287046373    18.683261473    -0.494154740    -0.047246214     0.059823812
   35    28.173023411    17.888690638    10.859473972    -0.375131152     0.255511666    -0.209738903
   36    27.686791780    12.875450514    16.193544680    -0.418022485     0.223866862    -0.158558600
   37    28.192351141    15.488330399    18.130255939    -0.368587145     0.256106003    -0.220347978
   38    26.277399330    16.405537170    14.829394685    -0.388363984     0.242528580    -0.200881319
   39    28.463906031    16.100877883    14.254920676    -0.397590011     0.229797936    -0.197775356
   40    23.230316463    19.119633631    16.801885576    -0.365439535     0.264676164    -0.215407693
   41    26.729688506    12.311538195    14.242862689    -0.416568517     0.222385983    -0.164362846
   42    21.013798786    18.753125661    13.691896739    -0.378638982     0.241715957    -0.219558461
   43    24.551609513    17.337816155    15.836287750    -0.384655787     0.244914904    -0.205077096
   44    29.492004722    14.337157544    15.119626584    -0.399670465     0.230687906    -0.192474959
   45    24.831435531    19.853864994    15.295451836    -0.371848913     0.253452096    -0.217922970
   46    27.923461942    11.532368635    12.595193180    -0.413652693     0.227996976    -0.164039108
   47    27.347925972    12.102102374    20.159957910    -0.373794077     0.250211937    -0.218339127
   48    30.552841078    13.758952241    11.081060001    -0.365149975     0.269446545    -0.209914399
   49    23.792307516    15.611110848    12.170954829     0.383914078    -0.220197538     0.232643558
   50    26.947067540    19.685197184    17.292008740    -0.359166415     0.258905633    -0.232308760
   51    30.224037643    16.118809562    11.220393626    -0.378325869     0.239633230    -0.222363334
   52    29.931490213    19.881191320    11.921572254    -0.359171709     0.255568216    -0.235967308
   53    29.200716877    14.561352939    19.844585060    -0.364599823     0.264814106    -0.216657467
   54    25.359829109    12.668062227    20.156002799    -0.361891163     0.283210577    -0.197044552
   55    23.806052255    20.336371455    13.057409333    -0.361074126     0.263803226    -0.223681322
   56    26.917193788    14.328993105    20.021462046    -0.373741273     0.252519974    -0.215757093
   57    25.806860306    16.255160809    17.651230702    -0.375716645     0.250180706    -0.215050267
   58    24.679820652    10.543292625    17.441560373    -0.364253359     0.264861620    -0.217181520
   59    26.331550693    12.022322399    18.156674085    -0.371626457     0.259281815    -0.211345018
   60    29.436856612    16.701637559    19.402295334    -0.365328996     0.260211211    -0.220963460
   61    29.601733916    12.075133893    20.305705161    -0.384830265     0.248232135    -0.200714908
   62    29.433503111    17.591044355    12.739867228    -0.380962718     0.241469506    -0.215777398
   63    22.696082415    18.124675872    19.933703186    -0.357218538     0.267815118    -0.225099931
   64    24.036041899    19.446368026    11.000522025    -0.364125014     0.254933927    -0.228957785
   65    25.162987609    14.172991942    13.847474596    -0.329558131     0.323088915    -0.192366815
   66    21.561297184    17.054739393    18.440830544    -0.353308780     0.271910754    -0.226356904
   67    28.392280651    13.083643452    18.552626648    -0.372689268     0.262138585    -0.205878779
   68    21.555321457    12.614129562    15.651994581    -0.448290094     0.199150497    -0.096824952
   21    32.449183858    16.827439620    14.718497325     0.370916928    -0.245938678     0.227892078
   22    39.781489528    12.211062074    16.758424046    -0.422675387     0.231660878    -0.132961479
   23    39.665563110    19.738387786    17.623263677    -0.366286136     0.260024031    -0.219595013
   24    34.612353683    14.626101434    18.451375097    -0.375643242     0.244789928    -0.221291766
   25    35.891012493    10.869951717    11.736391168    -0.359456305     0.264324203    -0.225663201
   26    32.450238451    11.452329599    18.273536376    -0.177819806    -0.358885183     0.299301758
   27    31.114861628    13.452588077    13.561739801    -0.374825898     0.256129259    -0.209531260
   28    38.108022345    15.891401824    11.831018665    -0.383326463     0.241074166    -0.212000163
   29    38.820652167    18.544214726    15.910533491    -0.357319631     0.265795943    -0.227321794
   30    37.590618897    19.457876107    12.607578765    -0.372145404     0.259715234    -0.209894725
   31    36.102987958    20.421626799    19.621969981    -0.364774714     0.268302280    -0.212021920
   32    38.229862847    11.072614036    18.850898483    -0.362742854     0.268842181    -0.214805735
   33    31.293086178    18.446940623    16.253115868    -0.366440320     0.267028840    -0.210753625
   34    40.890390149    13.431706584    18.971348343    -0.493884864    -0.008686912     0.077474373
   35    38.262679361    18.033350850    11.147560842    -0.374503223     0.254919559    -0.211573520
   36    37.776447729    13.020110726    16.481631549    -0.413890865     0.232279452    -0.157291475
   37    38.282007090    15.632990610    18.418342808    -0.367468790     0.256477147    -0.221779533
   38    36.367055280    16.550197381    15.117481555    -0.387493720     0.242715540    -0.202330876
   39    38.553561981    16.245538095    14.543007545    -0.396760367     0.229702821    -0.199544044
   40    33.319972413    19.264293843    17.089972446    -0.365019934     0.264080207    -0.216845779
   41    36.819344456    12.456198407    14.530949559    -0.412957767     0.229387549    -0.163851259
   42    31.103454736    18.897785873    13.979983609    -0.378202483     0.241795312    -0.220222408
   43    34.641265463    17.482476367    16.124374620    -0.383819768     0.244968316    -0.206574223
   44    39.581660671    14.481817756    15.407713454    -0.398700363     0.230814392    -0.194326367
   45    34.921091481    19.998525205    15.583538705    -0.371571376     0.252538500    -0.219451632
   46    38.013117892    11.677028846    12.883280050    -0.410591538     0.233837843    -0.163506735
   47    37.437581922    12.246762585    20.448044779    -0.372095092     0.252793585    -0.218267374
   48    40.642497028    13.903612453    11.369146871    -0.364264784     0.268749746    -0.212331677
   49    33.881963465    15.755771060    12.459041699     0.372775965    -0.225757831     0.245094843
   50    37.036723490    19.829857396    17.580095610    -0.358690657     0.257778699    -0.234288615
   51    40.313693593    16.263469774    11.508480495    -0.377655267     0.239176961    -0.223988572
   52    40.021146163    20.025851532    12.209659124    -0.358556455     0.254677629    -0.237858306
   53    39.290372827    14.706013151    20.132671930    -0.363430513     0.264760559    -0.218678094
   54    35.449485059    12.812722439    20.444089669    -0.360035120     0.285689325    -0.196866253
   55    33.895708204    20.481031666    13.345496203    -0.361134573     0.262650662    -0.224936546
   56    37.006849738    14.473653317    20.309548916    -0.372198982     0.254364653    -0.216255731
   57    35.896516256    16.399821021    17.939317572    -0.374463154     0.250942062    -0.216345620
   58    34.769476601    10.687952836    17.729647243    -0.362104145     0.267968806    -0.216963839
   59    36.421206642    12.166982610    18.444760955    -0.369493104     0.262457535    -0.211165548
   60    39.526512562    16.846297770    19.690382204    -0.364448601     0.260239361    -0.222379614
   61    39.691389866    12.219794105    20.593792030    -0.383199280     0.251338076    -0.199968705
   62    39.523159061    17.735704566    13.027954098    -0.380328478     0.241135414    -0.217264726
   63    32.785738365    18.269336084    20.221790056    -0.356465604     0.267386119    -0.226797127
   64    34.125697849    19.591028238    11.288608895    -0.364200392     0.253751174    -0.230148684
   65    35.252643558    14.317652154    14.135561466    -0.315268643     0.237010072    -0.307297752
   66    31.650953134    17.199399605    18.728917413    -0.352380407     0.272007678    -0.227683709
   67    38.481936601    13.228303664    18.840713518    -0.370934799     0.263678248    -0.207077658
   68    31.644977407    12.758789774    15.940081450    -0.447007963     0.203147443    -0.094419266
   21     2.315291480    26.418552506    13.884862140     0.370504637    -0.246536888     0.227916382
   22     9.647597150    21.802174960    15.924788860    -0.426904718     0.224543462    -0.131653314
   23     9.531670732    29.329500672    16.789628491    -0.365145003     0.262731486    -0.218268854
   24     4.478461305    24.217214320    17.617739912    -0.375976287     0.245803750    -0.219595875
   25     5.757120115    20.461064603    10.902755983    -0.360177299     0.262705278    -0.226402849
   26     2.316346072    21.043442485    17.439901190    -0.221735224    -0.335350222     0.297277175
   27     0.980969250    23.043700963    12.728104616    -0.376534304     0.251092050    -0.212543407
   28     7.974129967    25.482514710    10.997383480    -0.383227121     0.243050506    -0.209912899
   29     8.686759788    28.135327612    15.076898306    -0.356160094     0.268590315    -0.225852230
   30     7.456726518    29.048988993    11.773943580    -0.371449156     0.262242167    -0.207977331
   31     5.969095580    30.012739685    18.788334795    -0.363623775     0.270372572    -0.211367979
   32     8.095970468    20.663726922    18.017263298    -0.363846797     0.268147146    -0.213805090
   33     1.159193800    28.038053510    15.419480683    -0.365590078     0.268230242    -0.210704608
   34    10.756497771    23.022819470    18.137713157    -0.493489214    -0.027043239     0.075743375
   35     8.128786983    27.624463736    10.313925657    -0.374246350     0.256946812    -0.209566232
   36     7.642555351    22.611223612    15.647996364    -0.416689079     0.228191442    -0.155880973
   37     8.148114712    25.224103497    17.584707623    -0.367699653     0.257738311    -0.219927098
   38     6.233162902    26.141310267    14.283846369    -0.387581627     0.244190761    -0.200378029
   39     8.419669602    25.836650981    13.709372360    -0.396923210     0.231506324    -0.197121250
   40     3.186080035    28.855406729    16.256337261    -0.364207606     0.265652124    -0.216290935
   41     6.685452078    22.047311293    13.697314374    -0.415397434     0.225955395    -0.162447320
   42     0.969562358    28.488898759    13.146348424    -0.377625024     0.242166840    -0.220804354
   43     4.507373085    27.073589253    15.290739435    -0.383779040     0.246471716    -0.204854439
   44     9.447768293    24.072930642    14.574078268    -0.399072434     0.232430945    -0.191616931
   45     4.787199103    29.589638091    14.749903520    -0.370701253     0.254364121    -0.218813790
   46     7.879225513    21.268141732    12.049644865    -0.412655386     0.230947312    -0.162415736
   47     7.303689543    21.837875471    19.614409594    -0.372592143     0.252943216    -0.217243698
   48    10.508604649    23.494725339    10.535511686    -0.364977480     0.269679502    -0.209915233
   49     3.748071087    25.346883946    11.625406514     0.378375263    -0.221266146     0.240569020
   50     6.902831111    29.420970282    16.746460425    -0.357416787     0.260087389    -0.233683098
   51    10.179801215    25.854582660    10.674845310    -0.377580414     0.241148442    -0.221992026
   52     9.887253785    29.616964418    11.376023938    -0.358236447     0.256778494    -0.236075102
   53     9.156480448    24.297126037    19.299036745    -0.363517706     0.266243780    -0.216723618
   54     5.315592680    22.403835325    19.610454483    -0.360516059     0.286044719    -0.195465061
   55     3.761815826    30.072144552    12.511861017    -0.360250827     0.264140743    -0.224608570
   56     6.872957359    24.064766203    19.475913730    -0.372687683     0.254863885    -0.214821533
   57     5.762623878    25.990933907    17.105682386    -0.374783375     0.252052782    -0.214491996
   58     4.635584223    20.279065722    16.896012058    -0.362730613     0.267375052    -0.216649681
   59     6.287314264    21.758095496    17.611125770    -0.370466760     0.261744979    -0.210342449
   60     9.392620183    26.437410656    18.856747019    -0.364456636     0.261634617    -0.220723101
   61     9.557497487    21.810906991    19.760156845    -0.383571986     0.251392023    -0.199184794
   62     9.389266683    27.326817452    12.194318913    -0.380129095     0.243190197    -0.215314652
   63     2.651845986    27.860448970    19.388154871    -0.355498085     0.268921803    -0.226499835
   64     3.991805470    29.182141124    10.454973710    -0.363442760     0.254982435    -0.229985473
   65     5.118751180    23.908765040    13.301926281    -0.310290291     0.293493557    -0.259964357
   66     1.517060756    26.790512491    17.895282228    -0.351416273     0.273115287    -0.227847851
   67     8.348044222    22.819416550    18.007078332    -0.371607022     0.264040520    -0.205404054
   68     1.511085029    22.349902660    15.106446265    -0.440797718     0.218332419    -0.089600927
   21    12.404947429    26.563212718    14.172949010     0.370694556    -0.247152028     0.226939245
   22    19.737253100    21.946835172    16.212875730    -0.428030712     0.221928565    -0.132428929
   23    19.621326681    29.474160884    17.077715361    -0.368020844     0.258839329    -0.218089110
   24    14.568117255    24.361874532    17.905826782    -0.377153780     0.244601027    -0.218918623
   25    15.846776065    20.605724814    11.190842853    -0.360284196     0.263512302    -0.225292176
   26    12.406002022    21.188102697    17.727988060    -0.179375686    -0.330481904     0.329554357
   27    11.070625199    23.188361175    13.016191485    -0.375482454     0.254935488    -0.209811401
   28    18.063785917    25.627174921    11.285470349    -0.384397701     0.241849444    -0.209158441
   29    18.776415738    28.279987824    15.364985175    -0.359229224     0.264599961    -0.225701628
   30    17.546382468    29.193649204    12.062030450    -0.373056442     0.260405011    -0.207408104
   31    16.058751530    30.157399897    19.076421665    -0.365921397     0.267286177    -0.211328253
   32    18.185626418    20.808387134    18.305350167    -0.364778125     0.267186446    -0.213420530
   33    11.248849750    28.182713721    15.707567552    -0.365980022     0.268546036    -0.209622636
   34    20.846153721    23.167479682    18.425800027    -0.493630479    -0.040593544     0.068418672
   35    18.218442932    27.769123948    10.602012526    -0.375567195     0.255643276    -0.208796067
   36    17.732211301    22.755883824    15.936083234    -0.417537237     0.226642542    -0.155871147
   37    18.237770662    25.368763708    17.872794493    -0.368799342     0.256880362    -0.219087938
   38    16.322818852    26.285970479    14.571933239    -0.388710097     0.242951343    -0.199697535
   39    18.509325552    25.981311193    13.997459230    -0.397935302     0.230440934    -0.196327459
   40    13.275735984    29.000066940    16.544424130    -0.365391534     0.264930655    -0.215176148
   41    16.775108028    22.191971504    13.985401243    -0.416054482     0.224999733    -0.162091914
   42    11.059218307    28.633558971    13.434435293    -0.377430785     0.243534621    -0.219628985
   43    14.597029035    27.218249464    15.578826304    -0.384909406     0.245315646    -0.204120021
   44    19.537424243    24.217590853    14.862165138    -0.399978479     0.231480299    -0.190877153
   45    14.876855053    29.734298303    15.037990389    -0.372044692     0.253041269    -0.218066190
   46    17.968881463    21.412801944    12.337731734    -0.413200630     0.230357539    -0.161866129
   47    17.393345493    21.982535683    19.902496464    -0.374281629     0.251458999    -0.216059329
   48    20.598260599    23.639385550    10.823598555    -0.365442229     0.269530754    -0.209296798
   49    13.837727037    25.491544158    11.913493383     0.386215405    -0.204448749     0.242978126
   50    16.992487061    29.565630493    17.034547294    -0.359927636     0.257033254    -0.233208069
   51    20.269457165    25.999242872    10.962932180    -0.378778789     0.239968371    -0.221227959
   52    19.976909735    29.761624629    11.664110808    -0.359967119     0.255083798    -0.235278408
   53    19.246136398    24.441786249    19.587123614    -0.364684021     0.265602324    -0.215548070
   54    15.405248630    22.548495537    19.898541353    -0.361901874     0.284819374    -0.194691957
   55    13.851471776    30.216804764    12.799947887    -0.361547368     0.263125972    -0.223714604
   56    16.962613309    24.209426415    19.764000600    -0.374015664     0.253611703    -0.213993896
   57    15.852279828    26.135594119    17.393769256    -0.375943225     0.250891080    -0.213823192
   58    14.725240173    20.423725934    17.184098927    -0.364205859     0.265493862    -0.216488109
   59    16.376970214    21.902755708    17.899212639    -0.371592453     0.260340514    -0.210099656
   60    19.482276133    26.582070868    19.144833888    -0.365504402     0.261052438    -0.219677393
   61    19.647153437    21.955567202    20.048243715    -0.385429277     0.249508507    -0.197964080
   62    19.478922633    27.471477664    12.482405782    -0.381429481     0.241739651    -0.214647366
   63    12.741501936    28.005109182    19.676241740    -0.356219203     0.268793956    -0.225516493
   64    14.081461420    29.326801336    10.743060579    -0.364427745     0.254411793    -0.229056889
   65    15.208407130    24.053425252    13.590013150    -0.321403313     0.304912209    -0.231793993
   66    11.606716706    26.935172702    18.183369098    -0.351847401     0.273461927    -0.226764152
   67    18.437700172    22.964076761    18.295165202    -0.372827514     0.263123831    -0.204366080
   68    11.600740978    22.494562871    15.394533135    -0.443891778     0.212870974    -0.087441625
   21    22.494603379    26.707872929    14.461035879     0.371710341    -0.246439648     0.226050706
   22    29.826909049    22.091495384    16.500962600    -0.428543865     0.219846437    -0.134230027
   23    29.710982631    29.618821095    17.365802231    -0.367259961     0.260546591    -0.217337513
   24    24.657773205    24.506534743    18.193913651    -0.376078449     0.246654389    -0.218464213
   25    25.936432015    20.750385026    11.478929722    -0.358881198     0.264826712    -0.225989156
   26    22.495657972    21.332762909    18.016074930    -0.154761812    -0.365334348     0.304268953
   27    21.160281149    23.333021386    13.304278355    -0.375894813     0.255452716    -0.208439439
   28    28.153441867    25.771835133    11.573557219    -0.383223187     0.243725636    -0.209135848
   29    28.866071688    28.424648036    15.653072045    -0.358282920     0.266665773    -0.224772584
   30    27.636038418    29.338309416    12.350117319    -0.371948993     0.262053769    -0.207320449
   31    26.148407479    30.302060108    19.364508535    -0.365207209     0.269974782    -0.209134674
   32    28.275282368    20.953047345    18.593437037    -0.363789297     0.268864901    -0.213000029
   33    21.338505699    28.327373933    15.995654422    -0.366810695     0.267952770    -0.208928761
   34    30.935809670    23.312139894    18.713886897    -0.493448465    -0.049930213     0.063368650
   35    28.308098882    27.913784159    10.890099396    -0.374324079     0.257397991    -0.208872587
   36    27.821867251    22.900544035    16.224170103    -0.417244678     0.226453893    -0.156925184
   37    28.327426612    25.513423920    18.160881362    -0.367424326     0.259068681    -0.218821350
   38    26.412474801    26.430630691    14.860020109    -0.387677206     0.245017254    -0.199180644
   39    28.598981502    26.125971404    14.285546099    -0.396859232     0.232436314    -0.196153281
   40    23.365391934    29.144727152    16.832511000    -0.365181650     0.265781528    -0.214482031
   41    26.864763978    22.336631716    14.273488113    -0.415604813     0.225156665    -0.163024892
   42    21.148874257    28.778219182    13.722522163    -0.378776171     0.242035273    -0.218969264
   43    24.686684984    27.362909676    15.866913174    -0.384019306     0.247200479    -0.203521734
   44    29.627080193    24.362251065    15.150252007    -0.398866318     0.233661184    -0.190546874
   45    24.966511002    29.878958515    15.326077259    -0.371637165     0.254631338    -0.216907121
   46    28.058537413    21.557462156    12.625818604    -0.412587084     0.230767228    -0.162844664
   47    27.483001443    22.127195895    20.190583333    -0.372844379     0.253756318    -0.215858287
   48    30.687916549    23.784045762    11.111685425    -0.363823115     0.272192795    -0.208671569
   49    23.927382987    25.636204369    12.201580253     0.383026441    -0.214791551     0.239071821
   50    27.082143011    29.710290705    17.322634164    -0.359383910     0.259519888    -0.231284743
   51    30.359113114    26.143903083    11.251019049    -0.377568324     0.241722277    -0.221387672
   52    30.066565684    29.906284841    11.952197678    -0.358894340     0.256668621    -0.235193691
   53    29.335792348    24.586446460    19.875210484    -0.363239713     0.268028977    -0.214982275
   54    25.494904580    22.693155748    20.186628223    -0.360435641     0.287285777    -0.193786045
   55    23.941127726    30.361464976    13.088034757    -0.361135245     0.264567436    -0.222677809
   56    27.052269259    24.354086626    20.052087469    -0.372769033     0.255949468    -0.213384905
   57    25.941935777    26.280254330    17.681856126    -0.374844981     0.252958934    -0.213314363
   58    24.814896123    20.568386146    17.472185797    -0.363168438     0.267978846    -0.215165107
   59    26.466626164    22.047415920    18.187299509    -0.370592580     0.262444287    -0.209246591
   60    29.571932083    26.726731080    19.432920758    -0.364110942     0.262915788    -0.219769220
   61    29.736809387    22.100227414    20.336330584    -0.383914931     0.251714032    -0.198114541
   62    29.568578582    27.616137876    12.770492652    -0.380291074     0.243546541    -0.214624745
   63    22.831157886    28.149769393    19.964328610    -0.356392466     0.269355655    -0.224570571
   64    24.171117370    29.471461547    11.031147449    -0.364383113     0.255436644    -0.227984797
   65    25.298063080    24.198085463    13.878100020    -0.323698639     0.318325333    -0.209495044
   66    21.696372655    27.079832914    18.471455967    -0.352536962     0.273366565    -0.225806137
   67    28.527356122    23.108736973    18.583252072    -0.371477106     0.265263050    -0.204059486
   68    21.690396928    22.639223083    15.682620004    -0.445673516     0.208251096    -0.089479595
   21    32.584259329    26.852533141    14.749122749     0.370504310    -0.247354481     0.227029332
   22    39.916564999    22.236155595    16.789049469    -0.424474020     0.228131560    -0.133333407
   23    39.800638581    29.763481307    17.653889100    -0.365928978     0.260701817    -0.219386748
   24    34.747429155    24.651194955    18.482000521    -0.375728084     0.245170462    -0.220725738
   25    36.026087965    20.895045238    11.767016592    -0.359099368     0.263204787    -0.227532161
   26    32.585313922    21.477423120    18.304161799    -0.159072242    -0.364239543     0.303357178
   27    31.249937099    23.477681598    13.592365224    -0.373440696     0.260072540    -0.207133581
   28    38.243097817    25.916495345    11.861644089    -0.383485098     0.241388459    -0.211354658
   29    38.955727638    28.569308247    15.941158915    -0.357276261     0.266153054    -0.226971859
   30    37.725694368    29.482969628    12.638204189    -0.372253433     0.260218870    -0.209077788
   31    36.238063429    30.446720320    19.652595404    -0.364230980     0.269797577    -0.211057008
   32    38.364938318    21.097707557    18.881523906    -0.363142079     0.268152118    -0.214993656
   33    31.428161649    28.472034144    16.283741291    -0.365781267     0.268748954    -0.209709476
   34    41.025465620    23.456800105    19.001973766    -0.494862375    -0.017274026     0.069374620
   35    38.397754832    28.058444371    11.178186266    -0.374727466     0.255228713    -0.210802348
   36    37.911523200    23.045204247    16.512256973    -0.415104440     0.230007753    -0.157431693
   37    38.417082561    25.658084132    18.448968232    -0.367400665     0.257001565    -0.221284764
   38    36.502130751    26.575290902    15.148106978    -0.387554177     0.243357239    -0.201442336
   39    38.688637452    26.270631616    14.573632969    -0.396956025     0.230080738    -0.198717810
   40    33.455047884    29.289387364    17.120597869    -0.364365261     0.265716326    -0.215946268
   41    36.954419927    22.481291928    14.561574982    -0.414014456     0.227244287    -0.164170839
   42    31.238530207    28.922879394    14.010609033    -0.377698426     0.243488526    -0.219219608
   43    34.776340934    27.507569888    16.155000044    -0.383829369     0.245731942    -0.205647338
   44    39.716736142    24.506911277    15.438338877    -0.399033658     0.230904389    -0.193533726
   45    35.056166952    30.023618726    15.614164129    -0.371109047     0.253975630    -0.218573684
   46    38.148193363    21.702122367    12.913905474    -0.411432960     0.231906051    -0.164141716
   47    37.572657393    22.271856106    20.478670203    -0.372229036     0.252494483    -0.218385167
   48    40.777572499    23.928705974    11.399772295    -0.364422331     0.269072563    -0.211651412
   49    34.017038936    25.780864581    12.489667122     0.381341811    -0.214229317     0.242248268
   50    37.171798961    29.854950917    17.610721034    -0.358215528     0.259312062    -0.233321432
   51    40.448769064    26.288563295    11.539105919    -0.377750633     0.239609522    -0.223364582
   52    40.156221634    30.050945053    12.240284547    -0.359229836     0.254682933    -0.236834391
   53    39.425448298    24.731106672    20.163297354    -0.363280386     0.265409436    -0.218140304
   54    35.584560530    22.837815960    20.474715092    -0.360264588     0.285488624    -0.196737571
   55    34.030783676    30.506125187    13.376121626    -0.360795678     0.263758177    -0.224183191
   56    37.141925209    24.498746838    20.340174339    -0.372276823     0.254373593    -0.216111180
   57    36.031591727    26.424914542    17.969942995    -0.374542304     0.251392911    -0.215684182
   58    34.904552072    20.713046357    17.760272666    -0.362629802     0.267267983    -0.216950344
   59    36.556282113    22.192076131    18.475386379    -0.369942683     0.261812021    -0.211179727
   60    39.661588033    26.871391291    19.721007628    -0.364169358     0.260992913    -0.221953550
   61    39.826465337    22.244887626    20.624417454    -0.383203623     0.251013973    -0.200367085
   62    39.658234532    27.760798087    13.058579522    -0.380345946     0.241666496    -0.216643177
   63    32.920813836    28.294429605    20.252415479    -0.355205825     0.269801904    -0.225910944
   64    34.260773320    29.616121759    11.319234319    -0.363840365     0.254904827    -0.229442189
   65    35.387719029    24.342745675    14.166186889    -0.337956717     0.230070150    -0.287841942
   66    31.786028605    27.224493126    18.759542837    -0.351139423     0.274481600    -0.226629559
   67    38.617012072    23.253397185    18.871338941    -0.371282939     0.263458000    -0.206733794
   68    31.780052878    22.783883295    15.970706874    -0.446868131     0.204460046    -0.092222357
   21     2.450366951    36.443646027    13.915487564     0.370753511    -0.246920338     0.227095092
   22     9.782672621    31.827268481    15.955414284    -0.422887663     0.233077197    -0.129773049
   23     9.666746203    39.354594193    16.820253915    -0.365283694     0.262687616    -0.218089520
   24     4.613536776    34.242307841    17.648365336    -0.374886945     0.247306230    -0.219771261
   25     5.892195586    30.486158124    10.933381407    -0.358183909     0.265358145    -0.226471503
   26     2.451421543    31.068536007    17.470526614    -0.203090978    -0.334109463     0.311648715
   27     1.116044721    33.068794484    12.758730039    -0.377303200     0.253371548    -0.208435011
   28     8.109205438    35.507608231    11.028008903    -0.382288964     0.244977365    -0.209382996
   29     8.821835260    38.160421133    15.107523729    -0.356357985     0.268901526    -0.225168728
   30     7.591801989    39.074082514    11.804569004    -0.371461487     0.262879102    -0.207149563
   31     6.104171051    40.037833206    18.818960219    -0.363699908     0.270731071    -0.210777286
   32     8.231045939    30.688820443    18.047888721    -0.361943659     0.270516184    -0.214050885
   33     1.294269271    38.063147031    15.450106106    -0.365810803     0.268573745    -0.209882348
   34    10.891573242    33.047912991    18.168338581    -0.491564676    -0.007651324     0.091135209
   35     8.263862454    37.649557257    10.344551080    -0.373520207     0.258506954    -0.208942122
   36     7.777630822    32.636317133    15.678621788    -0.413494692     0.234609227    -0.154856870
   37     8.283190183    35.249197018    17.615333047    -0.366486236     0.259020745    -0.220445214
   38     6.368238373    36.166403788    14.314471793    -0.386842161     0.245623797    -0.200055225
   39     8.554745073    35.861744502    13.739997784    -0.395961884     0.233433985    -0.196780998
   40     3.321155506    38.880500250    16.286962684    -0.364337946     0.266142578    -0.215466911
   41     6.820527549    32.072404814    13.727939797    -0.412191463     0.232147346    -0.161882078
   42     1.104637829    38.513992280    13.176973847    -0.378127738     0.242406284    -0.219678418
   43     4.642448556    37.098682774    15.321364858    -0.383180955     0.247720874    -0.204466928
   44     9.582843764    34.098024163    14.604703692    -0.397752708     0.234860951    -0.191397797
   45     4.922274574    39.614731612    14.780528943    -0.370844931     0.254928315    -0.217911889
   46     8.014300984    31.293235253    12.080270288    -0.409577664     0.236542665    -0.162153338
   47     7.438765014    31.862968992    19.645035018    -0.371300320     0.255208376    -0.216805806
   48    10.643680120    33.519818860    10.566137109    -0.362821329     0.272969399    -0.209400072
   49     3.883146558    35.371977467    11.656031937     0.384690234    -0.206436454     0.243715847
   50     7.037906582    39.446063803    16.777085848    -0.357634345     0.260552718    -0.232830316
   51    10.314876686    35.879676181    10.705470734    -0.376799551     0.242809629    -0.221507523
   52    10.022329256    39.642057939    11.406649362    -0.358200434     0.257621183    -0.235210066
   53     9.291555919    34.322219558    19.329662168    -0.362114733     0.267429705    -0.217610369
   54     5.450668151    32.428928846    19.641079907    -0.358756488     0.288301779    -0.195386454
   55     3.896891297    40.097238073    12.542486441    -0.360765910     0.264610631    -0.223224488
   56     7.008032830    34.089859724    19.506539154    -0.371244695     0.256782892    -0.215034701
   57     5.897699349    36.016027428    17.136307810    -0.373776612     0.253443075    -0.214610466
   58     4.770659694    30.304159243    16.926637481    -0.361350650     0.269053983    -0.216877065
   59     6.422389735    31.783189017    17.641751193    -0.368753108     0.263986660    -0.210552105
   60     9.527695654    36.462504177    18.887372442    -0.363232477     0.262780348    -0.221378989
   61     9.692572958    31.836000512    19.790782269    -0.382502323     0.253905342    -0.198050625
   62     9.524342154    37.351910974    12.224944336    -0.379458929     0.244666453    -0.214823761
   63     2.786921457    37.885542491    19.418780294    -0.354423221     0.270454980    -0.226358751
   64     4.126880941    39.207234645    10.485599133    -0.364100002     0.255401344    -0.228476130
   65     5.253826651    33.933858561    13.332551704    -0.249049419     0.353805914    -0.250590826
   66     1.652136227    36.815606012    17.925907652    -0.350591811     0.274493024    -0.227462001
   67     8.483119693    32.844510071    18.037703756    -0.369889768     0.266020087    -0.205948713
   68     1.646160500    32.374996181    15.137071689    -0.442407333     0.212711340    -0.095024408
   21    12.540022900    36.588306239    14.203574433     0.369463457    -0.249646020     0.226215868
   22    19.872328571    31.971928693    16.243501154    -0.428912542     0.219482655    -0.133646532
   23    19.756402152    39.499254405    17.108340785    -0.368214486     0.258479956    -0.218188461
   24    14.703192726    34.386968053    17.936452205    -0.376688897     0.245003702    -0.219268467
   25    15.981851536    30.630818335    11.221468276    -0.359870443     0.263733231    -0.225694589
   26    12.541077493    31.213196218    17.758613484    -0.160801090    -0.297112686     0.368601494
   27    11.205700670    33.213454696    13.046816909    -0.374257605     0.256106559    -0.210572258
   28    18.198861388    35.652268442    11.316095773    -0.383872430     0.242819616    -0.208999023
   29    18.911491209    38.305081345    15.395610599    -0.359128637     0.264699262    -0.225745261
   30    17.681457939    39.218742725    12.092655873    -0.372899128     0.260632206    -0.207405626
   31    16.193827001    40.182493418    19.107047089    -0.366106289     0.267107573    -0.211233827
   32    18.320701889    30.833480655    18.335975591    -0.364503238     0.267508372    -0.213486909
   33    11.383925221    38.207807242    15.738192976    -0.365487271     0.269207196    -0.209634300
   34    20.981229192    33.192573203    18.456425451    -0.493591378    -0.048365292     0.063469285
   35    18.353518403    37.794217469    10.632637950    -0.375150205     0.256277258    -0.208768510
   36    17.867286772    32.780977345    15.966708657    -0.417826649     0.225592475    -0.156617134
   37    18.372846133    35.393857229    17.903419916    -0.368686944     0.256883151    -0.219273764
   38    16.457894323    36.311064000    14.602558662    -0.388099749     0.243681271    -0.199995058
   39    18.644401023    36.006404714    14.028084653    -0.397394355     0.231168318    -0.196567890
   40    13.410811455    39.025160461    16.575049554    -0.365048299     0.265175957    -0.215456378
   41    16.910183499    32.217065025    14.016026667    -0.416226192     0.224324681    -0.162585961
   42    11.194293778    38.658652492    13.465060717    -0.376917672     0.244712730    -0.219200248
   43    14.732104506    37.243342985    15.609451728    -0.384318328     0.245989470    -0.204422609
   44    19.672499714    34.242684374    14.892790561    -0.399483372     0.232170428    -0.191075713
   45    15.011930524    39.759391824    15.068615813    -0.371697005     0.253455912    -0.218177536
   46    18.103956934    31.437895465    12.368357158    -0.413291008     0.229819070    -0.162399931
   47    17.528420964    32.007629204    19.933121887    -0.373471300     0.252636314    -0.216088133
   48    20.733336070    33.664479071    10.854223979    -0.364993599     0.270834220    -0.208395053
   49    13.972802508    35.516637679    11.944118807     0.376002389    -0.239824937     0.226066811
   50    17.127562532    39.590724014    17.065172718    -0.359782729     0.257095660    -0.233362827
   51    20.404532636    36.024336393    10.993557603    -0.378227544     0.240755603    -0.221315759
   52    20.111985206    39.786718150    11.694736231    -0.359762415     0.255392912    -0.235256170
   53    19.381211869    34.466879770    19.617749038    -0.364705694     0.265599560    -0.215514804
   54    15.540324101    32.573589058    19.929166776    -0.361560962     0.285163478    -0.194821615
   55    13.986547247    40.241898285    12.830573311    -0.361028948     0.264008952    -0.223511458
   56    17.097688780    34.234519936    19.794626023    -0.373489590     0.254356878    -0.214028280
   57    15.987355299    36.160687640    17.424394680    -0.375506104     0.251299898    -0.214111016
   58    14.860315644    30.448819455    17.214724351    -0.363730623     0.265292197    -0.217531800
   59    16.512045685    31.927849229    17.929838063    -0.371243276     0.260380108    -0.210667107
   60    19.617351604    36.607164389    19.175459312    -0.365738289     0.260355657    -0.220114596
   61    19.782228908    31.980660723    20.078869138    -0.384525187     0.250747502    -0.198156683
   62    19.613998104    37.496571185    12.513031206    -0.380954065     0.242396718    -0.214750627
   63    12.876577407    38.030202703    19.706867164    -0.355912990     0.268657406    -0.226161760
   64    14.216536891    39.351894857    10.773686003    -0.364028289     0.255275542    -0.228730852
   65    15.343482601    34.078518773    13.620638574    -0.301604681     0.350534991    -0.190157399
   66    11.741792177    36.960266223    18.213994521    -0.351108380     0.273890708    -0.227391261
   67    18.572775643    32.989170282    18.325790626    -0.372556643     0.263561157    -0.204296511
   68    11.735816449    32.519656392    15.425158558    -0.439190087     0.223946069    -0.083427969
   21    22.629678850    36.732966450    14.491661303     0.371315154    -0.246924831     0.226170698
   22    29.961984520    32.116588905    16.531588023    -0.429335983     0.218922614    -0.133204740
   23    29.846058102    39.643914616    17.396427654    -0.366904330     0.260577854    -0.217899965
   24    24.792848676    34.531628264    18.224539075    -0.376177542     0.246923640    -0.217988929
   25    26.071507486    30.775478547    11.509555146    -0.359045888     0.265246597    -0.225233863
   26    22.630733443    31.357856430    18.046700353    -0.156143733    -0.368527349     0.299677707
   27    21.295356620    33.358114907    13.334903778    -0.374647311     0.257485288    -0.208184338
   28    28.288517338    35.796928654    11.604182643    -0.383673143     0.243303433    -0.208802200
   29    29.001147159    38.449741557    15.683697469    -0.358025627     0.266573639    -0.225291246
   30    27.771113889    39.363402937    12.380742743    -0.372639865     0.261257556    -0.207084572
   31    26.283482950    40.327153629    19.395133958    -0.365264619     0.269066195    -0.210202619
   32    28.410357839    30.978140866    18.624062460    -0.363676735     0.269720664    -0.212108453
   33    21.473581170    38.352467454    16.026279845    -0.366604913     0.267885367    -0.209375900
   34    31.070885142    33.337233415    18.744512320    -0.493302096    -0.053030755     0.061974039
   35    28.443174353    37.938877680    10.920724820    -0.374899970     0.256838253    -0.208528474
   36    27.956942722    32.925637556    16.254795527    -0.417863166     0.225998567    -0.155932748
   37    28.462502083    35.538517441    18.191506786    -0.367538921     0.259063756    -0.218634654
   38    26.547550273    36.455724212    14.890645532    -0.387867329     0.244736686    -0.199155442
   39    28.734056973    36.151064925    14.316171523    -0.397100565     0.232183028    -0.195964750
   40    23.500467405    39.169820673    16.863136423    -0.365042370     0.265471294    -0.215102441
   41    26.999839449    32.361725237    14.304113536    -0.416160779     0.224931326    -0.161913881
   42    21.283949728    38.803312703    13.753147587    -0.378362933     0.242457675    -0.219216256
   43    24.821760455    37.388003197    15.897538598    -0.384158459     0.246952677    -0.203559951
   44    29.762155664    34.387344586    15.180877431    -0.399121558     0.233404333    -0.190327086
   45    25.101586473    39.904052036    15.356702683    -0.371573237     0.254280043    -0.217428125
   46    28.193612884    31.582555677    12.656444028    -0.413042358     0.230647631    -0.161856977
   47    27.618076914    32.152289416    20.221208757    -0.372656639     0.254356270    -0.215476025
   48    30.822992020    33.809139283    11.142310849    -0.364341424     0.271804830    -0.208272565
   49    24.062458458    35.661297890    12.232205676     0.388229261    -0.211741749     0.233331251
   50    27.217218482    39.735384226    17.353259587    -0.359072903     0.259015779    -0.232330534
   51    30.494188585    36.168996604    11.281644473    -0.378015972     0.241339197    -0.221041437
   52    30.201641155    39.931378362    11.982823101    -0.359432059     0.255949427    -0.235156300
   53    29.470867819    34.611539981    19.905835907    -0.363310505     0.268249000    -0.214587864
   54    25.629980051    32.718249269    20.217253646    -0.360229212     0.287863864    -0.193311434
   55    24.076203197    40.386558497    13.118660180    -0.361227648     0.264019907    -0.223177229
   56    27.187344730    34.379180147    20.082712893    -0.372622425     0.256557179    -0.212910644
   57    26.077011248    36.305347851    17.712481549    -0.374973072     0.253051481    -0.212979208
   58    24.949971594    30.593479667    17.502811220    -0.363042448     0.268993910    -0.214108517
   59    26.601701635    32.072509441    18.217924933    -0.370576151     0.263229550    -0.208287110
   60    29.707007554    36.751824601    19.463546182    -0.364299114     0.262632393    -0.219796228
   61    29.871884858    32.125320935    20.366956008    -0.383767901     0.252130324    -0.197869902
   62    29.703654053    37.641231397    12.801118076    -0.380602321     0.243216716    -0.214446968
   63    22.966233357    38.174862914    19.994954033    -0.356684747     0.268240560    -0.225439556
   64    24.306192841    39.496555068    11.061772872    -0.364352731     0.255023625    -0.228495160
   65    25.433138551    34.223178984    13.908725443    -0.319138647     0.346138158    -0.168341616
   66    21.831448126    37.104926435    18.502081391    -0.352700328     0.272627181    -0.226444031
   67    28.662431593    33.133830494    18.613877495    -0.371462814     0.265782506    -0.203408547
   68    21.825472399    32.664316604    15.713245428    -0.446975536     0.204539959    -0.091521995
   21    32.719334800    36.877626662    14.779748173     0.370616115    -0.247230047     0.226982376
   22    40.051640470    32.261249116    16.819674893    -0.425376379     0.224544687    -0.136508679
   23    39.935714052    39.788574828    17.684514524    -0.367087915     0.259576617    -0.218784009
   24    34.882504626    34.676288476    18.512625944    -0.375524680     0.246319982    -0.219790084
   25    36.161163436    30.920138759    11.797642015    -0.359474113     0.263653315    -0.226418400
   26    32.720389393    31.502516641    18.334787223    -0.149499263    -0.371372930     0.299553196
   27    31.385012570    33.502775119    13.622990648    -0.373761299     0.259666044    -0.207065297
   28    38.378173288    35.941588866    11.892269512    -0.384295560     0.241559693    -0.209680321
   29    39.090803109    38.594401768    15.971784338    -0.358482593     0.265158458    -0.226232673
   30    37.860769839    39.508063149    12.668829613    -0.373350756     0.259754260    -0.207694336
   31    36.373138900    40.471813841    19.683220828    -0.364746850     0.268927128    -0.211276917
   32    38.500013789    31.122801078    18.912149330    -0.362591858     0.269574807    -0.214141467
   33    31.563237120    38.497127665    16.314366715    -0.365976280     0.268549469    -0.209624772
   34    41.160541091    33.481893626    19.032599190    -0.495616250    -0.027712457     0.059971266
   35    38.532830303    38.083537892    11.208811689    -0.375496037     0.255335059    -0.209300582
   36    38.046598671    33.070297768    16.542882397    -0.415583478     0.228245868    -0.158726799
   37    38.552158033    35.683177653    18.479593655    -0.366822977     0.258416989    -0.220593661
   38    36.637206222    36.600384423    15.178732402    -0.387888595     0.243780838    -0.200283152
   39    38.823712923    36.295725137    14.604258392    -0.397610586     0.230296289    -0.197153345
   40    33.590123355    39.314480885    17.151223293    -0.364786032     0.265446243    -0.215567722
   41    37.089495398    32.506385449    14.592200406    -0.414398405     0.226022147    -0.164887692
   42    31.373605678    38.947972915    14.041234456    -0.377803681     0.243384356    -0.219153904
   43    34.911416405    37.532663409    16.185625467    -0.384008118     0.246271283    -0.204666120
   44    39.851811613    34.532004798    15.468964301    -0.399726446     0.231083377    -0.191883407
   45    35.191242423    40.048712247    15.644789552    -0.371582640     0.253712932    -0.218073588
   46    38.283268834    31.727215888    12.944530897    -0.411769309     0.231102577    -0.164431247
   47    37.707732864    32.296949627    20.509295627    -0.371429460     0.254765766    -0.217104953
   48    40.912647970    33.953799495    11.430397718    -0.365219632     0.269359876    -0.209904449
   49    34.152114407    35.805958102    12.520292546     0.387627906    -0.198265680     0.245835975
   50    37.306874432    39.880044438    17.641346457    -0.358774180     0.258572037    -0.233284353
   51    40.583844535    36.313656816    11.569731342    -0.378551826     0.239801422    -0.221796739
   52    40.291297105    40.076038574    12.270909971    -0.360355688     0.254229016    -0.235608543
   53    39.560523769    34.756200193    20.193922777    -0.362529634     0.267369609    -0.216992528
   54    35.719636001    32.862909481    20.505340516    -0.359421361     0.287435110    -0.195441405
   55    34.165859147    40.531218708    13.406747050    -0.361729952     0.263267733    -0.223252195
   56    37.277000680    34.523840359    20.370799763    -0.371701614     0.256354604    -0.214756204
   57    36.166667198    36.450008063    18.000568419    -0.374430822     0.252382020    -0.214720459
   58    35.039627543    30.738139878    17.790898090    -0.362216336     0.268708432    -0.215858992
   59    36.691357584    32.217169652    18.506011802    -0.369665043     0.262934122    -0.210269835
   60    39.796663504    36.896484812    19.751633051    -0.363506235     0.262226609    -0.221586151
   61    39.961540808    32.269981147    20.655042877    -0.382383162     0.253137296    -0.199260199
   62    39.793310003    37.785891608    13.089204945    -0.381135287     0.241698459    -0.215215585
   63    33.055889307    38.319523126    20.283040903    -0.355537061     0.269368629    -0.225906928
   64    34.395848791    39.641215280    11.349859742    -0.364865639     0.254329850    -0.228449979
   65    35.522794500    34.367839196    14.196812313    -0.325049022     0.266000796    -0.271268704
   66    31.921104076    37.249586647    18.790168261    -0.351434518     0.274103036    -0.226630327
   67    38.752087543    33.278490706    18.901964365    -0.370467133     0.265382962    -0.205732803
   68    31.915128349    32.808976816    16.001332297    -0.447749443     0.202854573    -0.091490213
   21     2.332011708     6.400501200    23.835596655     0.369072870    -0.247692882     0.228983520
   22     9.664317379     1.784123655    25.875523375    -0.424848994     0.229291256    -0.130110924
   23     9.548390960     9.311449367    26.740363006    -0.364840731     0.262631960    -0.218896540
   24     4.495181534     4.199163015    27.568474427    -0.373506297     0.248023762    -0.221308066
   25     5.773840344     0.443013297    20.853490498    -0.357662311     0.265924415    -0.226631588
   26     2.333066301     1.025391180    27.390635705    -0.186199158    -0.338859801     0.317023515
   27     0.997689478     3.025649657    22.678839130    -0.373393053     0.255771812    -0.212505078
   28     7.990850196     5.464463404    20.948117995    -0.382157798     0.243857740    -0.210923732
   29     8.703480017     8.117276307    25.027632821    -0.355476914     0.268993792    -0.226447574
   30     7.473446747     9.030937687    21.724678095    -0.371115378     0.261977251    -0.208904993
   31     5.985815809     9.994688379    28.739069310    -0.363246903     0.270595496    -0.211730406
   32     8.112690697     0.645675616    27.967997812    -0.360814393     0.270964663    -0.215385990
   33     1.175914029     8.020002204    25.370215197    -0.364939417     0.268346496    -0.211682263
   34    10.773218000     3.004768165    28.088447672    -0.491857089    -0.026188683     0.085969510
   35     8.145507211     7.606412431    20.264660171    -0.373489224     0.257283015    -0.210502374
   36     7.659275580     2.593172306    25.598730879    -0.414496762     0.232416050    -0.155483805
   37     8.164834941     5.206052191    27.535442138    -0.365338736     0.259865902    -0.221353384
   38     6.249883131     6.123258962    24.234580884    -0.385849859     0.245796326    -0.201752452
   39     8.436389831     5.818599676    23.660106875    -0.395400443     0.232955098    -0.198470178
   40     3.202800263     8.837355423    26.207071775    -0.363420162     0.266129329    -0.217027570
   41     6.702172307     2.029259987    23.648048888    -0.413069396     0.230277453    -0.162314413
   42     0.986282586     8.470847453    23.097082939    -0.376745168     0.242602882    -0.221826328
   43     4.524093314     7.055537947    25.241473950    -0.382098840     0.247979395    -0.206171522
   44     9.464488522     4.054879336    24.524812783    -0.397262427     0.234327033    -0.193063218
   45     4.803919332     9.571586786    24.700638035    -0.369839245     0.254957983    -0.219579963
   46     7.895945742     1.250090427    22.000379380    -0.410248991     0.235130127    -0.162510272
   47     7.320409772     1.819824166    29.565144109    -0.369962819     0.255620135    -0.218599770
   48    10.525324878     3.476674033    20.486246201    -0.362907064     0.272006585    -0.210501498
   49     3.764791316     5.328832640    21.576141028     0.372962125    -0.236123301     0.234829811
   50     6.919551340     9.402918976    26.697194939    -0.357265421     0.260211023    -0.233776908
   51    10.196521444     5.836531355    20.625579825    -0.376500060     0.241856437    -0.223054182
   52     9.903974014     9.598913112    21.326758453    -0.357733536     0.256596103    -0.237034085
   53     9.173200677     4.279074732    29.249771259    -0.360770532     0.268613016    -0.218384228
   54     5.332312909     2.385784020    29.561188998    -0.356930433     0.289228304    -0.197351600
   55     3.778536055    10.054093247    22.462595532    -0.359762989     0.264461070    -0.225013186
   56     6.889677588     4.046714898    29.426648245    -0.369760159     0.257595568    -0.216614746
   57     5.779344107     5.972882602    27.056416901    -0.372443328     0.254158200    -0.216077709
   58     4.652304452     0.261014417    26.846746572    -0.360041659     0.269629578    -0.218334363
   59     6.304034493     1.740044191    27.561860285    -0.367584041     0.264443363    -0.212018114
   60     9.409340412     6.419359351    28.807481534    -0.362367280     0.263399249    -0.222060330
   61     9.574217716     1.792855685    29.710891360    -0.381292087     0.254070629    -0.200161085
   62     9.405986912     7.308766147    22.145053428    -0.379092424     0.243827721    -0.216418522
   63     2.668566215     7.842397665    29.338889385    -0.355369274     0.268500528    -0.227200671
   64     4.008525699     9.164089819    20.405708224    -0.363033630     0.255305605    -0.230272950
   65     5.135471409     3.890713734    23.252660795    -0.307744042     0.311897984    -0.240859404
   66     1.533780985     6.772461185    27.846016743    -0.351381807     0.272563560    -0.228560564
   67     8.364764451     2.801365244    27.957812847    -0.368909449     0.266653327    -0.206886011
   68     1.527805257     2.331851354    25.057180780    -0.444556661     0.209107530    -0.092969973
   21    12.421667658     6.545161412    24.123683524     0.371082363    -0.247058497     0.226406667
   22    19.753973328     1.928783866    26.163610245    -0.430841823     0.216450693    -0.132379837
   23    19.638046910     9.456109578    27.028449876    -0.369371761     0.255926549    -0.219239832
   24    14.584837484     4.343823226    27.856561296    -0.377929035     0.242048724    -0.220413383
   25    15.863496294     0.587673509    21.141577367    -0.360453473     0.262223687    -0.226521593
   26    12.422722251     1.170051392    27.678722575    -0.139290527    -0.337710388     0.341393970
   27    11.087345428     3.170309869    22.966926000    -0.372799832     0.256423448    -0.212761135
   28    18.080506146     5.609123616    21.236204864    -0.385596135     0.238794148    -0.210458965
   29    18.793135967     8.261936519    25.315719690    -0.360649505     0.261625336    -0.226901119
   30    17.563102697     9.175597899    22.012764964    -0.374463164     0.256967294    -0.209153408
   31    16.075471758    10.139348591    29.027156180    -0.366900730     0.265562421    -0.211802867
   32    18.202346647     0.790335828    28.256084682    -0.365524357     0.265409065    -0.214359447
   33    11.265569978     8.164662416    25.658302067    -0.365905723     0.267850359    -0.210639946
   34    20.862873950     3.149428376    28.376534542    -0.492877600    -0.048899422     0.068414310
   35    18.235163161     7.751072642    20.552747041    -0.376906064     0.252468405    -0.210241583
   36    17.748931530     2.737832518    25.886817749    -0.420090845     0.222010547    -0.155675943
   37    18.254490891     5.350712403    27.823529007    -0.369514534     0.254682789    -0.220444292
   38    16.339539081     6.267919174    24.522667754    -0.389335080     0.240225407    -0.201767067
   39    18.526045781     5.963259887    23.948193744    -0.399007494     0.227203384    -0.197918270
   40    13.292456213     8.982015635    26.495158645    -0.365842502     0.263315188    -0.216389407
   41    16.791828257     2.173920199    23.936135758    -0.419058135     0.220304561    -0.160798568
   42    11.075938536     8.615507665    23.385169808    -0.376790027     0.243702752    -0.220540799
   43    14.613749263     7.200198159    25.529560819    -0.385512886     0.242826864    -0.205948850
   44    19.554144472     4.199539548    24.812899653    -0.401413291     0.227951616    -0.192107862
   45    14.893575281     9.716246998    24.988724904    -0.372756718     0.250890242    -0.219331976
   46    17.985601692     1.394750638    22.288466249    -0.415730974     0.226195588    -0.161255428
   47    17.410065722     1.964484377    29.853230979    -0.374328778     0.250240016    -0.217388822
   48    20.614980828     3.621334245    20.774333070    -0.366822746     0.267385436    -0.209633255
   49    13.854447266     5.473492852    21.864227898     0.412732562    -0.222682200     0.173391090
   50    17.009207290     9.547579188    26.985281809    -0.360862242     0.255157381    -0.233822911
   51    20.286177393     5.981191566    20.913666694    -0.379933948     0.236672876    -0.222791708
   52    19.993629963     9.743573324    21.614845323    -0.361345439     0.251453172    -0.237067027
   53    19.262856627     4.423734943    29.537858129    -0.365417122     0.263708442    -0.216629141
   54    15.421968859     2.530444231    29.849275868    -0.362687632     0.282883120    -0.196048010
   55    13.868192005    10.198753458    22.750682402    -0.362343573     0.260774611    -0.225174903
   56    16.979333538     4.191375109    29.714735115    -0.374545027     0.251782529    -0.215224489
   57    15.869000056     6.117542813    27.344503771    -0.376739010     0.248329375    -0.215407149
   58    14.741960402     0.405674629    27.134833442    -0.364533610     0.264352957    -0.217330995
   59    16.393690443     1.884704402    27.849947154    -0.372216945     0.258678317    -0.211045195
   60    19.498996362     6.564019562    29.095568403    -0.366222548     0.258882039    -0.221045550
   61    19.663873666     1.937515897    29.998978229    -0.385335429     0.248431849    -0.199494922
   62    19.495642861     7.453426359    22.433140297    -0.382637373     0.238410035    -0.216215854
   63    12.758222165     7.987057876    29.626976255    -0.355222981     0.269089670    -0.226731963
   64    14.098181649     9.308750030    20.693795094    -0.365182560     0.252057568    -0.230453207
   65    15.225127359     4.035373946    23.540747665    -0.377184315     0.288026830     0.157392939
   66    11.623436934     6.917121397    28.134103612    -0.350627274     0.274044957    -0.227947090
   67    18.454420401     2.946025456    28.245899717    -0.373733524     0.261022566    -0.205403197
   68    11.617461207     2.476511566    25.345267649    -0.442191477     0.217709237    -0.084079642
   21    22.511323608     6.689821624    24.411770394     0.372552689    -0.243346720     0.228006288
   22    29.843629278     2.073444078    26.451697114    -0.428215938     0.220274591    -0.134574200
   23    29.727702860     9.600769790    27.316536745    -0.368088991     0.256841794    -0.220324277
   24    24.674493434     4.488483438    28.144648166    -0.377046312     0.243410422    -0.220425600
   25    25.953152244     0.732333720    21.429664237    -0.359424831     0.263977162    -0.226119103
   26    22.512378201     1.314711603    27.966809444    -0.151993493    -0.363153927     0.308248607
   27    21.177001378     3.314970081    23.255012870    -0.377115884     0.252584027    -0.209725819
   28    28.170162096     5.753783827    21.524291734    -0.383914376     0.240371682    -0.211733809
   29    28.882791917     8.406596730    25.603806560    -0.359248003     0.262704839    -0.227875053
   30    27.652758647     9.320258110    22.300851834    -0.372954853     0.258173560    -0.210359431
   31    26.165127708    10.284008803    29.315243049    -0.366182749     0.266711352    -0.211601628
   32    28.292002597     0.934996040    28.544171552    -0.364171659     0.267300774    -0.214311221
   33    21.355225928     8.309322627    25.946388936    -0.367901343     0.264848955    -0.210958841
   34    30.952529899     3.294088588    28.664621411    -0.493653177    -0.043257291     0.066598406
   35    28.324819111     7.895732854    20.840833911    -0.375147213     0.254047235    -0.211481845
   36    27.838587479     2.882492730    26.174904618    -0.417405728     0.225419124    -0.157983154
   37    28.344146841     5.495372614    28.111615877    -0.368675374     0.255730864    -0.220635885
   38    26.429195030     6.412579385    24.810754623    -0.388672440     0.241141246    -0.201952059
   39    28.615701731     6.107920099    24.236280614    -0.397524099     0.228715696    -0.199157529
   40    23.382112163     9.126675846    26.783245515    -0.366330824     0.262343288    -0.216743459
   41    26.881484206     2.318580410    24.224222628    -0.415865961     0.223959548    -0.164004948
   42    21.165594486     8.760167877    23.673256678    -0.379859340     0.238805398    -0.220632871
   43    24.703405213     7.344858371    25.817647689    -0.385092990     0.243301779    -0.206173793
   44    29.643800421     4.344199759    25.100986522    -0.399521402     0.229839172    -0.193795265
   45    24.983231231     9.860907209    25.276811774    -0.372768377     0.250788180    -0.219428863
   46    28.075257642     1.539410850    22.576553119    -0.412901336     0.229523343    -0.163803303
   47    27.499721672     2.109144589    30.141317848    -0.373434481     0.251692553    -0.217249964
   48    30.704636778     3.765994456    21.062419940    -0.364605474     0.269348995    -0.210983335
   49    23.944103215     5.618153064    22.152314767     0.377522195    -0.225755207     0.237721642
   50    27.098863240     9.692239399    27.273368679    -0.360085710     0.256302188    -0.233767982
   51    30.375833343     6.125851778    21.201753564    -0.378215088     0.238355233    -0.223919919
   52    30.083285913     9.888233536    21.902932192    -0.359593549     0.253006359    -0.238076168
   53    29.352512577     4.568395155    29.825944999    -0.364550820     0.264628756    -0.216966175
   54    25.511624809     2.675104443    30.137362737    -0.361419447     0.284574593    -0.195942044
   55    23.957847955    10.343413670    23.038769271    -0.362401575     0.260590441    -0.225294742
   56    27.068989488     4.336035321    30.002821984    -0.373587505     0.253249074    -0.215168033
   57    25.958656006     6.262203025    27.632590640    -0.375954657     0.249454033    -0.215478030
   58    24.831616351     0.550334840    27.422920312    -0.363726363     0.266175930    -0.216456709
   59    26.483346392     2.029364614    28.138034024    -0.371130792     0.260527120    -0.210683542
   60    29.588652312     6.708679774    29.383655273    -0.365429899     0.259671203    -0.221431379
   61    29.753529616     2.082176108    30.287065099    -0.384479474     0.249845854    -0.199380499
   62    29.585298811     7.598086570    22.721227167    -0.381031451     0.239937352    -0.217359380
   63    22.847878115     8.131718088    29.915063125    -0.357337203     0.266566039    -0.226390526
   64    24.187837599     9.453410242    20.981881964    -0.365519739     0.251489760    -0.230538979
   65    25.314783308     4.180034158    23.828834535    -0.331826683     0.315748544    -0.200484187
   66    21.713092884     7.061781608    28.422190482    -0.353271079     0.270972684    -0.227537578
   67    28.544076351     3.090685667    28.533986586    -0.372401205     0.262677614    -0.205712940
   68    21.707117157     2.621171777    25.633354519    -0.448543597     0.201945492    -0.089591626
   21    32.600979558     6.834481835    24.699857264     0.371315633    -0.244106138     0.229209281
   22    39.933285228     2.218104290    26.739783984    -0.426904054     0.221919579    -0.136031719
   23    39.817358810     9.745430001    27.604623615    -0.366390861     0.259199371    -0.220393791
   24    34.764149383     4.633143649    28.432735035    -0.376081964     0.243375829    -0.222104844
   25    36.042808193     0.876993932    21.717751106    -0.358612365     0.264262390    -0.227073911
   26    32.602034150     1.459371815    28.254896314    -0.156147484    -0.359292110     0.310688177
   27    31.266657328     3.459630292    23.543099739    -0.374885727     0.254144153    -0.211828801
   28    38.259818045     5.898444039    21.812378603    -0.382640643     0.242613991    -0.211481890
   29    38.972447867     8.551256942    25.891893429    -0.357284367     0.265319524    -0.227932954
   30    37.742414596     9.464918322    22.588938704    -0.371356379     0.260801453    -0.209945330
   31    36.254783658    10.428669014    29.603329919    -0.365269587     0.267543945    -0.212128184
   32    38.381658547     1.079656251    28.832258421    -0.363405146     0.266527931    -0.216563067
   33    31.444881878     8.453982839    26.234475806    -0.366628075     0.265692479    -0.212111671
   34    41.042185849     3.438748800    28.952708281    -0.494370630    -0.034139121     0.066574778
   35    38.414475061     8.040393065    21.128920780    -0.373747384     0.256268632    -0.211280101
   36    37.928243429     3.027152941    26.462991488    -0.416228450     0.226563747    -0.159445120
   37    38.433802790     5.640032826    28.399702747    -0.367803237     0.255749425    -0.222065329
   38    36.518850980     6.557239597    25.098841493    -0.387340970     0.242463274    -0.202924947
   39    38.705357681     6.252580310    24.524367483    -0.396172772     0.230613360    -0.199661245
   40    33.471768113     9.271336058    27.071332384    -0.364966525     0.263222581    -0.217975477
   41    36.971140156     2.463240622    24.512309497    -0.414855630     0.224676111    -0.165576121
   42    31.255250436     8.904828088    23.961343547    -0.378516047     0.239866473    -0.221787460
   43    34.793061163     7.489518582    26.105734558    -0.383750913     0.244538296    -0.207210663
   44    39.733456371     4.488859971    25.389073392    -0.398106079     0.231721675    -0.194464946
   45    35.072887181    10.005567421    25.564898643    -0.371382986     0.252030628    -0.220352535
   46    38.164913591     1.684071062    22.864639988    -0.412028526     0.230037339    -0.165273460
   47    37.589377621     2.253804801    30.429404718    -0.372798279     0.250151767    -0.220103467
   48    40.794292728     3.910654668    21.350506809    -0.363509667     0.270818103    -0.210993547
   49    34.033759165     5.762813275    22.440401637     0.379776737    -0.224269192     0.235526983
   50    37.188519189     9.836899611    27.561455548    -0.359016590     0.257222072    -0.234401138
   51    40.465489293     6.270511990    21.489840433    -0.376914837     0.240464789    -0.223856854
   52    40.172941863    10.032893747    22.191019062    -0.357961977     0.255551235    -0.237816713
   53    39.442168527     4.713055366    30.114031868    -0.363903835     0.263982171    -0.218831927
   54    35.601280758     2.819764655    30.425449607    -0.360426020     0.283721205    -0.198985833
   55    34.047503904    10.488073882    23.326856141    -0.360671290     0.262350707    -0.226027271
   56    37.158645437     4.480695532    30.290908854    -0.372681505     0.252464120    -0.217647340
   57    36.048311956     6.406863237    27.920677510    -0.374846785     0.249829826    -0.216967614
   58    34.921272301     0.694995052    27.711007181    -0.362679825     0.265944403    -0.218487801
   59    36.573002342     2.174024826    28.426120893    -0.370220659     0.260078607    -0.212828058
   60    39.678308261     6.853339986    29.671742142    -0.364699720     0.259781452    -0.222503284
   61    39.843185566     2.226836320    30.575151969    -0.384147704     0.248006791    -0.202294769
   62    39.674954761     7.742746782    23.009314036    -0.379547742     0.242206315    -0.217438756
   63    32.937534065     8.276378300    30.203149994    -0.356524060     0.266912285    -0.227262902
   64    34.277493549     9.598070453    21.269968833    -0.363663431     0.253459973    -0.231315695
   65    35.404439258     4.324694369    24.116921404    -0.337013077     0.288382774    -0.230775999
   66    31.802748834     7.206441820    28.710277352    -0.352427654     0.271477154    -0.228243081
   67    38.633732300     3.235345879    28.822073456    -0.371750052     0.261845542    -0.207939440
   68    31.796773107     2.765831989    25.921441389    -0.446091757     0.206371988    -0.091721025
   21     2.467087179    16.425594721    23.866222078     0.370607289    -0.246875030     0.227382842
   22     9.799392850    11.809217176    25.906148799    -0.423485973     0.230970161    -0.131576652
   23     9.683466431    19.336542888    26.770988430    -0.366932449     0.259655121    -0.218951583
   24     4.630257005    14.224256536    27.599099850    -0.375058670     0.246893908    -0.219941793
   25     5.908915815    10.468106818    20.884115921    -0.358448603     0.264566014    -0.226978904
   26     2.468141772    11.050484701    27.421261129    -0.215194466    -0.324066744     0.314121135
   27     1.132764949    13.050743178    22.709464554    -0.376277695     0.252797394    -0.210970552
   28     8.125925667    15.489556925    20.978743418    -0.383813211     0.241734575    -0.210361152
   29     8.838555488    18.142369828    25.058258244    -0.358144296     0.265339227    -0.226556302
   30     7.608522218    19.056031208    21.755303518    -0.372438213     0.260210040    -0.208759462
   31     6.120891280    20.019781900    28.769694734    -0.364850968     0.268429048    -0.211730057
   32     8.247766168    10.670769137    27.998623236    -0.361719813     0.270704801    -0.214190773
   33     1.310989500    18.045095725    25.400840621    -0.365794991     0.267269927    -0.211567509
   34    10.908293471    13.029861686    28.119073096    -0.492942909    -0.012447726     0.082778877
   35     8.280582682    17.631505952    20.295285595    -0.375067950     0.255401725    -0.209985694
   36     7.794351051    12.618265827    25.629356302    -0.414241946     0.232606642    -0.155877388
   37     8.299910412    15.231145712    27.566067561    -0.367123616     0.258603079    -0.219874278
   38     6.384958602    16.148352483    24.265206308    -0.387319363     0.244119305    -0.200971331
   39     8.571465302    15.843693197    23.690732298    -0.396923048     0.231124897    -0.197568662
   40     3.337875734    18.862448944    26.237697199    -0.364636812     0.264613449    -0.216840305
   41     6.837247778    12.054353508    23.678674312    -0.413164430     0.229985482    -0.162486406
   42     1.121358057    18.495940974    23.127708362    -0.377700280     0.241275687    -0.221649591
   43     4.659168785    17.080631468    25.272099373    -0.383589411     0.246279027    -0.205440515
   44     9.599563993    14.079972857    24.555438207    -0.398774756     0.232542017    -0.192101287
   45     4.938994803    19.596680307    24.731263458    -0.371260435     0.253061534    -0.219375361
   46     8.031021213    11.275183948    22.031004803    -0.410531267     0.234521835    -0.162676329
   47     7.455485243    11.844917687    29.595769533    -0.371129393     0.255766889    -0.216439998
   48    10.660400349    13.501767554    20.516871624    -0.364447861     0.270013974    -0.210404872
   49     3.899866787    15.353926161    21.606766452     0.380734507    -0.263235557     0.189072147
   50     7.054626811    19.428012497    26.727820363    -0.358807648     0.258079949    -0.233777269
   51    10.331596915    15.861624876    20.656205248    -0.378259307     0.239766074    -0.222333368
   52    10.039049485    19.624006633    21.357383877    -0.359524679     0.254775667    -0.236286615
   53     9.308276148    14.304168253    29.280396683    -0.362783555     0.267242855    -0.216724130
   54     5.467388380    12.410877541    29.591814422    -0.358595390     0.288735060    -0.195042077
   55     3.913611526    20.079186768    22.493220956    -0.360923727     0.262766480    -0.225139602
   56     7.024753059    14.071808419    29.457273669    -0.371249955     0.257067405    -0.214685399
   57     5.914419578    15.997976123    27.087042325    -0.374074936     0.252826770    -0.214817520
   58     4.787379923    10.286107938    26.877371996    -0.360743537     0.269337654    -0.217534662
   59     6.439109964    11.765137712    27.592485708    -0.368451613     0.264051800    -0.210997763
   60     9.544415883    16.444452872    28.838106957    -0.364305881     0.262052338    -0.220476296
   61     9.709293187    11.817949206    29.741516783    -0.382249594     0.254595939    -0.197651602
   62     9.541062383    17.333859668    22.175678851    -0.380809701     0.241838933    -0.215633722
   63     2.803641686    17.867491186    29.369514809    -0.356035567     0.267713329    -0.227086435
   64     4.143601170    19.189183340    20.436333648    -0.363945378     0.253766967    -0.230534353
   65     5.270546880    13.915807255    23.283286219    -0.353175304     0.297646049    -0.191504659
   66     1.668856456    16.797554706    27.876642166    -0.351965973     0.271821599    -0.228545340
   67     8.499839922    12.826458765    27.988438271    -0.370258390     0.265892631    -0.205450318
   68     1.662880728    12.356944875    25.087806203    -0.443189826     0.210503156    -0.096287067
   21    12.556743129    16.570254933    24.154308948     0.371253213    -0.246706363     0.226510535
   22    19.889048799    11.953877388    26.194235668    -0.431154480     0.214091160    -0.135169484
   23    19.773122381    19.481203099    27.059075299    -0.369001082     0.258462962    -0.216875768
   24    14.719912955    14.368916747    27.887186720    -0.378234927     0.243144276    -0.218676019
   25    15.998571765    10.612767030    21.172202791    -0.361059997     0.260562666    -0.227470383
   26    12.557797722    11.195144913    27.709347998    -0.161075032    -0.317907733     0.350698599
   27    11.222420899    13.195403390    22.997551424    -0.375737262     0.253901155    -0.210607962
   28    18.215581617    15.634217137    21.266830288    -0.385329133     0.240122179    -0.209434473
   29    18.928211438    18.287030040    25.346345114    -0.360301930     0.264182926    -0.224476949
   30    17.698178168    19.200691420    22.043390388    -0.374330731     0.258413591    -0.207602794
   31    16.210547229    20.164442112    29.057781603    -0.366849826     0.267695308    -0.209189931
   32    18.337422118    10.815429349    28.286710106    -0.365659981     0.265395077    -0.214145351
   33    11.400645449    18.189755937    25.688927490    -0.367020586     0.267338231    -0.209346985
   34    20.997949421    13.174521897    28.407159965    -0.493093913    -0.054915723     0.061989164
   35    18.370238632    17.776166163    20.583372465    -0.376593375     0.253913557    -0.209058210
   36    17.884007001    12.762926039    25.917443172    -0.419803539     0.220996305    -0.157878503
   37    18.389566362    15.375805924    27.854154431    -0.369762646     0.256017091    -0.218473876
   38    16.474614552    16.293012695    24.553293177    -0.389667297     0.241382952    -0.199733993
   39    18.661121252    15.988353408    23.978819168    -0.398937287     0.228455223    -0.196614475
   40    13.427531684    19.007109156    26.525784069    -0.366353740     0.263994708    -0.214689849
   41    16.926903728    12.199013720    23.966761181    -0.418278404     0.219558336    -0.163820980
   42    11.211014007    18.640601186    23.415795232    -0.378375545     0.241994488    -0.219705746
   43    14.748824734    17.225291680    25.560186243    -0.385878893     0.243897196    -0.203989307
   44    19.689219943    14.224633069    24.843525076    -0.401073410     0.229223779    -0.191302322
   45    15.028650752    19.741340519    25.019350328    -0.373131509     0.252046476    -0.217360188
   46    18.120677163    11.419844159    22.319091673    -0.415360984     0.225111474    -0.163707293
   47    17.545141193    11.989577899    29.883856402    -0.374627857     0.250556599    -0.216507180
   48    20.750056299    13.646427766    20.804958494    -0.366712462     0.267689707    -0.209437797
   49    13.989522737    15.498586373    21.894853321     0.367567305    -0.239790868     0.239571734
   50    17.144282761    19.572672709    27.015907233    -0.360798178     0.257462108    -0.231382664
   51    20.421252864    16.006285087    20.944292118    -0.379682453     0.238283684    -0.221499708
   52    20.128705434    19.768666845    21.645470746    -0.361103211     0.253342945    -0.235418400
   53    19.397932098    14.448828464    29.568483553    -0.365705103     0.264956479    -0.214610909
   54    15.557044330    12.555537752    29.879901291    -0.362490107     0.283822266    -0.195053438
   55    14.003267476    20.223846979    22.781307825    -0.362985246     0.261355719    -0.223461182
   56    17.114409009    14.216468630    29.745360538    -0.374799642     0.252523359    -0.213909284
   57    16.004075527    16.142636334    27.375129194    -0.377032370     0.249533660    -0.213493663
   58    14.877035873    10.430768150    27.165458866    -0.364519417     0.263966572    -0.217823882
   59    16.528765914    11.909797924    27.880572578    -0.372315546     0.258485790    -0.211107154
   60    19.634071833    16.589113083    29.126193827    -0.366434681     0.260441790    -0.218850860
   61    19.798949137    11.962609418    30.029603653    -0.385737387     0.248584488    -0.198525616
   62    19.630718332    17.478519880    22.463765721    -0.382423357     0.240149894    -0.214663467
   63    12.893297636    18.012151397    29.657601678    -0.356693075     0.268871103    -0.224673942
   64    14.233257120    19.333843551    20.724420518    -0.365983608     0.252381342    -0.228822325
   65    15.360202830    14.060467467    23.571373089    -0.328464602     0.338870506    -0.165159878
   66    11.758512405    16.942214918    28.164729036    -0.352257012     0.273449930    -0.226141842
   67    18.589495872    12.971118977    28.276525140    -0.373838747     0.261733002    -0.204304741
   68    11.752536678    12.501605087    25.375893073    -0.439915682     0.221359272    -0.086453833
   21    22.646399079    16.714915145    24.442395818     0.372317297    -0.246366271     0.225129942
   22    29.978704749    12.098537599    26.482322538    -0.429724014     0.213186454    -0.141027685
   23    29.862778331    19.625863311    27.347162169    -0.366787983     0.260660466    -0.217997011
   24    24.809568905    14.513576959    28.175273589    -0.376926183     0.244507905    -0.219414077
   25    26.088227715    10.757427241    21.460289660    -0.360435209     0.261194609    -0.227736330
   26    22.647453672    11.339805124    27.997434868    -0.152510228    -0.359604066     0.312130656
   27    21.312076849    13.340063602    23.285638293    -0.375939491     0.255405320    -0.208416942
   28    28.305237567    15.778877348    21.554917157    -0.384139239     0.241318845    -0.210243335
   29    29.017867388    18.431690251    25.634431983    -0.357899318     0.266589087    -0.225473584
   30    27.787834118    19.345351631    22.331477258    -0.372688991     0.260321500    -0.208172123
   31    26.300203179    20.309102324    29.345868473    -0.365245885     0.269922766    -0.209134273
   32    28.427078068    10.960089561    28.574796975    -0.364547731     0.266626331    -0.214511891
   33    21.490301399    18.334416148    25.977014360    -0.367507906     0.267146435    -0.208736009
   34    31.087605370    13.319182109    28.695246835    -0.494061669    -0.061076850     0.046612074
   35    28.459894582    17.920826375    20.871459334    -0.375251464     0.255149658    -0.209964261
   36    27.973662950    12.907586251    26.205530042    -0.417878933     0.221280816    -0.162517685
   37    28.479222312    15.520466135    28.142241300    -0.368123143     0.257340169    -0.219684750
   38    26.564270501    16.437672906    24.841380047    -0.388514008     0.242962679    -0.200064995
   39    28.750777202    16.133013620    24.266906037    -0.397559114     0.229941920    -0.197670090
   40    23.517187634    19.151769367    26.813870938    -0.365739367     0.264888187    -0.214636819
   41    27.016559677    12.343673931    24.254848051    -0.415884360     0.220220551    -0.168947057
   42    21.300669957    18.785261398    23.703882101    -0.379600943     0.241024410    -0.218655799
   43    24.838480684    17.369951892    25.848273112    -0.384763104     0.245402714    -0.204291120
   44    29.778875892    14.369293280    25.131611946    -0.399574310     0.230765839    -0.192581147
   45    25.118306702    19.886000730    25.307437197    -0.372144631     0.253595037    -0.217250849
   46    28.210333113    11.564504371    22.607178542    -0.413169120     0.226075961    -0.167871790
   47    27.634797143    12.134238110    30.171943272    -0.373513704     0.251708034    -0.217095782
   48    30.839712249    13.791087977    21.093045363    -0.365352088     0.268851841    -0.210324842
   49    24.079178686    15.643246585    22.182940191     0.379386845    -0.247716114     0.211429299
   50    27.233938711    19.717332920    27.303994102    -0.359193002     0.259421216    -0.231691648
   51    30.510908814    16.150945299    21.232378987    -0.378289669     0.239511303    -0.222556199
   52    30.218361384    19.913327057    21.933557616    -0.359537320     0.254747627    -0.236297613
   53    29.487588048    14.593488676    29.856570422    -0.363950192     0.266697941    -0.215435526
   54    25.646700280    12.700197964    30.167988161    -0.361357413     0.284615150    -0.195997542
   55    24.092923426    20.368507191    23.069394695    -0.361621127     0.263399828    -0.223272682
   56    27.204064959    14.361128842    30.033447408    -0.373403259     0.253889853    -0.214732272
   57    26.093731477    16.287296546    27.663216064    -0.375651689     0.250948610    -0.214267599
   58    24.966691823    10.575428361    27.453545735    -0.364049240     0.265354856    -0.216921532
   59    26.618421863    12.054458135    28.168659447    -0.371383730     0.259836480    -0.211090334
   60    29.723727783    16.733773295    29.414280696    -0.364597598     0.261678366    -0.220438255
   61    29.888605087    12.107269629    30.317690523    -0.384499096     0.249784598    -0.199419407
   62    29.720374282    17.623180091    22.751852590    -0.380918610     0.241510282    -0.215809629
   63    22.982953586    18.156811609    29.945688548    -0.357198093     0.268657278    -0.224126727
   64    24.322913070    19.478503763    21.012507387    -0.364767146     0.254313021    -0.228625932
   65    25.449858780    14.205127679    23.859459958    -0.133672085     0.217075234    -0.430128023
   66    21.848168355    17.086875129    28.452815906    -0.353311637     0.272836470    -0.225235761
   67    28.679151822    13.115779188    28.564612010    -0.372382730     0.263115551    -0.205186036
   68    21.842192628    12.646265298    25.663979942    -0.449396293     0.198317866    -0.093343429
   21    32.736055029    16.859575356    24.730482687     0.370255479    -0.246644130     0.228205070
   22    40.068360699    12.243197811    26.770409407    -0.426066391     0.222336003    -0.137964241
   23    39.952434281    19.770523523    27.635249039    -0.366024056     0.258750284    -0.221528059
   24    34.899224854    14.658237170    28.463360459    -0.376121888     0.244019965    -0.221329126
   25    36.177883664    10.902087453    21.748376530    -0.358433390     0.263818322    -0.227871449
   26    32.737109622    11.484465336    28.285521738    -0.166150805    -0.380581261     0.278481263
   27    31.401732799    13.484723813    23.573725163    -0.374368189     0.258413923    -0.207534825
   28    38.394893516    15.923537560    21.843004027    -0.383404353     0.240806640    -0.212163297
   29    39.107523338    18.576350463    25.922518853    -0.357314704     0.264369750    -0.228986544
   30    37.877490067    19.490011843    22.619564127    -0.371902537     0.259813695    -0.210203109
   31    36.389859129    20.453762535    29.633955342    -0.364614592     0.267168602    -0.213722103
   32    38.516734018    11.104749772    28.862883845    -0.363617794     0.267360700    -0.215175175
   33    31.579957349    18.479076360    26.265101230    -0.366151242     0.267226335    -0.211005579
   34    41.177261320    13.463842321    28.983333704    -0.495606255    -0.028133571     0.059857683
   35    38.549550532    18.065486586    21.159546204    -0.374460649     0.254766741    -0.211832787
   36    38.063318900    13.052246462    26.493616911    -0.416034836     0.226354689    -0.160245344
   37    38.568878261    15.665126347    28.430328170    -0.367927445     0.255735697    -0.221875299
   38    36.653926451    16.582333118    25.129466916    -0.387561674     0.242383080    -0.202599090
   39    38.840433152    16.277673831    24.554992907    -0.397102395     0.229253641    -0.199380179
   40    33.606843584    19.296429579    27.101957808    -0.364825704     0.263836491    -0.217468415
   41    37.106215627    12.488334143    24.542934921    -0.414757211     0.224446204    -0.166133553
   42    31.390325907    18.929921609    23.991968971    -0.378076808     0.241912888    -0.220309059
   43    34.928136634    17.514612103    26.136359982    -0.383917357     0.244548335    -0.206890249
   44    39.868531842    14.513953492    25.419698815    -0.399240217     0.230112545    -0.194050163
   45    35.207962652    20.030660942    25.595524067    -0.371350302     0.252184922    -0.220231058
   46    38.299989062    11.709164583    22.895265412    -0.411948730     0.229902005    -0.165660231
   47    37.724453093    12.278898322    30.460030141    -0.373072042     0.251703750    -0.217858840
   48    40.929368199    13.935748189    21.381132233    -0.364470422     0.268426911    -0.212387157
   49    34.168834636    15.787906796    22.471027061     0.366764491    -0.246796581     0.233613476
   50    37.323594660    19.861993132    27.592080972    -0.358322945     0.256873568    -0.235840279
   51    40.600564764    16.295605511    21.520465857    -0.377696602     0.238937017    -0.224174883
   52    40.308017334    20.057987268    22.221644485    -0.358778115     0.254369257    -0.237854042
   53    39.577243998    14.738148888    30.144657292    -0.363966827     0.264393166    -0.218230160
   54    35.736356229    12.844858176    30.456075030    -0.361151779     0.284479684    -0.196572383
   55    34.182579375    20.513167403    23.357481564    -0.360899181     0.262347805    -0.225666591
   56    37.293720908    14.505789054    30.321534277    -0.373058306     0.253288985    -0.216037476
   57    36.183387427    16.431956758    27.951302933    -0.374899596     0.250259183    -0.216380763
   58    35.056347772    10.720088573    27.741632605    -0.362853211     0.266927342    -0.216996177
   59    36.708077813    12.199118347    28.456746317    -0.370446705     0.260880882    -0.211448349
   60    39.813383732    16.878433507    29.702367566    -0.364769662     0.259525934    -0.222686739
   61    39.978261037    12.251929841    30.605777392    -0.384106120     0.250080856    -0.199805040
   62    39.810030232    17.767840303    23.039939460    -0.380415221     0.240757465    -0.217531843
   63    33.072609536    18.301471821    30.233775418    -0.356030782     0.267879423    -0.226897988
   64    34.412569020    19.623163974    21.300594257    -0.364036079     0.253342924    -0.230857307
   65    35.539514729    14.349787890    24.147546828    -0.349022461     0.283624433    -0.218496001
   66    31.937824305    17.231535341    28.740902775    -0.351797315     0.272872112    -0.227551005
   67    38.768807772    13.260439400    28.852698879    -0.371997452     0.262427904    -0.206759500
   68    31.931848578    12.790925510    25.952066812    -0.448603509     0.196193390    -0.101306691
   21     2.602162650    26.450688242    23.896847502     0.369912904    -0.246670258     0.228731780
   22     9.934468321    21.834310697    25.936774222    -0.425827739     0.223632684    -0.136598533
   23     9.818541902    29.361636409    26.801613853    -0.365677876     0.261386101    -0.218990861
   24     4.765332476    24.249350057    27.629725274    -0.376230152     0.245356690    -0.219661029
   25     6.043991286    20.493200339    20.914741345    -0.359253501     0.263585574    -0.226847013
   26     2.603217243    21.075578222    27.451886552    -0.196067214    -0.329632996     0.320779887
   27     1.267840420    23.075836699    22.740089977    -0.375589827     0.253787378    -0.211007697
   28     8.261001138    25.514650446    21.009368842    -0.383243213     0.242685978    -0.210304911
   29     8.973630959    28.167463349    25.088883668    -0.356742890     0.267361637    -0.226389633
   30     7.743597689    29.081124729    21.785928942    -0.371674681     0.261743274    -0.208202762
   31     6.255966751    30.044875421    28.800320157    -0.363443752     0.269459457    -0.212838530
   32     8.382841639    20.695862658    28.029248660    -0.363506471     0.268299621    -0.214192341
   33     1.446064971    28.070189246    25.431466044    -0.365170140     0.268156878    -0.211524603
   34    11.043368942    23.054955207    28.149698519    -0.494504070    -0.031164878     0.067040843
   35     8.415658154    27.656599473    20.325911019    -0.374424810     0.256531900    -0.209755681
   36     7.929426522    22.643359348    25.659981726    -0.415296046     0.227905100    -0.159963933
   37     8.434985883    25.256239233    27.596692985    -0.367716542     0.257605839    -0.220054031
   38     6.520034073    26.173446004    24.295831731    -0.387852284     0.243756546    -0.200383013
   39     8.706540773    25.868786718    23.721357722    -0.397021033     0.231025484    -0.197488038
   40     3.472951205    28.887542465    26.268322623    -0.363977950     0.265469129    -0.216901346
   41     6.972323249    22.079447029    23.709299735    -0.413517256     0.225916931    -0.167227448
   42     1.256433528    28.521034495    23.158333786    -0.376989276     0.242468976    -0.221557851
   43     4.794244256    27.105724989    25.302724797    -0.383925547     0.246093612    -0.205034407
   44     9.734639464    24.105066378    24.586063630    -0.398990503     0.232004096    -0.192303608
   45     5.074070274    29.621773828    24.761888882    -0.370591807     0.254010738    -0.219408882
   46     8.166096684    21.300277469    22.061630227    -0.411128776     0.230926672    -0.166270870
   47     7.590560714    21.870011208    29.626394956    -0.372671546     0.253122277    -0.216898666
   48    10.795475820    23.526861075    20.547497048    -0.364324615     0.270086632    -0.210525025
   49     4.034942258    25.379019682    21.637391875     0.369591740    -0.224256370     0.251219080
   50     7.189702282    29.453106018    26.758445787    -0.357281244     0.259178302    -0.234897254
   51    10.466672386    25.886718397    20.686830672    -0.377643825     0.240749297    -0.222317154
   52    10.174124956    29.649100154    21.388009300    -0.358425144     0.256543389    -0.236044288
   53     9.443351619    24.329261774    29.311022107    -0.363529975     0.266367964    -0.216550374
   54     5.602463851    22.435971062    29.622439845    -0.360717472     0.286078691    -0.195043297
   55     4.048686997    30.104280289    22.523846379    -0.360210779     0.264058169    -0.224769833
   56     7.159828530    24.096901940    29.487899092    -0.372789865     0.254825820    -0.214689353
   57     6.049495049    26.023069644    27.117667748    -0.375014733     0.251648982    -0.214561740
   58     4.922455394    20.311201459    26.907997420    -0.362406184     0.267153336    -0.217464601
   59     6.574185435    21.790231233    27.623111132    -0.370103575     0.261671445    -0.211072022
   60     9.679491354    26.469546393    28.868732381    -0.364423894     0.261499057    -0.220937703
   61     9.844368658    21.843042727    29.772142207    -0.383699365     0.251563042    -0.198723006
   62     9.676137854    27.358953189    22.206304275    -0.380285519     0.242654374    -0.215642710
   63     2.938717157    27.892584707    29.400140232    -0.354574227     0.268852617    -0.228024972
   64     4.278676641    29.214276861    20.466959072    -0.363340902     0.255086054    -0.230031507
   65     5.405622351    23.940900776    23.313911642     0.016470755     0.100728895    -0.489471556
   66     1.803931927    26.822648227    27.907267590    -0.350492295     0.273114745    -0.229267285
   67     8.634915393    22.851552286    28.019063694    -0.371487796     0.264044327    -0.205614714
   68     1.797956199    22.382038396    25.118431627    -0.442880197     0.210282490    -0.098175381
   21    12.691818600    26.595348454    24.184934372     0.371486479    -0.246296336     0.226574295
   22    20.024124270    21.978970909    26.224861092    -0.430449033     0.216945836    -0.132846282
   23    19.908197852    29.506296620    27.089700723    -0.367000101     0.260657813    -0.217642896
   24    14.854988426    24.394010268    27.917812143    -0.377685283     0.245120398    -0.217416231
   25    16.133647236    20.637860551    21.202828214    -0.360972741     0.262147504    -0.225781678
   26    12.692873193    21.220238434    27.739973422    -0.161497388    -0.345895205     0.322916554
   27    11.357496370    23.220496911    23.028176847    -0.375524986     0.255555406    -0.208979470
   28    18.350657088    25.659310658    21.297455711    -0.384296003     0.241985822    -0.209187580
   29    19.063286909    28.312123561    25.376970537    -0.358144274     0.266435058    -0.225266596
   30    17.833253639    29.225784941    22.074015812    -0.372945972     0.260373411    -0.207646308
   31    16.345622700    30.189535633    29.088407027    -0.365576004     0.268059756    -0.210945852
   32    18.472497589    20.840522870    28.317335529    -0.365357656     0.267694946    -0.211785739
   33    11.535720921    28.214849458    25.719552914    -0.366364793     0.267946751    -0.209717374
   34    21.133024892    23.199615419    28.437785389    -0.492097516    -0.059575818     0.065503868
   35    18.505314103    27.801259684    20.613997888    -0.375421767     0.255753585    -0.208922475
   36    18.019082472    22.788019560    25.948068596    -0.418983017     0.223683314    -0.156265821
   37    18.524641833    25.400899445    27.884779854    -0.369040502     0.257706543    -0.217707247
   38    16.609690023    26.318106216    24.583918601    -0.388956530     0.243089923    -0.199048002
   39    18.796196723    26.013446929    24.009444591    -0.398078162     0.230382773    -0.196105979
   40    13.562607155    29.032202677    26.556409492    -0.365496179     0.264798952    -0.215160542
   41    17.061979199    22.224107241    23.997386605    -0.417248104     0.222302043    -0.162744651
   42    11.346089478    28.665694707    23.446420655    -0.377720682     0.242903040    -0.219829934
   43    14.883900205    27.250385201    25.590811666    -0.385203956     0.245355343    -0.203515769
   44    19.824295414    24.249726590    24.874150500    -0.400232659     0.231226093    -0.190652334
   45    15.163726223    29.766434040    25.049975751    -0.372220148     0.252989549    -0.217826650
   46    18.255752634    21.444937680    22.349717096    -0.414251276     0.227976132    -0.162550804
   47    17.680216664    22.014671420    29.914481826    -0.374302787     0.252701057    -0.214568402
   48    20.885131770    23.671521287    20.835583917    -0.365693314     0.269378754    -0.209053790
   49    14.124598208    25.523679894    21.925478745     0.391028926    -0.191240673     0.246015008
   50    17.279358232    29.597766230    27.046532656    -0.359558762     0.257596658    -0.233155439
   51    20.556328336    26.031378608    20.974917541    -0.378598345     0.240239733    -0.221242319
   52    20.263780905    29.793760366    21.676096170    -0.359958470     0.254761431    -0.235640644
   53    19.533007569    24.473921985    29.599108976    -0.364837347     0.266884703    -0.213696667
   54    15.692119801    22.580631273    29.910526715    -0.362208952     0.285740922    -0.192760993
   55    14.138342947    30.248940500    22.811933249    -0.361582465     0.263037923    -0.223761417
   56    17.249484480    24.241562151    29.775985962    -0.374241428     0.254731908    -0.212261651
   57    16.139150998    26.167729855    27.405754618    -0.376417908     0.251365567    -0.212426246
   58    15.012111344    20.455861671    27.196084289    -0.364601832     0.266267178    -0.214865758
   59    16.663841385    21.934891445    27.911198001    -0.372179274     0.260776115    -0.208514761
   60    19.769147304    26.614206605    29.156819250    -0.365468159     0.261892294    -0.218736029
   61    19.934024608    21.987702939    30.060229077    -0.385411364     0.250507226    -0.196733856
   62    19.765793803    27.503613401    22.494391144    -0.381261987     0.242121267    -0.214514777
   63    13.028373107    28.037244918    29.688227102    -0.356281504     0.268518598    -0.225745991
   64    14.368332591    29.358937072    20.755045941    -0.364598367     0.254115526    -0.229114229
   65    15.495278301    24.085560988    23.601998512    -0.316068008     0.271800166    -0.276089993
   66    11.893587876    26.967308439    28.195354460    -0.352034129     0.273092055    -0.226920034
   67    18.724571343    22.996212498    28.307150564    -0.373161318     0.263998559    -0.202621302
   68    11.887612149    22.526698608    25.406518496    -0.443248167     0.211531788    -0.093730277
   21    22.781474550    26.740008666    24.473021241     0.371068590    -0.247519491     0.225925216
   22    30.113780220    22.123631120    26.512947961    -0.427251100     0.223250220    -0.132724665
   23    29.997853802    29.650956832    27.377787592    -0.366407280     0.260684664    -0.218607436
   24    24.944644376    24.538670480    28.205899013    -0.375195974     0.248005336    -0.218452133
   25    26.223303186    20.782520762    21.490915084    -0.359513791     0.264297747    -0.225602604
   26    22.782529143    21.364898645    28.028060291    -0.093431105    -0.388735855     0.300258328
   27    21.447152320    23.365157123    23.316263717    -0.375054361     0.256962900    -0.208096839
   28    28.440313038    25.803970869    21.585542581    -0.382973317     0.244127264    -0.209125124
   29    29.152942859    28.456783772    25.665057407    -0.357303041     0.267099431    -0.225815037
   30    27.922909589    29.370445152    22.362102681    -0.371917271     0.262061283    -0.207367856
   31    26.435278650    30.334195845    29.376493896    -0.364844332     0.269307983    -0.210622468
   32    28.562153539    20.985183082    28.605422399    -0.363252408     0.269942040    -0.212553483
   33    21.625376870    28.359509669    26.007639784    -0.366534404     0.268484476    -0.208730967
   34    31.222680841    23.344275630    28.725872258    -0.493730830    -0.038314634     0.069006204
   35    28.594970053    27.945919896    20.902084758    -0.374165748     0.257634086    -0.208865197
   36    28.108738421    22.932679772    26.236155465    -0.416541338     0.228344304    -0.156051891
   37    28.614297783    25.545559656    28.172866724    -0.366492030     0.260061975    -0.219206207
   38    26.699345972    26.462766427    24.872005470    -0.387197141     0.245691000    -0.199284486
   39    28.885852673    26.158107141    24.297531461    -0.396670670     0.232656444    -0.196273683
   40    23.652263105    29.176862888    26.844496362    -0.365084557     0.265932212    -0.214460544
   41    27.151635148    22.368767453    24.285473475    -0.415096890     0.226458005    -0.162515672
   42    21.435745428    28.810354919    23.734507525    -0.378428413     0.242746369    -0.218783309
   43    24.973556155    27.395045413    25.878898536    -0.383522101     0.247865157    -0.203650833
   44    29.913951363    24.394386801    25.162237369    -0.398817207     0.233650595    -0.190662621
   45    25.253382173    29.911094251    25.338062621    -0.371528878     0.254408415    -0.217353747
   46    28.345408584    21.589597892    22.637803966    -0.412262605     0.231585141    -0.162504977
   47    27.769872614    22.159331631    30.202568695    -0.371830281     0.255316334    -0.215767958
   48    30.974787720    23.816181498    21.123670787    -0.364039082     0.271981362    -0.208570577
   49    24.214254157    25.668340106    22.213565615     0.383947137    -0.214349559     0.237989207
   50    27.369014182    29.742426441    27.334619526    -0.358725978     0.259202518    -0.232657961
   51    30.645984285    26.176038820    21.263004411    -0.377318619     0.242042986    -0.221462982
   52    30.353436855    29.938420578    21.964183039    -0.358474935     0.256991350    -0.235480715
   53    29.622663519    24.618582197    29.887195846    -0.362291616     0.268920564    -0.215468130
   54    25.781775751    22.725291485    30.198613584    -0.359348352     0.288597302    -0.193856544
   55    24.227998897    30.393600712    23.100020118    -0.360966869     0.264576740    -0.222939607
   56    27.339140430    24.386222363    30.064072831    -0.371722083     0.257350145    -0.213526570
   57    26.228806948    26.312390067    27.693841487    -0.374045774     0.254095813    -0.213366063
   58    25.101767294    20.600521882    27.484171159    -0.363742089     0.268318826    -0.213767865
   59    26.753497335    22.079551656    28.199284871    -0.370526290     0.263266733    -0.208328815
   60    29.858803254    26.758866816    29.444906120    -0.363154202     0.263776853    -0.220319761
   61    30.023680558    22.132363150    30.348315946    -0.382743085     0.253660087    -0.197899700
   62    29.855449753    27.648273612    22.782478014    -0.379983736     0.243785411    -0.214897728
   63    23.118029057    28.181905130    29.976313972    -0.356151679     0.269891308    -0.224309303
   64    24.457988541    29.503597284    21.043132811    -0.364085343     0.255624290    -0.228250051
   65    25.584934251    24.230221200    23.890085382    -0.325218546     0.303176296    -0.228729165
   66    21.983243826    27.111968650    28.483441329    -0.352344231     0.274073205    -0.225249687
   67    28.814227293    23.140872709    28.595237433    -0.370667593     0.266295080    -0.204187330
   68    21.977268099    22.671358819    25.694605366    -0.448965238     0.200624668    -0.090443118
   21    32.871130500    26.884668877    24.761108111     0.370252701    -0.246700715     0.228148404
   22    40.203436170    22.268291332    26.801034831    -0.425527432     0.222409170    -0.139501130
   23    40.087509752    29.795617044    27.665874462    -0.365240618     0.261272168    -0.219854828
   24    35.034300325    24.683330692    28.493985883    -0.375298655     0.244278465    -0.222438646
   25    36.312959135    20.927180974    21.779001954    -0.358900666     0.263229040    -0.227817437
   26    32.872185093    21.509558857    28.316147161    -0.168287215    -0.344149965     0.321310153
   27    31.536808270    23.509817334    23.604350586    -0.374426790     0.258142598    -0.207766644
   28    38.529968987    25.948631081    21.873629450    -0.382963235     0.241844753    -0.211778837
   29    39.242598809    28.601443984    25.953144276    -0.356407040     0.267011985    -0.227329325
   30    38.012565538    29.515105364    22.650189551    -0.371286134     0.261400088    -0.209324153
   31    36.524934600    30.478856056    29.664580766    -0.363992351     0.268720185    -0.212835689
   32    38.651809489    21.129843293    28.893509268    -0.362834282     0.267173073    -0.216725247
   33    31.715032820    28.504169881    26.295726653    -0.365137206     0.268701062    -0.210889924
   34    41.312336791    23.488935842    29.013959128    -0.495741261    -0.029960900     0.057818223
   35    38.684626003    28.090580107    21.190171627    -0.373984997     0.255894332    -0.211313305
   36    38.198394371    23.077339983    26.524242335    -0.415294925     0.226836795    -0.161478152
   37    38.703953732    25.690219868    28.460953594    -0.366823232     0.256588310    -0.222717659
   38    36.789001922    26.607426639    25.160092340    -0.387210608     0.242770027    -0.202806950
   39    38.975508623    26.302767353    24.585618331    -0.396547057     0.230000869    -0.199624728
   40    33.741919055    29.321523100    27.132583231    -0.363835454     0.265339084    -0.217299178
   41    37.241291098    22.513427664    24.573560344    -0.413959069     0.225083786    -0.167257820
   42    31.525401378    28.955015130    24.022594394    -0.377154772     0.243717370    -0.219900254
   43    35.063212105    27.539705624    26.166985405    -0.383432155     0.245184318    -0.207037275
   44    40.003607313    24.539047013    25.450324239    -0.398655091     0.230767729    -0.194474609
   45    35.343038123    30.055754463    25.626149490    -0.370563624     0.253609191    -0.219920391
   46    38.435064533    21.734258104    22.925890835    -0.411258861     0.230417040    -0.166655744
   47    37.859528564    22.303991843    30.490655565    -0.372058598     0.251341843    -0.219999266
   48    41.064443670    23.960841710    21.411757656    -0.364240206     0.269065250    -0.211973970
   49    34.303910107    25.813000317    22.501652484     0.390051303    -0.194944031     0.244656506
   50    37.458670131    29.887086653    27.622706395    -0.357910721     0.258125796    -0.235097829
   51    40.735640235    26.320699032    21.551091281    -0.377222008     0.239947079    -0.223894967
   52    40.443092805    30.083080789    22.252269909    -0.358125697     0.255663035    -0.237449779
   53    39.712319469    24.763242409    30.175282715    -0.362581806     0.265448407    -0.219252313
   54    35.871431700    22.869951697    30.486700454    -0.359580260     0.284973025    -0.198726977
   55    34.317654846    30.538260924    23.388106988    -0.360098072     0.264021130    -0.224993825
   56    37.428796380    24.530882575    30.352159701    -0.371856500     0.253665396    -0.217661687
   57    36.318462898    26.457050279    27.981928357    -0.374127876     0.250607759    -0.217311031
   58    35.191423243    20.745182094    27.772258028    -0.362348802     0.266113980    -0.218830290
   59    36.843153284    22.224211868    28.487371740    -0.369710205     0.260611642    -0.213063222
   60    39.948459204    26.903527028    29.732992989    -0.363450873     0.260734820    -0.223429668
   61    40.113336508    22.277023362    30.636402816    -0.383117832     0.249630158    -0.202251108
   62    39.945105703    27.792933824    23.070564883    -0.379814691     0.241911170    -0.217301142
   63    33.207685007    28.326565342    30.264400841    -0.354668970     0.269899371    -0.226636826
   64    34.547644491    29.648257496    21.331219680    -0.363199987     0.255221333    -0.230103978
   65    35.674590200    24.374881411    24.178172251    -0.325570777     0.303661057    -0.227582143
   66    32.072899776    27.256628862    28.771528199    -0.350518631     0.274709543    -0.227313344
   67    38.903883243    23.285532921    28.883324303    -0.370766476     0.262945935    -0.208306639
   68    32.066924049    22.816019031    25.982692236    -0.444922312     0.209676776    -0.089887631
   21     2.737238121    36.475781763    23.927472926     0.369891010    -0.246409203     0.229048347
   22    10.069543792    31.859404218    25.967399646    -0.426022491     0.226921869    -0.130427386
   23     9.953617373    39.386729930    26.832239277    -0.364531776     0.262614537    -0.219431514
   24     4.900407947    34.274443578    27.660350697    -0.373791378     0.247418969    -0.221503633
   25     6.179066757    30.518293860    20.945366768    -0.358079356     0.265321978    -0.226679118
   26     2.738292714    31.100671743    27.482511976    -0.199416144    -0.310905726     0.337002717
   27     1.402915891    33.100930220    22.770715401    -0.375312457     0.251958917    -0.213675605
   28     8.396076609    35.539743967    21.039994265    -0.382060961     0.243834104    -0.211126388
   29     9.108706430    38.192556870    25.119509091    -0.355367148     0.268665779    -0.227008568
   30     7.878673160    39.106218250    21.816554366    -0.370629248     0.262741752    -0.208807884
   31     6.391042222    40.069968942    28.830945581    -0.362200821     0.270962823    -0.213048618
   32     8.517917110    30.720956179    28.059874083    -0.361851830     0.269689448    -0.215246034
   33     1.581140442    38.095282767    25.462091468    -0.364664120     0.268320749    -0.212188725
   34    11.178444413    33.080048728    28.180323943    -0.492209587    -0.030282760     0.082538940
   35     8.550733625    37.681692994    20.356536442    -0.373185135     0.257689341    -0.210544671
   36     8.064501993    32.668452869    25.690607150    -0.415449084     0.230704396    -0.155491288
   37     8.570061354    35.281332754    27.627318408    -0.365412840     0.259253071    -0.221948872
   38     6.655109544    36.198539525    24.326457155    -0.385854366     0.245505703    -0.202097397
   39     8.841616244    35.893880239    23.751983145    -0.395466809     0.232709376    -0.198626154
   40     3.608026677    38.912635986    26.298948046    -0.362861401     0.266270310    -0.217788258
   41     7.107398720    32.104540550    23.739925159    -0.414073974     0.228741500    -0.161926127
   42     1.391508999    38.546128016    23.188959209    -0.376748699     0.242629923    -0.221790752
   43     4.929319727    37.130818510    25.333350220    -0.382095846     0.247668549    -0.206550367
   44     9.869714935    34.130159899    24.616689054    -0.397463579     0.233903470    -0.193162807
   45     5.209145745    39.646867349    24.792514305    -0.369406315     0.255114520    -0.220126228
   46     8.301172155    31.325370990    22.092255650    -0.411194737     0.233785482    -0.162059363
   47     7.725636185    31.895104729    29.657020380    -0.370532483     0.254943518    -0.218425002
   48    10.930551291    33.551954596    20.578122471    -0.362967392     0.271137504    -0.211516254
   49     4.170017729    35.404113203    21.668017299     0.402840377    -0.182487468     0.233276563
   50     7.324777753    39.478199539    26.789071210    -0.356075936     0.260696238    -0.235047652
   51    10.601747857    35.911811918    20.717456095    -0.376428412     0.241904384    -0.223123103
   52    10.309200427    39.674193675    21.418634724    -0.357454290     0.257096754    -0.236912832
   53     9.578427090    34.354355295    29.341647530    -0.361007456     0.267983082    -0.218766279
   54     5.737539322    32.461064583    29.653065269    -0.358082443     0.287987062    -0.197079721
   55     4.183762468    40.129373810    22.554471803    -0.359285659     0.265107612    -0.225015043
   56     7.294904001    34.121995461    29.518524516    -0.370480807     0.256629028    -0.216530630
   57     6.184570520    36.048163165    27.148293172    -0.372623293     0.253632583    -0.216384829
   58     5.057530865    30.336294980    26.938622843    -0.361207975     0.267888369    -0.218551185
   59     6.709260906    31.815324754    27.653736555    -0.368709290     0.262891022    -0.211994741
   60     9.814566825    36.494639914    28.899357804    -0.362247725     0.262926475    -0.222814395
   61     9.979444129    31.868136248    29.802767630    -0.381633364     0.253493598    -0.200242281
   62     9.811213325    37.384046710    22.236929698    -0.379014407     0.243815833    -0.216568509
   63     3.073792628    37.917678228    29.430765656    -0.354336786     0.267881243    -0.229532311
   64     4.413752112    39.239370382    20.497584495    -0.362398891     0.256291097    -0.230178012
   65     5.540697822    33.965994297    23.344537066    -0.325721741     0.323417956    -0.198257845
   66     1.939007398    36.847741748    27.937893014    -0.350426742     0.271981111    -0.230710584
   67     8.769990864    32.876645807    28.049689118    -0.369394243     0.265895405    -0.206996442
   68     1.933031670    32.407131917    25.149057050    -0.437651510     0.226526188    -0.084540180
   21    12.826894071    36.620441975    24.215559795     0.369514224    -0.248383738     0.227518695
   22    20.159199741    32.004064430    26.255486515    -0.425606495     0.228646274    -0.128763320
   23    20.043273323    39.531390141    27.120326146    -0.369185801     0.256622938    -0.218738455
   24    14.990063897    34.419103789    27.948437567    -0.377075556     0.243837118    -0.219903354
   25    16.268722707    30.662954072    21.233453638    -0.359972047     0.263183801    -0.226173411
   26    12.827948664    31.245331955    27.770598845    -0.151359400    -0.334917588     0.338999323
   27    11.492571841    33.245590432    23.058802271    -0.372722967     0.256476680    -0.212831629
   28    18.485732559    35.684404179    21.328081135    -0.384602453     0.241246150    -0.209478515
   29    19.198362380    38.337217082    25.407595961    -0.360267322     0.262740775    -0.226218350
   30    17.968329110    39.250878462    22.104641235    -0.373690871     0.258940962    -0.208097840
   31    16.480698171    40.214629154    29.119032450    -0.366836753     0.265623021    -0.211837691
   32    18.607573060    30.865616391    28.347960953    -0.363896328     0.268144040    -0.213724674
   33    11.670796392    38.239942979    25.750178338    -0.365449493     0.268282340    -0.210882085
   34    21.268100363    33.224708940    28.468410812    -0.491714580    -0.016308955     0.089167202
   35    18.640389574    37.826353205    20.644623312    -0.375883580     0.254772214    -0.209290834
   36    18.154157943    32.813113081    25.978694019    -0.416156201     0.230261539    -0.154251871
   37    18.659717304    35.425992966    27.915405278    -0.368822257     0.255351370    -0.220829846
   38    16.744765494    36.343199737    24.614544024    -0.388738698     0.242079211    -0.200698481
   39    18.931272194    36.038540450    24.040070015    -0.398043911     0.229515395    -0.197189574
   40    13.697682626    39.057296198    26.587034916    -0.365549880     0.263742759    -0.216363218
   41    17.197054670    32.249200762    24.028012029    -0.414926888     0.227750504    -0.161137786
   42    11.481164949    38.690788228    23.477046079    -0.376481798     0.243887184    -0.220863073
   43    15.018975677    37.275478722    25.621437090    -0.384934741     0.244396528    -0.205172079
   44    19.959370885    34.274820111    24.904775923    -0.399942184     0.230858688    -0.191704241
   45    15.298801694    39.791527561    25.080601175    -0.372329292     0.251829932    -0.218980783
   46    18.390828105    31.470031201    22.380342520    -0.412282338     0.232283953    -0.161454139
   47    17.815292135    32.039764941    29.945107249    -0.372922338     0.252719925    -0.216936786
   48    21.020207241    33.696614808    20.866209341    -0.365348236     0.269746632    -0.209182745
   49    14.259673679    35.548773415    21.956104168     0.358600780    -0.260427870     0.231479599
   50    17.414433703    39.622859751    27.077158080    -0.360865243     0.255219889    -0.233750047
   51    20.691403807    36.056472129    21.005542965    -0.379007047     0.239070201    -0.221808695
   52    20.398856377    39.818853887    21.706721593    -0.360650259     0.253546107    -0.235893540
   53    19.668083040    34.499015506    29.629734400    -0.364385962     0.264074512    -0.217916321
   54    15.827195272    32.605724794    29.941152138    -0.360780328     0.285565915    -0.195677446
   55    14.273418418    40.274034022    22.842558672    -0.361661310     0.262224070    -0.224587698
   56    17.384559951    34.266655672    29.806611385    -0.373202959     0.253852625    -0.215124142
   57    16.274226469    36.192823376    27.436380041    -0.375971823     0.249914353    -0.214913946
   58    15.147186815    30.480955192    27.226709713    -0.363508959     0.266524672    -0.216392782
   59    16.798916856    31.959984966    27.941823425    -0.370822136     0.261361161    -0.210193451
   60    19.904222775    36.639300126    29.187444674    -0.365640456     0.259041690    -0.221820782
   61    20.069100079    32.012796460    30.090854500    -0.383988348     0.251219708    -0.198599110
   62    19.900869274    37.528706922    22.525016568    -0.381790258     0.240566407    -0.215323019
   63    13.163448578    38.062338439    29.718852526    -0.355201882     0.268615814    -0.227326126
   64    14.503408062    39.384030593    20.785671365    -0.364598682     0.253499204    -0.229795463
   65    15.630353772    34.110654509    23.632623936    -0.287178972     0.338307435    -0.230382981
   66    12.028663347    36.992401960    28.225979883    -0.350353049     0.273845271    -0.228607762
   67    18.859646814    33.021306019    28.337775987    -0.372107608     0.262923790    -0.205929621
   68    12.022687620    32.551792129    25.437143920    -0.443499052     0.214686569    -0.084960389
   21    22.916550021    36.765102187    24.503646665     0.372529993    -0.244155583     0.227177147
   22    30.248855691    32.148724641    26.543573385    -0.427745188     0.220970293    -0.134930294
   23    30.132929273    39.676050353    27.408413016    -0.367280538     0.258887185    -0.219277067
   24    25.079719847    34.563764001    28.236524437    -0.376141449     0.245586019    -0.219556638
   25    26.358378657    30.807614283    21.521540508    -0.359181562     0.265271870    -0.224987646
   26    22.917604614    31.389992166    28.058685715    -0.149798215    -0.323825514     0.350282073
   27    21.582227791    33.390250644    23.346889140    -0.376707781     0.251797170    -0.211398753
   28    28.575388509    35.829064391    21.616168004    -0.383236477     0.243720697    -0.209117251
   29    29.288018330    38.481877293    25.695682830    -0.358232678     0.265167261    -0.226617900
   30    28.057985060    39.395538673    22.392728105    -0.372093445     0.261252047    -0.208071708
   31    26.570354121    40.359289366    29.407119320    -0.365838070     0.267353924    -0.211386815
   32    28.697229010    31.010276603    28.636047822    -0.363098264     0.269392766    -0.213511566
   33    21.760452341    38.384603190    26.038265207    -0.367476601     0.265775130    -0.210533913
   34    31.357756312    33.369369151    28.756497682    -0.494286468    -0.043137191     0.061806715
   35    28.730045524    37.971013417    20.932710181    -0.374382347     0.257118070    -0.209112783
   36    28.243813893    32.957773293    26.266780889    -0.416858375     0.226785978    -0.157471315
   37    28.749373254    35.570653177    28.203492148    -0.367686735     0.257648205    -0.220054238
   38    26.834421443    36.487859948    24.902630894    -0.387923321     0.243586987    -0.200451682
   39    29.020928144    36.183200662    24.328156885    -0.397034062     0.231435996    -0.196980540
   40    23.787338576    39.201956410    26.875121785    -0.365927811     0.263277380    -0.216291142
   41    27.286710619    32.393860974    24.316098898    -0.415354501     0.225332088    -0.163419977
   42    21.570820899    38.835448440    23.765132948    -0.379209562     0.240428896    -0.219986486
   43    25.108631626    37.420138934    25.909523959    -0.384359723     0.245519044    -0.204909742
   44    30.049026835    34.419480322    25.192862793    -0.399140561     0.232536564    -0.191346697
   45    25.388457644    39.936187772    25.368688044    -0.372272335     0.252151953    -0.218706884
   46    28.480484055    31.614691413    22.668429389    -0.412442228     0.230856301    -0.163085182
   47    27.904948085    32.184425152    30.233194119    -0.372056874     0.254511279    -0.216327741
   48    31.109863191    33.841275019    21.154296210    -0.363985494     0.272434063    -0.208072683
   49    24.349329628    35.693433627    22.244191038     0.391671067    -0.201683918     0.236468544
   50    27.504089653    39.767519962    27.365244949    -0.359622580     0.257050781    -0.233658930
   51    30.781059756    36.201132341    21.293629834    -0.377540425     0.241465083    -0.221715676
   52    30.488512326    39.963514099    21.994808463    -0.358936906     0.255716671    -0.236163675
   53    29.757738990    34.643675718    29.917821269    -0.363347021     0.266936206    -0.216157360
   54    25.916851222    32.750385006    30.229239008    -0.359937796     0.287481406    -0.194420226
   55    24.363074368    40.418694233    23.130645542    -0.361678939     0.262588425    -0.224133138
   56    27.474215901    34.411315884    30.094698255    -0.372385331     0.255840175    -0.214184431
   57    26.363882419    36.337483588    27.724466911    -0.374954307     0.251764913    -0.214531342
   58    25.236842765    30.625615403    27.514796582    -0.362964349     0.267421608    -0.216200288
   59    26.888572806    32.104645177    28.229910294    -0.370231141     0.262369287    -0.209979188
   60    29.993878725    36.783960337    29.475531543    -0.364562023     0.261172136    -0.221096464
   61    30.158756029    32.157456671    30.378941370    -0.382990097     0.252815731    -0.198501365
   62    29.990525224    37.673367133    22.813103437    -0.380329681     0.242796538    -0.215404677
   63    23.253104528    38.206998651    30.006939395    -0.357189744     0.266578187    -0.226608818
   64    24.593064012    39.528690805    21.073758234    -0.364671833     0.253802582    -0.229344072
   65    25.720009722    34.255314721    23.920710805    -0.327219659     0.317145774    -0.205781081
   66    22.118319297    37.137062171    28.514066753    -0.352941727     0.271091715    -0.227906602
   67    28.949302764    33.165966230    28.625862857    -0.371156244     0.265031376    -0.204942460
   68    22.112343570    32.696452340    25.725230790    -0.441796082     0.219103709    -0.082521431
   21    33.006205971    36.909762398    24.791733534     0.369756143    -0.247228522     0.228382251
   22    40.338511641    32.293384853    26.831660255    -0.422007800     0.234121189    -0.130754294
   23    40.222585223    39.820710565    27.696499886    -0.366407268     0.258601530    -0.221067778
   24    35.169375796    34.708424213    28.524611306    -0.375191392     0.244181214    -0.222726186
   25    36.448034606    30.952274495    21.809627377    -0.358198822     0.265014671    -0.226849792
   26    33.007260564    31.534652378    28.346772585    -0.157165330    -0.364097108     0.304519876
   27    31.671883741    33.534910855    23.634976010    -0.374661048     0.257929922    -0.207608416
   28    38.665044458    35.973724602    21.904254874    -0.382272852     0.243339504    -0.211313399
   29    39.377674280    38.626537505    25.983769700    -0.357527211     0.264562688    -0.228431340
   30    38.147641010    39.540198885    22.680814974    -0.371180590     0.261333930    -0.209593765
   31    36.660010071    40.503949577    29.695206190    -0.365019354     0.266620103    -0.213716148
   32    38.786884960    31.154936814    28.924134692    -0.362472606     0.268361390    -0.215860543
   33    31.850108291    38.529263402    26.326352077    -0.365820786     0.267305278    -0.211478228
   34    41.447412262    33.514029363    29.044584552    -0.492561213    -0.001232828     0.085918169
   35    38.819701474    38.115673629    21.220797051    -0.373486179     0.256883398    -0.210995245
   36    38.333469842    33.102433504    26.554867758    -0.413285775     0.234129616    -0.156135169
   37    38.839029203    35.715313389    28.491579017    -0.366812301     0.255605701    -0.223862595
   38    36.924077393    36.632520160    25.190717763    -0.386786406     0.243344362    -0.202928061
   39    39.110584094    36.327860874    24.616243754    -0.395846997     0.231478350    -0.199306116
   40    33.876994526    39.346616621    27.163208655    -0.364560199     0.263950610    -0.217774968
   41    37.376366569    32.538521185    24.604185768    -0.412366846     0.231048117    -0.163004147
   42    31.660476849    38.980108651    24.053219818    -0.377636847     0.242422597    -0.220503279
   43    35.198287576    37.564799145    26.197610829    -0.383182598     0.245337454    -0.207317704
   44    40.138682784    34.564140534    25.480949662    -0.397741322     0.232817166    -0.193902058
   45    35.478113594    40.080847984    25.656774914    -0.370976540     0.252622622    -0.220359293
   46    38.570140004    31.759351625    22.956516259    -0.409883481     0.235320827    -0.163155265
   47    37.994604035    32.329085364    30.521280988    -0.371667460     0.252563320    -0.219260275
   48    41.199519141    33.985935231    21.442383080    -0.363390563     0.271184992    -0.210727309
   49    34.438985578    35.838093838    22.532277908     0.363764930    -0.250229779     0.234648958
   50    37.593745603    39.912180174    27.653331819    -0.358684653     0.256391057    -0.235815491
   51    40.870715706    36.345792553    21.581716704    -0.376684550     0.241028138    -0.223638518
   52    40.578168276    40.108174310    22.282895332    -0.357605700     0.256265671    -0.237583815
   53    39.847394940    34.788335930    30.205908139    -0.362974431     0.263408257    -0.221055768
   54    36.006507172    32.895045218    30.517325877    -0.359508950     0.285671175    -0.197851700
   55    34.452730317    40.563354445    23.418732412    -0.360352896     0.263540591    -0.225149167
   56    37.563871851    34.555976096    30.382785124    -0.371722185     0.253841818    -0.217685435
   57    36.453538369    36.482143800    28.012553781    -0.373957648     0.250479638    -0.217751299
   58    35.326498714    30.770275615    27.802883452    -0.361697167     0.267936897    -0.217680910
   59    36.978228755    32.249305389    28.517997164    -0.369161354     0.262212385    -0.212048484
   60    40.083534675    36.928620549    29.763618413    -0.363836755     0.258894384    -0.224936688
   61    40.248411979    32.302116883    30.667028239    -0.382915809     0.251014896    -0.200915418
   62    40.080181174    37.818027345    23.101190307    -0.379378294     0.242646233    -0.217243908
   63    33.342760478    38.351658863    30.295026265    -0.355907173     0.267453962    -0.227592755
   64    34.682719962    39.673351017    21.361845104    -0.363444087     0.254806075    -0.230178756
   65    35.809665671    34.399974932    24.208797675    -0.334232660     0.262055263    -0.263847624
   66    32.207975247    37.281722383    28.802153622    -0.351658264     0.272465572    -0.228252004
   67    39.038958714    33.310626442    28.913949727    -0.370536375     0.263055653    -0.208577367
   68    32.201999520    32.841112552    26.013317659    -0.445693203     0.206558699    -0.093225922
   21     2.618882879     6.432636937    33.847582017     0.370773398    -0.246668206     0.227336498
   22     9.951188550     1.816259391    35.887508737    -0.425439892     0.225854417    -0.134129342
   23     9.835262131     9.343585103    36.752348368    -0.366150101     0.261168873    -0.218460348
   24     4.782052705     4.231298751    37.580459788    -0.374805009     0.246272947    -0.221067504
   25     6.060711515     0.475149034    30.865475860    -0.356415671     0.265754162    -0.228785040
   26     2.619937472     1.057526916    37.402621067    -0.173385245    -0.362040124     0.298101502
   27     1.284560649     3.057785394    32.690824492    -0.375097592     0.255433456    -0.209894130
   28     8.277721367     5.496599141    30.960103356    -0.381046193     0.244869807    -0.211760658
   29     8.990351188     8.149412043    35.039618182    -0.356920103     0.267218304    -0.226279514
   30     7.760317918     9.063073424    31.736663457    -0.370123439     0.263347937    -0.208941388
   31     6.272686979    10.026824116    38.751054672    -0.365184237     0.268191494    -0.211456368
   32     8.399561868     0.677811353    37.979983174    -0.362030260     0.269287089    -0.215449655
   33     1.462785200     8.052137940    35.382200559    -0.366527235     0.267160024    -0.210435994
   34    11.060089171     3.036903901    38.100433034    -0.493766477    -0.032647449     0.071615711
   35     8.432378382     7.638548167    30.276645533    -0.372395622     0.258472427    -0.210982239
   36     7.946146751     2.625308043    35.610716241    -0.414748363     0.230264356    -0.157994056
   37     8.451706112     5.238187928    37.547427500    -0.366916845     0.257951731    -0.220981748
   38     6.536754302     6.155394698    34.246566246    -0.386352669     0.244937359    -0.201834847
   39     8.723261002     5.850735412    33.672092237    -0.395095863     0.233162992    -0.198832288
   40     3.489671434     8.869491160    36.219057137    -0.364875497     0.264846657    -0.216153003
   41     6.989043478     2.061395724    33.660034250    -0.413152714     0.228597598    -0.164462680
   42     1.273153757     8.502983190    33.109068300    -0.378281320     0.241298408    -0.220631641
   43     4.810964485     7.087673684    35.253459311    -0.382895326     0.246847995    -0.206051539
   44     9.751359693     4.087015073    34.536798145    -0.396949336     0.234459148    -0.193546203
   45     5.090790502     9.603722522    34.712623396    -0.371052949     0.253591717    -0.219114011
   46     8.182816913     1.282226163    32.012364741    -0.410148126     0.233861837    -0.164581761
   47     7.607280943     1.851959902    39.577129471    -0.371478012     0.253730178    -0.218231720
   48    10.812196049     3.508809770    30.498231562    -0.361320980     0.272535630    -0.212535832
   49     4.051662487     5.360968377    31.588126390     0.384355719    -0.221993356     0.230194768
   50     7.206422511     9.435054713    36.709180301    -0.358814064     0.258133195    -0.233708625
   51    10.483392615     5.868667091    30.637565186    -0.375646183     0.242679067    -0.223599678
   52    10.190845185     9.631048849    31.338743815    -0.356567008     0.258389506    -0.236843475
   53     9.460071848     4.311210468    39.261756621    -0.362843512     0.266525284    -0.217505998
   54     5.619184080     2.417919756    39.573174360    -0.359161948     0.287108459    -0.196396099
   55     4.065407226    10.086228983    32.474580894    -0.360037271     0.264102868    -0.224995198
   56     7.176548759     4.078850634    39.438633607    -0.371533129     0.255567087    -0.215982864
   57     6.066215277     6.005018338    37.068402263    -0.373694959     0.252466132    -0.215900278
   58     4.939175623     0.293150153    36.858731934    -0.361206773     0.268096312    -0.218298042
   59     6.590905664     1.772179927    37.573845646    -0.368806684     0.262731618    -0.212022938
   60     9.696211583     6.451495087    38.819466895    -0.364150222     0.261368006    -0.221543182
   61     9.861088887     1.824991422    39.722876722    -0.382792867     0.251908705    -0.200029061
   62     9.692858082     7.340901883    32.157038789    -0.378486161     0.244416911    -0.216814666
   63     2.955437386     7.874533401    39.350874747    -0.357257408     0.267368897    -0.225568210
   64     4.295396870     9.196225555    30.417693586    -0.363112939     0.255050415    -0.230430640
   65     5.422342580     3.922849471    33.264646157    -0.338004468     0.312871663    -0.194587518
   66     1.820652155     6.804596922    37.858002105    -0.353313362     0.271692875    -0.226611230
   67     8.651635622     2.833500981    37.969798209    -0.370370179     0.264859401    -0.206580318
   68     1.814676428     2.363987091    35.069166142    -0.448464399     0.196166939    -0.101971637
   21    12.708538829     6.577297148    34.135668886     0.369459681    -0.247968610     0.228059450
   22    20.040844499     1.960919603    36.175595606    -0.426943518     0.223011815    -0.134108029
   23    19.924918081     9.488245315    37.040435238    -0.367782681     0.258831665    -0.218499586
   24    14.871708655     4.375958963    37.868546658    -0.376891043     0.244339530    -0.219661866
   25    16.150367465     0.619809245    31.153562729    -0.360506380     0.261401669    -0.227385833
   26    12.709593422     1.202187128    37.690707937    -0.159960452    -0.345303081     0.324312251
   27    11.374216599     3.202445605    32.978911362    -0.371647300     0.258549209    -0.212204126
   28    18.367377317     5.641259352    31.248190226    -0.385058405     0.239735453    -0.210373328
   29    19.080007138     8.294072255    35.327705052    -0.358860775     0.264728630    -0.226136456
   30    17.849973868     9.207733635    32.024750326    -0.373847786     0.258249232    -0.208674787
   31    16.362342929    10.171484328    39.039141541    -0.365215328     0.268584014    -0.210903749
   32    18.489217818     0.822471564    38.268070044    -0.363950670     0.267708364    -0.214177827
   33    11.552441149     8.196798152    35.670287429    -0.365366838     0.268661927    -0.210541785
   34    21.149745120     3.181564113    38.388519904    -0.494420160    -0.029615644     0.068349241
   35    18.522034332     7.783208379    30.564732403    -0.376236295     0.253570591    -0.210114744
   36    18.035802701     2.769968254    35.898803110    -0.416937134     0.226703174    -0.157382011
   37    18.541362062     5.382848139    37.835514369    -0.368519210     0.256655093    -0.219822098
   38    16.626410251     6.300054910    34.534653115    -0.388555782     0.242216929    -0.200886443
   39    18.812916952     5.995395624    33.960179106    -0.398168494     0.228834340    -0.197728842
   40    13.579327384     9.014151371    36.507144007    -0.364773023     0.265073223    -0.216048208
   41    17.078699427     2.206055935    33.948121120    -0.415814661     0.224342946    -0.163610546
   42    11.362809707     8.647643401    33.397155170    -0.376312555     0.244173270    -0.220835403
   43    14.900620434     7.232333895    35.541546181    -0.384645458     0.244799947    -0.205233665
   44    19.841015643     4.231675284    34.824885014    -0.400242397     0.229767984    -0.192386844
   45    15.180446452     9.748382734    35.000710266    -0.371572825     0.253135743    -0.218759986
   46    18.272472863     1.426886375    32.300451611    -0.413185677     0.229149446    -0.163609682
   47    17.696936893     1.996620114    39.865216340    -0.373036124     0.252762466    -0.216691454
   48    20.901851999     3.653469981    30.786318432    -0.365858380     0.267998743    -0.210533417
   49    14.141318436     5.505628588    31.876213260     0.373379364    -0.235363257     0.234929751
   50    17.296078461     9.579714924    36.997267171    -0.359150608     0.258277087    -0.233031730
   51    20.573048564     6.013327303    30.925652056    -0.379203632     0.238024845    -0.222595550
   52    20.280501134     9.775709060    31.626830684    -0.360731162     0.253118540    -0.236228773
   53    19.549727798     4.455870680    39.549843491    -0.364339499     0.265472290    -0.216289604
   54    15.708840030     2.562579968    39.861261229    -0.360976048     0.285778640    -0.195004774
   55    14.155063176    10.230889195    32.762667764    -0.361231567     0.262731495    -0.224686263
   56    17.266204709     4.223510846    39.726720476    -0.373204152     0.254350334    -0.214533373
   57    16.155871227     6.149678550    37.356489133    -0.375750945     0.250496372    -0.214622447
   58    15.028831573     0.437810365    37.146818804    -0.363106042     0.266549003    -0.217038317
   59    16.680561614     1.916840139    37.861932516    -0.370745888     0.261036219    -0.210731058
   60    19.785867533     6.596155299    39.107553765    -0.365355332     0.260512084    -0.220565037
   61    19.950744837     1.969651633    40.010963591    -0.384066210     0.251156152    -0.198528924
   62    19.782514032     7.485562095    32.445125659    -0.381806868     0.240088016    -0.215826923
   63    13.045093336     8.019193613    39.638961617    -0.355785791     0.268778015    -0.226218588
   64    14.385052820     9.340885767    30.705780456    -0.364068258     0.254000787    -0.230082385
   65    15.511998530     4.067509683    33.552733027    -0.327890735     0.331043823    -0.181377103
   66    11.910308105     6.949257133    38.146088974    -0.351412813     0.273378971    -0.227536751
   67    18.741291572     2.978161192    38.257885079    -0.372172319     0.263395624    -0.205208456
   68    11.904332378     2.508647302    35.357253011    -0.443233098     0.213049935    -0.090300311
   21    22.798194779     6.721957360    34.423755756     0.372698271    -0.244554742     0.226470697
   22    30.130500449     2.105579815    36.463682476    -0.426674462     0.224429854    -0.132590137
   23    30.014574031     9.632905526    37.328522107    -0.367864329     0.258960112    -0.218209752
   24    24.961364604     4.520619174    38.156633528    -0.377187196     0.243889825    -0.219653300
   25    26.240023414     0.764469457    31.441649599    -0.359902530     0.262636538    -0.226918967
   26    22.799249372     1.346847340    37.978794806    -0.181220660    -0.338279840     0.320508692
   27    21.463872549     3.347105817    33.266998231    -0.376884389     0.252439767    -0.210314815
   28    28.457033266     5.785919564    31.536277096    -0.384166279     0.240733146    -0.210864464
   29    29.169663088     8.438732467    35.615791922    -0.359100829     0.264662248    -0.225832878
   30    27.939629818     9.352393847    32.312837196    -0.373252982     0.258980590    -0.208833105
   31    26.451998879    10.316144539    39.327228411    -0.365889794     0.267838862    -0.210682232
   32    28.578873768     0.967131776    38.556156913    -0.364154121     0.267620141    -0.213942133
   33    21.642097099     8.341458364    35.958374298    -0.367593358     0.265987288    -0.210061623
   34    31.239401070     3.326224325    38.676606773    -0.493375700    -0.028419045     0.075978789
   35    28.611690282     7.927868590    30.852819272    -0.375641664     0.254211045    -0.210404574
   36    28.125458650     2.914628466    36.186889980    -0.416735886     0.227571025    -0.156660875
   37    28.631018011     5.527508351    38.123601239    -0.368886701     0.256156148    -0.219787691
   38    26.716066201     6.444715122    34.822739985    -0.388701636     0.241890240    -0.200997886
   39    28.902572902     6.140055835    34.248265976    -0.397902378     0.228997584    -0.198075249
   40    23.668983334     9.158811583    36.795230876    -0.366193408     0.263289550    -0.215826320
   41    27.168355377     2.350716147    34.236207989    -0.415394726     0.225482618    -0.163109810
   42    21.452465657     8.792303613    33.685242040    -0.379186057     0.240500944    -0.219948244
   43    24.990276384     7.376994107    35.829633050    -0.385069951     0.244158167    -0.205202150
   44    29.930671592     4.376335496    35.112971884    -0.399919479     0.230006191    -0.192773345
   45    25.270102402     9.893042946    35.288797136    -0.372596842     0.251806019    -0.218552789
   46    28.362128812     1.571546586    32.588538481    -0.412606801     0.230449355    -0.163244365
   47    27.786592843     2.141280326    40.153303210    -0.373454786     0.252332281    -0.216471575
   48    30.991507949     3.798130193    31.074405302    -0.365076884     0.269001207    -0.210611537
   49    24.230974386     5.650288800    32.164300129     0.388702907    -0.237923491     0.205675625
   50    27.385734411     9.724375136    37.285354040    -0.359758230     0.257477798    -0.232978968
   51    30.662704514     6.157987514    31.213738926    -0.378692690     0.238540125    -0.222913561
   52    30.370157084     9.920369272    31.914917554    -0.359990078     0.253606020    -0.236835661
   53    29.639383748     4.600530891    39.837930360    -0.364638036     0.265007615    -0.216356342
   54    25.798495980     2.707240179    40.149348099    -0.361458394     0.285027219    -0.195210948
   55    24.244719125    10.375549407    33.050754633    -0.361978751     0.261721712    -0.224662255
   56    27.355860659     4.368171057    40.014807346    -0.373622003     0.253766996    -0.214496879
   57    26.245527177     6.294338761    37.644576002    -0.376043159     0.250095123    -0.214578592
   58    25.118487522     0.582470577    37.434905673    -0.363254740     0.266477356    -0.216877413
   59    26.770217563     2.061500351    38.150019386    -0.370919802     0.260916172    -0.210573626
   60    29.875523483     6.740815511    39.395640635    -0.365806455     0.259983921    -0.220440465
   61    30.040400787     2.114311845    40.299050461    -0.384525118     0.250748677    -0.198155329
   62    29.872169982     7.630222307    32.733212529    -0.381351181     0.240492615    -0.216181819
   63    23.134749286     8.163853824    39.927048486    -0.356931913     0.267614607    -0.225792009
   64    24.474708770     9.485545978    30.993867325    -0.365022528     0.252685205    -0.230019002
   65    25.601654479     4.212169894    33.840819896    -0.317770343     0.335854615    -0.190325212
   66    21.999964055     7.093917345    38.434175844    -0.352778252     0.272123850    -0.226927556
   67    28.830947522     3.122821404    38.545971948    -0.372441134     0.263098267    -0.205102178
   68    21.993988328     2.653307514    35.645339881    -0.443919039     0.211256930    -0.091139434
   21    32.887850729     6.866617572    34.711842625     0.371501319    -0.245644680     0.227256378
   22    40.220156399     2.250240026    36.751769346    -0.429891568     0.212236828    -0.141946359
   23    40.104229981     9.777565738    37.616608977    -0.367528910     0.259599103    -0.218015609
   24    35.051020554     4.665279386    38.444720397    -0.377765863     0.242259638    -0.220461380
   25    36.329679364     0.909129668    31.729736468    -0.359019344     0.261546538    -0.229561580
   26    32.888905321     1.491507551    38.266881676    -0.163836832    -0.334328891     0.333738948
   27    31.553528499     3.491766029    33.555085101    -0.376522696     0.251974839    -0.211516760
   28    38.546689216     5.930579776    31.824363965    -0.383764883     0.240261332    -0.212129693
   29    39.259319038     8.583392678    35.903878791    -0.358696472     0.265238497    -0.225799425
   30    38.029285767     9.497054058    32.600924065    -0.372717693     0.259059578    -0.209689428
   31    36.541654829    10.460804751    39.615315281    -0.366088348     0.267143546    -0.211219428
   32    38.668529717     1.111791988    38.844243783    -0.365289334     0.264290230    -0.216135090
   33    31.731753049     8.486118575    36.246461168    -0.367136223     0.266346668    -0.210405433
   34    41.329057020     3.470884536    38.964693643    -0.494195031    -0.057735706     0.049374689
   35    38.701346232     8.072528802    31.140906142    -0.374959334     0.254293354    -0.211519238
   36    38.215114600     3.059288678    36.474976850    -0.418367304     0.219787941    -0.163285210
   37    38.720673961     5.672168562    38.411688108    -0.369523516     0.255215047    -0.219812764
   38    36.805722151     6.589375333    35.110826855    -0.388799908     0.241100230    -0.201755571
   39    38.992228851     6.284716047    34.536352845    -0.397830040     0.228065131    -0.199292636
   40    33.758639284     9.303471795    37.083317746    -0.365935010     0.263265628    -0.216293268
   41    37.258011327     2.495376359    34.524294859    -0.416610924     0.218593639    -0.169269488
   42    31.542121607     8.936963825    33.973328909    -0.378794628     0.240869926    -0.220218774
   43    35.079932334     7.521654319    36.117719920    -0.385226565     0.243347202    -0.205870428
   44    40.020327542     4.520995708    35.401058754    -0.399946666     0.228647249    -0.194327301
   45    35.359758352    10.037703157    35.576884005    -0.372362459     0.251510344    -0.219291463
   46    38.451784762     1.716206798    32.876625350    -0.413598685     0.224684978    -0.168679544
   47    37.876248792     2.285940537    40.441390080    -0.375106196     0.248427706    -0.218126148
   48    41.081163898     3.942790405    31.362492171    -0.364784221     0.267666017    -0.212808307
   49    34.320630336     5.794949012    32.452386999     0.372548606    -0.240357310     0.231162064
   50    37.475390360     9.869035348    37.573440910    -0.360081423     0.256595495    -0.233452609
   51    40.752360464     6.302647726    31.501825795    -0.378076430     0.238588447    -0.223905708
   52    40.459813034    10.065029484    32.203004424    -0.359393857     0.253499502    -0.237853018
   53    39.729039697     4.745191103    40.126017230    -0.365709148     0.264082486    -0.215678602
   54    35.888151929     2.851900391    40.437434969    -0.363079967     0.281843589    -0.196817502
   55    34.334375075    10.520209618    33.338841503    -0.361475803     0.261658135    -0.225544374
   56    37.445516608     4.512831269    40.302894216    -0.374806922     0.251199783    -0.215449391
   57    36.335183127     6.438998973    37.932662872    -0.376572093     0.248755597    -0.215207137
   58    35.208143472     0.727130788    37.722992543    -0.363973698     0.263712464    -0.219040827
   59    36.859873513     2.206160562    38.438106255    -0.371803475     0.257807673    -0.212831810
   60    39.965179432     6.885475722    39.683727504    -0.366325412     0.259675042    -0.219942185
   61    40.130056736     2.258972057    40.587137330    -0.386573395     0.245901894    -0.200233037
   62    39.961825932     7.774882518    33.021299398    -0.380990889     0.240302330    -0.217027033
   63    33.224405235     8.308514036    40.215135356    -0.357390161     0.267146412    -0.225621514
   64    34.564364719     9.630206190    31.281954195    -0.364452093     0.252681983    -0.230925286
   65    35.691310429     4.356830106    34.128906766    -0.336051142     0.271097972    -0.252141864
   66    32.089620005     7.238577557    38.722262713    -0.353179772     0.271703018    -0.226807228
   67    38.920603471     3.267481616    38.834058818    -0.373831085     0.260476817    -0.205917818
   68    32.083644278     2.797967725    35.933426750    -0.443658852     0.212972228    -0.088372240
   21     2.753958350    16.457730458    33.878207440     0.369650428    -0.246337734     0.229513141
   22    10.086264021    11.841352912    35.918134160    -0.425814370     0.228410190    -0.128494773
   23     9.970337602    19.368678624    36.782973792    -0.367005464     0.260456944    -0.217874206
   24     4.917128176    14.256392272    37.611085212    -0.376370138     0.245059123    -0.219753375
   25     6.195786986    10.500242555    30.896101283    -0.357535037     0.265847822    -0.226922085
   26     2.755012943    11.082620437    37.433246491    -0.159302161    -0.334525719     0.335731090
   27     1.419636120    13.082878915    32.721449916    -0.375223649     0.250523847    -0.215511057
   28     8.412796838    15.521692662    30.990728780    -0.383227062     0.242908191    -0.210077676
   29     9.125426659    18.174505564    35.070243606    -0.358203781     0.266238141    -0.225404755
   30     7.895393389    19.088166945    31.767288880    -0.372081927     0.261045984    -0.208350748
   31     6.407762451    20.051917637    38.781680095    -0.365151464     0.269127237    -0.210321036
   32     8.534637339    10.702904874    38.010608598    -0.363385308     0.268478142    -0.214174240
   33     1.597860671    18.077231461    35.412825983    -0.366173936     0.266586348    -0.211774333
   34    11.195164642    13.061997422    38.131058457    -0.492337692    -0.026919537     0.082939351
   35     8.567453853    17.663641688    30.307270957    -0.374440663     0.256653200    -0.209578922
   36     8.081222222    12.650401564    35.641341664    -0.415480991     0.232033914    -0.153413849
   37     8.586781583    15.263281449    37.578052923    -0.368289557     0.256822170    -0.220011761
   38     6.671829773    16.180488219    34.277191669    -0.387843375     0.243458163    -0.200762645
   39     8.858336473    15.875828933    33.702717660    -0.396768545     0.231752083    -0.197143840
   40     3.624746905    18.894584681    36.249682561    -0.364915248     0.264300990    -0.216752966
   41     7.124118949    12.086489245    33.690659674    -0.413695948     0.230922498    -0.159782550
   42     1.408229228    18.528076711    33.139693724    -0.377726413     0.240709277    -0.222220163
   43     4.946039956    17.112767205    35.284084735    -0.384121632     0.245642824    -0.205207639
   44     9.886435164    14.112108594    34.567423568    -0.398457159     0.233532399    -0.191558115
   45     5.225865974    19.628816043    34.743248820    -0.371542798     0.253176615    -0.218763687
   46     8.317892384    11.307319684    32.042990165    -0.410753420     0.235679504    -0.160426927
   47     7.742356414    11.877053423    39.607754894    -0.372867992     0.252428877    -0.217368633
   48    10.947271520    13.533903291    30.528856986    -0.363269864     0.271556113    -0.210457320
   49     4.186737958    15.386061898    31.618751814     0.333333041    -0.266358053     0.260657766
   50     7.341497982    19.460148234    36.739805725    -0.358924138     0.259007486    -0.232569528
   51    10.618468086    15.893760612    30.668190610    -0.377671010     0.241090645    -0.221900674
   52    10.325920656    19.656142370    31.369369238    -0.358851381     0.255872302    -0.236125076
   53     9.595147319    14.336303989    39.292382045    -0.364186573     0.265130983    -0.216964748
   54     5.754259551    12.443013277    39.603799783    -0.361009127     0.285277591    -0.195676025
   55     4.200482697    20.111322504    32.505206318    -0.360905976     0.263069837    -0.224813561
   56     7.311624230    14.103944155    39.469259030    -0.373062986     0.254117131    -0.215054627
   57     6.201290749    16.030111859    37.099027686    -0.375235142     0.251233928    -0.214662764
   58     5.074251094    10.318243674    36.889357358    -0.362838105     0.266897096    -0.217058632
   59     6.725981135    11.797273448    37.604471070    -0.370363759     0.261693518    -0.210587722
   60     9.831287054    16.476588608    38.850092319    -0.365344111     0.260518329    -0.220576248
   61     9.996164358    11.850084943    39.753502145    -0.384102002     0.250521970    -0.199259615
   62     9.827933554    17.365995404    32.187664213    -0.380420091     0.242830269    -0.215206911
   63     3.090512857    17.899626922    39.381500171    -0.356725418     0.266956896    -0.226894230
   64     4.430472341    19.221319076    30.448319010    -0.363888562     0.254060205    -0.230300949
   65     5.557418051    13.947942992    33.295271581    -0.153346026     0.470350688    -0.072492941
   66     1.955727626    16.829690443    37.888627528    -0.352459892     0.271452606    -0.228222496
   67     8.786711093    12.858594502    38.000423632    -0.371725636     0.263808090    -0.205488060
   68     1.949751899    12.389080612    35.099791565    -0.443951487     0.216089583    -0.078818588
   21    12.843614300    16.602390669    34.166294310     0.370775551    -0.247828853     0.226067138
   22    20.175919970    11.986013124    36.206221030    -0.429006516     0.218073478    -0.135636896
   23    20.059993552    19.513338836    37.071060661    -0.367719926     0.260239025    -0.216927881
   24    15.006784126    14.401052484    37.899172082    -0.376744660     0.246040140    -0.218008511
   25    16.285442936    10.644902766    31.184188153    -0.360646466     0.261737155    -0.226776957
   26    12.844668893    11.227280649    37.721333360    -0.174325566    -0.335270950     0.327420200
   27    11.509292070    13.227539126    33.009536785    -0.373629912     0.256453123    -0.211264017
   28    18.502452788    15.666352873    31.278815650    -0.385287794     0.241322315    -0.208127018
   29    19.215082609    18.319165776    35.358330476    -0.359176855     0.265739530    -0.224442618
   30    17.985049339    19.232827156    32.055375750    -0.373915875     0.259946867    -0.206432907
   31    16.497418400    20.196577849    39.069766965    -0.365992711     0.268926563    -0.209112026
   32    18.624293289    10.847565085    38.298695467    -0.363886531     0.268445452    -0.213362678
   33    11.687516620    18.221891673    35.700912852    -0.366708039     0.268187958    -0.208807168
   34    21.284820591    13.206657634    38.419145327    -0.493916758    -0.049496531     0.059969404
   35    18.657109803    17.808301900    30.595357826    -0.376343043     0.255228840    -0.207904192
   36    18.170878172    12.795061775    35.929428534    -0.418068834     0.224315460    -0.157800585
   37    18.676437533    15.407941660    37.866139793    -0.367863462     0.258956714    -0.218215246
   38    16.761485722    16.325148431    34.565278539    -0.388899271     0.243604882    -0.198529640
   39    18.947992423    16.020489145    33.990804530    -0.398419541     0.230464036    -0.195315636
   40    13.714402855    19.039244892    36.537769430    -0.365906550     0.265040540    -0.214163275
   41    17.213774899    12.231149456    33.978746543    -0.416668229     0.222504533    -0.163949137
   42    11.497885178    18.672736922    33.427780593    -0.378109624     0.242958387    -0.219098914
   43    15.035695905    17.257427416    35.572171604    -0.385107851     0.245933428    -0.202999241
   44    19.976091114    14.256768805    34.855510438    -0.400533521     0.231417997    -0.189785692
   45    15.315521923    19.773476255    35.031335690    -0.372631258     0.253333664    -0.216721019
   46    18.407548334    11.451979896    32.331077034    -0.413934415     0.227831845    -0.163557177
   47    17.832012364    12.021713635    39.895841764    -0.372833459     0.253485164    -0.216195476
   48    21.036927470    13.678563502    30.816943855    -0.366419735     0.269062766    -0.208186949
   49    14.276393908    15.530722109    31.906838683     0.367161135    -0.236460415     0.243473146
   50    17.431153932    19.604808445    37.027892594    -0.359928024     0.258764685    -0.231284792
   51    20.708124035    16.038420824    30.956277480    -0.379437371     0.239746684    -0.220337942
   52    20.415576605    19.800802581    31.657456108    -0.360772544     0.254762726    -0.234390965
   53    19.684803269    14.480964201    39.580468914    -0.363635918     0.267854815    -0.214529059
   54    15.843915501    12.587673489    39.891886653    -0.360105575     0.287156061    -0.194590267
   55    14.290138647    20.255982716    32.793293187    -0.362218311     0.263166360    -0.222578889
   56    17.401280180    14.248604367    39.757345900    -0.372707843     0.255908313    -0.213541095
   57    16.290946698    16.174772071    37.387114556    -0.375554543     0.252357310    -0.212778225
   58    15.163907044    10.462903886    37.177444227    -0.362837727     0.267268582    -0.216601681
   59    16.815637085    11.941933660    37.892557939    -0.370600621     0.261799236    -0.210038900
   60    19.920943004    16.621248820    39.138179189    -0.364548895     0.262970569    -0.218976216
   61    20.085820308    11.994745154    40.041589015    -0.383928941     0.251536111    -0.198313270
   62    19.917589503    17.510655616    32.475751082    -0.381927895     0.241834198    -0.213652296
   63    13.180168807    18.044287134    39.669587040    -0.357021061     0.268387588    -0.224731095
   64    14.520128291    19.365979288    30.736405879    -0.365220676     0.254231568    -0.227991596
   65    15.647074001    14.092603204    33.583358450    -0.305891075     0.295720697    -0.262640286
   66    12.045383576    16.974350654    38.176714398    -0.352773885     0.272730292    -0.226205158
   67    18.876367043    13.003254713    38.288510502    -0.371776988     0.264915057    -0.203965399
   68    12.039407849    12.533740823    35.387878435    -0.443048911     0.216335210    -0.083106794
   21    22.933270250    16.747050881    34.454381179     0.371332524    -0.247468369     0.225547252
   22    30.265575920    12.130673336    36.494307900    -0.427605105     0.223215494    -0.131638586
   23    30.149649502    19.657999047    37.359147531    -0.365518876     0.261868229    -0.218680090
   24    25.096440076    14.545712695    38.187258951    -0.376477764     0.245363738    -0.219228486
   25    26.375098886    10.789562978    31.472275022    -0.360218575     0.262222614    -0.226896185
   26    22.934324843    11.371940861    38.009420230    -0.162856514    -0.357622645     0.309166297
   27    21.598948020    13.372199338    33.297623655    -0.376500506     0.257077594    -0.205325303
   28    28.592108738    15.811013085    31.566902519    -0.383356650     0.243143147    -0.209568817
   29    29.304738559    18.463825988    35.646417345    -0.356527559     0.268053611    -0.225910073
   30    28.074705289    19.377487368    32.343462619    -0.371828229     0.261944243    -0.207675184
   31    26.587074350    20.341238060    39.357853835    -0.363967416     0.270390118    -0.210753183
   32    28.713949239    10.992225297    38.586782337    -0.364341197     0.267706938    -0.213514607
   33    21.777172570    18.366551885    35.988999722    -0.366547304     0.268556478    -0.208615657
   34    31.374476541    13.351317846    38.707232197    -0.493196943    -0.034100743     0.074792476
   35    28.746765753    17.952962111    30.883444696    -0.374419532     0.256808943    -0.209425837
   36    28.260534121    12.939721987    36.217515403    -0.417146690     0.227254990    -0.156025024
   37    28.766093482    15.552601872    38.154226662    -0.367956885     0.257352217    -0.219949010
   38    26.851141672    16.469808643    34.853365409    -0.387859259     0.244061409    -0.199998059
   39    29.037648373    16.165149356    34.278891399    -0.396996741     0.231387287    -0.197112940
   40    23.804058805    19.183905104    36.825856300    -0.364794007     0.266065461    -0.214789439
   41    27.303430848    12.375809668    34.266833413    -0.415778456     0.225034162    -0.162751042
   42    21.587541128    18.817397134    33.715867463    -0.378952274     0.242455967    -0.218197796
   43    25.125351855    17.402087628    35.860258474    -0.384110830     0.246451115    -0.204256500
   44    30.065747063    14.401429017    35.143597308    -0.399024700     0.232440825    -0.191704334
   45    25.405177873    19.918136467    35.319422559    -0.371335017     0.254520976    -0.217553161
   46    28.497204284    11.596640107    32.619163904    -0.412872200     0.230216640    -0.162901335
   47    27.921668314    12.166373847    40.183928634    -0.373424897     0.252358070    -0.216493073
   48    31.126583420    13.823223714    31.105030725    -0.364679073     0.270965491    -0.208774701
   49    24.366049857    15.675382321    32.194925553     0.362819484    -0.250321181     0.236011289
   50    27.520809882    19.749468657    37.315979464    -0.357771226     0.260372148    -0.232822022
   51    30.797779985    16.183081035    31.244364349    -0.377535408     0.241106468    -0.222114129
   52    30.505232555    19.945462793    31.945542978    -0.358370251     0.256664827    -0.235995613
   53    29.774459219    14.625624412    39.868555784    -0.363880334     0.265970866    -0.216449997
   54    25.933571451    12.732333700    40.179973523    -0.360736346     0.285996590    -0.195128777
   55    24.379794596    20.400642928    33.081380057    -0.361173124     0.264399555    -0.222815730
   56    27.490936130    14.393264578    40.045432770    -0.373223014     0.254461258    -0.214368957
   57    26.380602648    16.319432282    37.675201426    -0.375175201     0.251766027    -0.214143495
   58    25.253562993    10.607564098    37.465531097    -0.363815376     0.266467708    -0.215947524
   59    26.905293034    12.086593872    38.180644809    -0.371125390     0.261143987    -0.209927995
   60    30.010598954    16.765909032    39.426266058    -0.364609189     0.261321009    -0.220842634
   61    30.175476258    12.139405366    40.329675884    -0.384547137     0.250540681    -0.198375569
   62    30.007245453    17.655315828    32.763837952    -0.380129355     0.242956005    -0.215578415
   63    23.269824757    18.188947345    39.957673910    -0.355695738     0.270312038    -0.224526043
   64    24.609784241    19.510639499    31.024492749    -0.364501643     0.255219957    -0.228037991
   65    25.736729950    14.237263415    33.871445320    -0.330720660     0.290498386    -0.237138215
   66    22.135039526    17.119010866    38.464801267    -0.351696263     0.274705329    -0.225492175
   67    28.966022993    13.147914925    38.576597372    -0.372124358     0.263597832    -0.205035717
   68    22.129063799    12.678401035    35.675965304    -0.447137827     0.202866024    -0.094409430
   21    33.022926200    16.891711093    34.742468049     0.370425915    -0.246112157     0.228502621
   22    40.355231870    12.275333547    36.782394769    -0.427282519     0.226678866    -0.126674151
   23    40.239305452    19.802659259    37.647234400    -0.366792168     0.257559616    -0.221645098
   24    35.186096025    14.690372907    38.475345821    -0.376752227     0.243223643    -0.221133486
   25    36.464754835    10.934223190    31.760361892    -0.359497056     0.262471056    -0.227751646
   26    33.023980792    11.516601072    38.297507099    -0.174216673    -0.341603820     0.320866609
   27    31.688603970    13.516859550    33.585710525    -0.374373621     0.256426013    -0.209976407
   28    38.681764687    15.955673297    31.854989389    -0.383588961     0.240276417    -0.212430584
   29    39.394394509    18.608486199    35.934504215    -0.357823394     0.263399708    -0.229309861
   30    38.164361238    19.522147580    32.631549489    -0.372165274     0.258684839    -0.211128309
   31    36.676730300    20.485898272    39.645940704    -0.364788410     0.267241001    -0.213334628
   32    38.803605188    11.136885509    38.874869207    -0.364370085     0.267326778    -0.213941196
   33    31.866828520    18.511212096    36.277086591    -0.365677005     0.267646583    -0.211295136
   34    41.464132491    13.495978057    38.995319066    -0.490258280    -0.025029748     0.094975421
   35    38.836421703    18.097622323    31.171531566    -0.374724861     0.254062362    -0.212211203
   36    38.350190071    13.084382199    36.505602273    -0.417188221     0.228616487    -0.153910658
   37    38.855749432    15.697262083    38.442313532    -0.368425658     0.255437355    -0.221391718
   38    36.940797622    16.614468854    35.141452278    -0.388045303     0.241679089    -0.202514346
   39    39.127304322    16.309809568    34.566978269    -0.397292669     0.228777201    -0.199548307
   40    33.893714755    19.328565316    37.113943170    -0.364683105     0.263910800    -0.217617377
   41    37.393086798    12.520469880    34.554920282    -0.415685227     0.226117291    -0.161483010
   42    31.677197078    18.962057346    34.003954333    -0.377320885     0.242973611    -0.220437688
   43    35.215007805    17.546747840    36.148345344    -0.384250324     0.244046872    -0.206864239
   44    40.155403013    14.546089229    35.431684177    -0.399388637     0.229913879    -0.193980218
   45    35.494833823    20.062796678    35.607509429    -0.371363903     0.252091735    -0.220314794
   46    38.586860233    11.741300319    32.907250774    -0.412813494     0.230867626    -0.162126982
   47    38.011324263    12.311034058    40.472015503    -0.373541400     0.252214970    -0.216458846
   48    41.216239369    13.967883926    31.393117595    -0.365026395     0.268276705    -0.211620747
   49    34.455705807    15.820042533    32.483012422     0.392700667    -0.188950661     0.245120040
   50    37.610465831    19.894128869    37.604066334    -0.358657286     0.256921243    -0.235279463
   51    40.887435935    16.327741247    31.532451219    -0.377825497     0.238377252    -0.224553290
   52    40.594888505    20.090123005    32.233629847    -0.358778056     0.253352775    -0.238936557
   53    39.864115169    14.770284624    40.156642654    -0.364306109     0.264092861    -0.218027566
   54    36.023227400    12.876993912    40.468060392    -0.361233846     0.284837385    -0.195902457
   55    34.469450546    20.545303139    33.369466926    -0.360749220     0.262203182    -0.226074085
   56    37.580592079    14.537924790    40.333519639    -0.373560565     0.253176870    -0.215299737
   57    36.470258598    16.464092494    37.963288295    -0.375443447     0.249566005    -0.216238358
   58    35.343218943    10.752224309    37.753617967    -0.363666781     0.265852141    -0.216954169
   59    36.994948984    12.231254083    38.468731679    -0.371176436     0.260479310    -0.210662247
   60    40.100254903    16.910569243    39.714352928    -0.364976822     0.258839032    -0.223146309
   61    40.265132207    12.284065578    40.617762754    -0.384837069     0.250597232    -0.197740885
   62    40.096901403    17.799976039    33.051924822    -0.380580432     0.240161856    -0.217900935
   63    33.359480706    18.333607557    40.245760779    -0.355732762     0.268120686    -0.227080382
   64    34.699440191    19.655299711    31.312579619    -0.363839447     0.253292358    -0.231222487
   65    35.826385900    14.381923627    34.159532189    -0.320492938     0.252806609    -0.288743995
   66    32.224695476    17.263671078    38.752888137    -0.351726110     0.272724342    -0.227838050
   67    39.055678942    13.292575137    38.864684241    -0.372401915     0.262511067    -0.205924146
   68    32.218719749    12.823061247    35.964052174    -0.445041295     0.210418610    -0.087534303
   21     2.889033821    26.482823979    33.908832864     0.369130177    -0.247150434     0.229476742
   22    10.221339492    21.866446433    35.948759584    -0.426585166     0.224213203    -0.133242394
   23    10.105413073    29.393772145    36.813599215    -0.365398266     0.261340146    -0.219511812
   24     5.052203647    24.281485793    37.641710636    -0.375643104     0.246010401    -0.219934401
   25     6.330862457    20.525336076    30.926726707    -0.359014691     0.263917344    -0.226839343
   26     2.890088414    21.107713958    37.463871914    -0.164933872    -0.387937107     0.268889604
   27     1.554711591    23.107972436    32.752075339    -0.372125142     0.258856783    -0.210988258
   28     8.547872309    25.546786183    31.021354203    -0.383135706     0.242624035    -0.210572098
   29     9.260502130    28.199599085    35.100869030    -0.356429339     0.267310862    -0.226942790
   30     8.030468860    29.113260466    31.797914304    -0.371132609     0.261644962    -0.209290469
   31     6.542837922    30.077011158    38.812305519    -0.363511076     0.269246469    -0.212993044
   32     8.669712810    20.727998395    38.041234021    -0.363510466     0.269086296    -0.213196404
   33     1.732936142    28.102324982    35.443451406    -0.364642766     0.268270964    -0.212288349
   34    11.330240113    23.087090943    38.161683881    -0.493833113    -0.033315329     0.070844517
   35     8.702529324    27.688735209    30.337896380    -0.374169129     0.256452193    -0.210308668
   36     8.216297693    22.675495085    35.671967088    -0.416237648     0.228313041    -0.156905625
   37     8.721857054    25.288374970    37.608678347    -0.367318778     0.258186392    -0.220037957
   38     6.806905244    26.205581740    34.307817093    -0.387193333     0.243919900    -0.201455715
   39     8.993411944    25.900922454    33.733343084    -0.396687303     0.231122880    -0.198043930
   40     3.759822376    28.919678202    36.280307984    -0.363429413     0.265671931    -0.217571797
   41     7.259194420    22.111582766    33.721285097    -0.414887917     0.226331471    -0.163224023
   42     1.543304699    28.553170232    33.170319147    -0.376442618     0.242449420    -0.222506706
   43     5.081115427    27.137860726    35.314710158    -0.383286638     0.246281007    -0.206002473
   44    10.021510635    24.137202115    34.598048992    -0.398813652     0.232106106    -0.192547205
   45     5.360941445    29.653909564    34.773874244    -0.370068875     0.254050504    -0.220243885
   46     8.452967855    21.332413205    32.073615588    -0.412075004     0.231448956    -0.163173442
   47     7.877431885    21.902146944    39.638380318    -0.372620290     0.253541102    -0.216497180
   48    11.082346991    23.558996812    30.559482409    -0.364372455     0.270378016    -0.210067709
   49     4.321813429    25.411155419    31.649377237     0.373965352    -0.235383779     0.233975196
   50     7.476573453    29.485241755    36.770431148    -0.357254076     0.259000187    -0.235134916
   51    10.753543557    25.918854133    30.698816034    -0.377453738     0.240657841    -0.222738589
   52    10.460996127    29.681235891    31.399994662    -0.357913513     0.256151502    -0.237243177
   53     9.730222790    24.361397510    39.323007468    -0.363138591     0.266984417    -0.216447880
   54     5.889335022    22.468106798    39.634425207    -0.360521311     0.286419630    -0.194905566
   55     4.335558168    30.136416025    32.535831741    -0.359473658     0.264012419    -0.226000292
   56     7.446699701    24.129037676    39.499884454    -0.372503350     0.255512046    -0.214370820
   57     6.336366220    26.055205380    37.129653110    -0.374422395     0.252162948    -0.214992367
   58     5.209326565    20.343337195    36.919982781    -0.362814948     0.268533419    -0.215070026
   59     6.861056606    21.822366969    37.635096493    -0.370338962     0.262630819    -0.209461467
   60     9.966362525    26.501682129    38.880717742    -0.364124091     0.261953917    -0.220893167
   61    10.131239829    21.875178464    39.784127569    -0.383666933     0.251857703    -0.198412151
   62     9.963009025    27.391088925    32.218289636    -0.379948940     0.242654180    -0.216235408
   63     3.225588328    27.924720443    39.412125594    -0.354412313     0.269281075    -0.227770971
   64     4.565547812    29.246412597    30.478944433    -0.362560558     0.254985916    -0.231369886
   65     5.692493522    23.973036513    33.325897004    -0.328456385     0.316333733    -0.205059436
   66     2.090803098    26.854783964    37.919252952    -0.350503707     0.273379390    -0.228934183
   67     8.921786564    22.883688023    38.031049056    -0.371327685     0.264718952    -0.205035672
   68     2.084827370    22.414174133    35.130416989    -0.448390774     0.196176327    -0.102276891
   21    12.978689771    26.627484190    34.196919733     0.369744001    -0.248345628     0.227186757
   22    20.310995441    22.011106645    36.236846454    -0.427385412     0.222782289    -0.133078027
   23    20.195069023    29.538432357    37.101686085    -0.366443917     0.260715741    -0.218508943
   24    15.141859597    24.426146005    37.929797505    -0.377201912     0.245379359    -0.217962584
   25    16.420518407    20.669996287    31.214813576    -0.360872712     0.263338173    -0.224552649
   26    12.979744364    21.252374170    37.751958784    -0.153431714    -0.351079045     0.321251013
   27    11.644367541    23.252632647    33.040162209    -0.374949668     0.255214280    -0.210424375
   28    18.637528259    25.691446394    31.309441073    -0.384399007     0.242808144    -0.208042324
   29    19.350158080    28.344259297    35.388955899    -0.357769114     0.266488899    -0.225798423
   30    18.120124810    29.257920677    32.086001173    -0.372716920     0.260991508    -0.207281283
   31    16.632493871    30.221671370    39.100392389    -0.365803401     0.267647031    -0.211075670
   32    18.759368760    20.872658606    38.329320891    -0.364375582     0.268929514    -0.211913547
   33    11.822592091    28.246985194    35.731538276    -0.365990470     0.268049188    -0.210239407
   34    21.419896063    23.231751155    38.449770751    -0.494887819    -0.029241694     0.065045910
   35    18.792185274    27.833395421    30.625983250    -0.375439673     0.256475380    -0.208003440
   36    18.305953643    22.820155296    35.960053957    -0.417225383     0.227444025    -0.155538404
   37    18.811513004    25.433035181    37.896765216    -0.368671118     0.257658108    -0.218389345
   38    16.896561194    26.350241952    34.595903963    -0.388594089     0.243446862    -0.199319492
   39    19.083067894    26.045582666    34.021429953    -0.397937244     0.230999531    -0.195665956
   40    13.849478326    29.064338413    36.568394854    -0.365350037     0.264691400    -0.215540747
   41    17.348850370    22.256242977    34.009371967    -0.416104355     0.225509384    -0.161253475
   42    11.632960649    28.697830443    33.458406017    -0.377221487     0.243135710    -0.220429072
   43    15.170771376    27.282520937    35.602797028    -0.384768317     0.245730995    -0.203886292
   44    20.111166585    24.281862326    34.886135862    -0.400037045     0.232107353    -0.189990893
   45    15.450597394    29.798569776    35.061961113    -0.372095733     0.252871596    -0.218175897
   46    18.542623805    21.477073417    32.361702458    -0.413371735     0.230580010    -0.161110731
   47    17.967087835    22.046807156    39.926467187    -0.373264077     0.254212498    -0.214592485
   48    21.172002941    23.703657023    30.847569279    -0.365549025     0.271079598    -0.207098436
   49    14.411469379    25.555815631    31.937464107     0.368864586    -0.247294309     0.229748649
   50    17.566229403    29.629901966    37.058518018    -0.359874718     0.257288782    -0.233007875
   51    20.843199506    26.063514345    30.986902903    -0.378710043     0.240773534    -0.220469519
   52    20.550652076    29.825896102    31.688081532    -0.359897978     0.255528421    -0.234901408
   53    19.819878740    24.506057722    39.611094338    -0.364518011     0.266607408    -0.214585903
   54    15.978990972    22.612767010    39.922512077    -0.361059320     0.286914688    -0.193173832
   55    14.425214118    30.281076237    32.823918611    -0.361486648     0.262948359    -0.224021346
   56    17.536355651    24.273697888    39.787971324    -0.373513000     0.255543304    -0.212569186
   57    16.426022169    26.199865592    37.417739980    -0.376020068     0.251491402    -0.212981180
   58    15.298982515    20.487997407    37.208069651    -0.363949381     0.267495084    -0.214446329
   59    16.950712556    21.967027181    37.923183363    -0.371378884     0.262032343    -0.208366926
   60    20.056018475    26.646342341    39.168804612    -0.365389948     0.261546060    -0.219280286
   61    20.220895779    22.019838675    40.072214438    -0.384106404     0.252747598    -0.196420270
   62    20.052664974    27.535749137    32.506376506    -0.381157369     0.242670179    -0.214079995
   63    13.315244278    28.069380655    39.700212464    -0.356360060     0.268396023    -0.225767762
   64    14.655203762    29.391072809    30.767031303    -0.364492063     0.254045554    -0.229360834
   65    15.782149472    24.117696725    33.613983874    -0.259457916     0.408604356    -0.125395655
   66    12.180459047    26.999444175    38.207339821    -0.351891917     0.273209365    -0.226999386
   67    19.011442514    23.028348234    38.319135926    -0.372344719     0.264690565    -0.203219869
   68    12.174483320    22.558834344    35.418503858    -0.443988476     0.211659031    -0.089859266
   21    23.068345721    26.772144402    34.485006603     0.371113992    -0.247423034     0.225956296
   22    30.400651391    22.155766857    36.524933323    -0.425005669     0.226994923    -0.133579512
   23    30.284724973    29.683092568    37.389772954    -0.364910247     0.262594446    -0.218825658
   24    25.231515547    24.570806216    38.217884375    -0.374998465     0.247475613    -0.219390000
   25    26.510174357    20.814656499    31.502900446    -0.359004806     0.265380182    -0.225141974
   26    23.069400314    21.397034382    38.040045653    -0.210104441    -0.322808295     0.318827428
   27    21.734023491    23.397292859    33.328249078    -0.376487863     0.256190569    -0.206454067
   28    28.727184209    25.836106606    31.597527943    -0.382076694     0.245087443    -0.209641468
   29    29.439814030    28.488919509    35.677042769    -0.355813829     0.268777343    -0.226175285
   30    28.209780760    29.402580889    32.374088043    -0.370832242     0.263184731    -0.207887579
   31    26.722149821    30.366331581    39.388479258    -0.363426043     0.270658677    -0.211341884
   32    28.849024710    21.017318818    38.617407761    -0.362230292     0.270488468    -0.213600572
   33    21.912248041    28.391645406    36.019625145    -0.365833726     0.269059238    -0.209219529
   34    31.509552012    23.376411367    38.737857620    -0.494454988    -0.031234766     0.067369537
   35    28.881841224    27.978055632    30.914070120    -0.373104431     0.258681282    -0.209468561
   36    28.395609592    22.964815508    36.248140827    -0.414872483     0.230926665    -0.156696197
   37    28.901168954    25.577695393    38.184852086    -0.366538783     0.259540908    -0.219744938
   38    26.986217143    26.494902164    34.883990832    -0.386510513     0.246072398    -0.200144942
   39    29.172723844    26.190242877    34.309516823    -0.395763195     0.233436196    -0.197177675
   40    23.939134276    29.208998625    36.856481724    -0.363995919     0.266754664    -0.215287993
   41    27.438506319    22.400903189    34.297458836    -0.413596314     0.228895617    -0.162926014
   42    21.722616599    28.842490655    33.746492887    -0.378134953     0.243201725    -0.218785005
   43    25.260427326    27.427181149    35.890883898    -0.382866354     0.248207114    -0.204466584
   44    30.200822534    24.426522538    35.174222731    -0.397836487     0.234460302    -0.191714622
   45    25.540253344    29.943229988    35.350047983    -0.370422159     0.255430405    -0.218042961
   46    28.632279755    21.621733629    32.649789328    -0.410807189     0.233989906    -0.162745743
   47    28.056743785    22.191467368    40.214554057    -0.371508489     0.255141899    -0.216527259
   48    31.261658891    23.848317235    31.135656149    -0.362914440     0.273094673    -0.209075128
   49    24.501125328    25.700475842    32.225550976     0.382457055    -0.220398979     0.234842269
   50    27.655885353    29.774562178    37.346604888    -0.357310684     0.260476148    -0.233412192
   51    30.932855456    26.208174556    31.274989773    -0.376318450     0.243021287    -0.222092499
   52    30.640308026    29.970556314    31.976168401    -0.357758294     0.257504351    -0.236009560
   53    29.909534690    24.650717933    39.899181208    -0.362352728     0.268356493    -0.216067798
   54    26.068646922    22.757427221    40.210598946    -0.359123983     0.288108948    -0.194995382
   55    24.514870068    30.425736449    33.112005480    -0.360272811     0.265187294    -0.223336519
   56    27.626011601    24.418358099    40.076058193    -0.371426169     0.256991128    -0.214471819
   57    26.515678119    26.344525803    37.705826849    -0.373690868     0.253856921    -0.214270386
   58    25.388638464    20.632657619    37.496156521    -0.361731857     0.269072066    -0.216218147
   59    27.040368505    22.111687393    38.211270233    -0.369194855     0.263790816    -0.210022771
   60    30.145674425    26.791002553    39.456891482    -0.363341220     0.263232312    -0.220662429
   61    30.310551729    22.164498887    40.360301308    -0.382678017     0.253340076    -0.198434728
   62    30.142320924    27.680409349    32.794463376    -0.378968290     0.244760245    -0.215581673
   63    23.404900228    28.214040866    39.988299333    -0.355942765     0.269683435    -0.224890180
   64    24.744859712    29.535733020    31.055118173    -0.363565453     0.256154284    -0.228484451
   65    25.871805421    24.262356936    33.902070743    -0.339499566     0.288784997    -0.226590535
   66    22.270114997    27.144104387    38.495426691    -0.352076402     0.273869944    -0.225914720
   67    29.101098464    23.173008446    38.607222795    -0.370203546     0.266374897    -0.204923764
   68    22.264139270    22.703494556    35.706590728    -0.444439028     0.210158379    -0.091144971
   21    33.158001671    26.916804614    34.773093473     0.369363946    -0.247960325     0.228223471
   22    40.490307341    22.300427068    36.813020193    -0.429336705     0.213402010    -0.141878736
   23    40.374380923    29.827752780    37.677859824    -0.365808182     0.259808825    -0.220643940
   24    35.321171496    24.715466428    38.505971244    -0.375060655     0.244741330    -0.222331254
   25    36.599830306    20.959316711    31.790987315    -0.358737401     0.262442587    -0.228978963
   26    33.159056263    21.541694593    38.328132523    -0.162183293    -0.358484769     0.308521069
   27    31.823679441    23.541953071    33.616335948    -0.374013585     0.257670311    -0.209092919
   28    38.816840158    25.980766818    31.885614812    -0.382293146     0.241727251    -0.213119418
   29    39.529469980    28.633579720    35.965129638    -0.357016061     0.265250287    -0.228433398
   30    38.299436709    29.547241101    32.662174913    -0.371083940     0.260409592    -0.210911246
   31    36.811805771    30.510991793    39.676566128    -0.364415820     0.267694856    -0.213402376
   32    38.938680660    21.161979030    38.905494630    -0.363168044     0.267119107    -0.216232178
   33    32.001903991    28.536305617    36.307712015    -0.364673297     0.269127298    -0.211148960
   34    41.599207962    23.521071578    39.025944490    -0.494089363    -0.063232575     0.043328320
   35    38.971497174    28.122715844    31.202156989    -0.373492541     0.255563438    -0.212580928
   36    38.485265542    23.109475720    36.536227697    -0.417266005     0.221813365    -0.163364353
   37    38.990824903    25.722355604    38.472938955    -0.366747794     0.257299525    -0.222020293
   38    37.075873093    26.639562375    35.172077702    -0.386349444     0.243630638    -0.203416369
   39    39.262379794    26.334903089    34.597603692    -0.395826091     0.230463456    -0.200520078
   40    34.028790226    29.353658837    37.144568593    -0.363616721     0.265447704    -0.217532518
   41    37.528162269    22.545563401    34.585545706    -0.415539283     0.220687046    -0.169187269
   42    31.812272549    28.987150867    34.034579756    -0.376244773     0.244665234    -0.220405976
   43    35.350083276    27.571841361    36.178970767    -0.382596000     0.246006238    -0.207608361
   44    40.290478484    24.571182750    35.462309601    -0.397975770     0.231227294    -0.195318265
   45    35.629909294    30.087890199    35.638134852    -0.370263054     0.253543137    -0.220502036
   46    38.721935704    21.766393840    32.937876197    -0.412613723     0.226633757    -0.168484586
   47    38.146399734    22.336127579    40.502640927    -0.372252266     0.251604329    -0.219370719
   48    41.351314841    23.992977447    31.423743018    -0.363480239     0.269464187    -0.212770222
   49    34.590781278    25.845136054    32.513637846     0.382083185    -0.218648496     0.237076517
   50    37.745541302    29.919222390    37.634691757    -0.358056374     0.257490740    -0.235571968
   51    41.022511406    26.352834768    31.563076642    -0.376564520     0.239921887    -0.225025888
   52    40.729963976    30.115216526    32.264255271    -0.357730187     0.254883568    -0.238879635
   53    39.999190640    24.795378145    40.187268077    -0.362965262     0.266158612    -0.217751719
   54    36.158302871    22.902087433    40.498685816    -0.360044564     0.284777865    -0.198165282
   55    34.604526017    30.570396660    33.400092350    -0.359790977     0.263623780    -0.225949012
   56    37.715667550    24.563018311    40.364145063    -0.372085249     0.254015289    -0.216861247
   57    36.605334069    26.489186015    37.993913719    -0.373715971     0.251308407    -0.217210630
   58    35.478294414    20.777317830    37.784243390    -0.362552544     0.266267470    -0.218305491
   59    37.130024455    22.256347604    38.499357102    -0.369980605     0.260506430    -0.212722240
   60    40.235330374    26.935662764    39.744978351    -0.363796713     0.261049961    -0.222496899
   61    40.400207679    22.309159099    40.648388178    -0.383296378     0.249503202    -0.202069392
   62    40.231976874    27.825069560    33.082550245    -0.379211576     0.241836444    -0.218434692
   63    33.494556177    28.358701078    40.276386203    -0.354813684     0.269730776    -0.226611029
   64    34.834515662    29.680393232    31.343205042    -0.362780009     0.254969300    -0.231043981
   65    35.961461371    24.407017148    34.190157613    -0.330378683     0.264350804    -0.266399284
   66    32.359770947    27.288764599    38.783513561    -0.350538320     0.274584526    -0.227434000
   67    39.190754413    23.317668658    38.895309665    -0.371146179     0.263324291    -0.207149298
   68    32.353795220    22.848154768    35.994677597    -0.442440580     0.214529377    -0.090683401
   21     3.024109292    36.507917500    33.939458287     0.370815852    -0.240027472     0.234269966
   22    10.356414963    31.891539954    35.979385008    -0.424511027     0.228389105    -0.132773509
   23    10.240488544    39.418865666    36.844224639    -0.365231178     0.261103354    -0.220070955
   24     5.187279118    34.306579314    37.672336059    -0.374309076     0.246142000    -0.222051416
   25     6.465937928    30.550429597    30.957352130    -0.357503462     0.264963183    -0.228003918
   26     3.025163885    31.132807479    37.494497338    -0.151373040    -0.322203000     0.351100313
   27     1.689787062    33.133065957    32.782700763    -0.375379856     0.248382907    -0.217705984
   28     8.682947780    35.571879704    31.051979627    -0.380898288     0.244269160    -0.212718292
   29     9.395577601    38.224692606    35.131494453    -0.355918749     0.267338129    -0.227710713
   30     8.165544331    39.138353987    31.828539727    -0.369634894     0.262724443    -0.210584691
   31     6.677913393    40.102104679    38.842930943    -0.363529368     0.269350886    -0.212829742
   32     8.804788281    30.753091916    38.071859445    -0.361936259     0.269431233    -0.215427378
   33     1.868011613    38.127418504    35.474076830    -0.365666154     0.265286064    -0.214269848
   34    11.465315584    33.112184464    38.192309305    -0.492919042    -0.022848050     0.080677040
   35     8.837604795    37.713828730    30.368521804    -0.372161097     0.257857729    -0.212145019
   36     8.351373164    32.700588606    35.702592511    -0.413889958     0.231815374    -0.157977006
   37     8.856932525    35.313468491    37.639303770    -0.366123159     0.258447507    -0.221717655
   38     6.941980715    36.230675261    34.338442517    -0.385823759     0.244444156    -0.203438150
   39     9.128487415    35.926015975    33.763968507    -0.394669233     0.232652223    -0.200272663
   40     3.894897847    38.944771723    36.310933408    -0.363677719     0.263981767    -0.219207991
   41     7.394269891    32.136676287    33.751910521    -0.412052452     0.230107387    -0.165116223
   42     1.678380170    38.578263753    33.200944571    -0.377683559     0.238497516    -0.224664337
   43     5.216190898    37.162954247    35.345335582    -0.382206455     0.246292821    -0.207985750
   44    10.156586106    34.162295636    34.628674415    -0.396448295     0.234079342    -0.195027205
   45     5.496016916    39.679003085    34.804499667    -0.369759092     0.253397658    -0.221512621
   46     8.588043326    31.357506726    32.104241012    -0.409463995     0.234748877    -0.165021820
   47     8.012507356    31.927240465    39.669005741    -0.371061344     0.254405484    -0.218154368
   48    11.217422462    33.584090333    30.590107833    -0.361565199     0.272006862    -0.212797730
   49     4.456888900    35.436248940    31.680002661     0.370845671    -0.067788157     0.328448251
   50     7.611648924    39.510335276    36.801056572    -0.357296675     0.258911705    -0.235167631
   51    10.888619028    35.943947654    30.729441457    -0.375393123     0.242139969    -0.224606854
   52    10.596071598    39.706329412    31.430620086    -0.356364773     0.257200072    -0.238437144
   53     9.865298261    34.386491031    39.353632892    -0.361891525     0.267101178    -0.218383802
   54     6.024410493    32.493200319    39.665050631    -0.358404947     0.287829782    -0.196722928
   55     4.470633639    40.161509546    32.566457165    -0.358748173     0.263822483    -0.227370724
   56     7.581775172    34.154131197    39.530509877    -0.370954702     0.256020775    -0.216439304
   57     6.471441691    36.080298901    37.160278534    -0.373102560     0.252394503    -0.217005747
   58     5.344402036    30.368430716    36.950608205    -0.361303802     0.267511396    -0.218854325
   59     6.996132077    31.847460490    37.665721917    -0.368712368     0.262610212    -0.212337152
   60    10.101437996    36.526775650    38.911343166    -0.363141312     0.262200264    -0.222214782
   61    10.266315300    31.900271985    39.814752992    -0.382294652     0.252984200    -0.199624130
   62    10.098084496    37.416182446    32.248915060    -0.378198595     0.243839461    -0.217963620
   63     3.360663799    37.949813964    39.442751018    -0.355497999     0.267772394    -0.227857670
   64     4.700623283    39.271506118    30.509569857    -0.361837573     0.254689018    -0.232824128
   65     5.827568993    33.998130034    33.356522428    -0.090776645     0.349591285    -0.345753574
   66     2.225878569    36.879877485    37.949878375    -0.351582138     0.271595712    -0.229403072
   67     9.056862035    32.908781544    38.061674480    -0.369763462     0.265296875    -0.207105166
   68     2.219902841    32.439267654    35.161042412    -0.442293047     0.216774626    -0.085939643
   21    13.113765242    36.652577711    34.227545157     0.370082660    -0.246248173     0.228911908
   22    20.446070912    32.036200166    36.267471877    -0.422544537     0.230076280    -0.136091952
   23    20.330144494    39.563525878    37.132311508    -0.367268894     0.258938298    -0.219236214
   24    15.276935068    34.451239526    37.960422929    -0.377109659     0.243920336    -0.219752530
   25    16.555593878    30.695089808    31.245439000    -0.359658845     0.263632802    -0.226148758
   26    13.114819835    31.277467691    37.782584207    -0.171592478    -0.325431962     0.338600147
   27    11.779443012    33.277726168    33.070787632    -0.371484162     0.256670538    -0.214755098
   28    18.772603730    35.716539915    31.340066497    -0.384170233     0.239995238    -0.211696760
   29    19.485233551    38.369352818    35.419581323    -0.358410622     0.264493083    -0.227123832
   30    18.255200281    39.283014198    32.116626597    -0.373346576     0.258224091    -0.209601176
   31    16.767569342    40.246764891    39.131017812    -0.365455405     0.267870652    -0.211394561
   32    18.894444231    30.897752128    38.359946314    -0.364017105     0.268003690    -0.213695038
   33    11.957667562    38.272078715    35.762163699    -0.365249209     0.268046834    -0.211527563
   34    21.554971534    33.256844676    38.480396174    -0.495699087    -0.006530386     0.065113513
   35    18.927260745    37.858488942    30.656608674    -0.375591340     0.253697142    -0.211113490
   36    18.441029114    32.845248818    35.990679381    -0.414061348     0.230950494    -0.158792536
   37    18.946588475    35.458128702    37.927390640    -0.368700330     0.256345890    -0.219879175
   38    17.031636665    36.375335473    34.626529386    -0.388400810     0.241922017    -0.201540438
   39    19.218143365    36.070676187    34.052055377    -0.397651430     0.228732822    -0.198883474
   40    13.984553797    39.089431934    36.599020277    -0.364794091     0.264418685    -0.216813352
   41    17.483925841    32.281336498    34.039997390    -0.413157852     0.228234136    -0.164953837
   42    11.768036120    38.722923965    33.489031441    -0.376149302     0.243424611    -0.221937291
   43    15.305846847    37.307614458    35.633422452    -0.384597733     0.244346328    -0.205862711
   44    20.246242056    34.306955847    34.916761285    -0.399632797     0.229670901    -0.193765078
   45    15.585672865    39.823663297    35.092586537    -0.371611532     0.252466677    -0.219466275
   46    18.677699276    31.502166938    32.392327882    -0.410794990     0.232799680    -0.164474268
   47    18.102163306    32.071900677    39.957092611    -0.373500754     0.252384723    -0.216331086
   48    21.307078412    33.728750544    30.878194703    -0.365325352     0.267669179    -0.211874015
   49    14.546544850    35.580909152    31.968089530     0.391842691    -0.193674612     0.242795079
   50    17.701304874    39.654995487    37.089143442    -0.359425875     0.257387329    -0.233591103
   51    20.978274977    36.088607866    31.017528327    -0.378595128     0.238041787    -0.223610905
   52    20.685727547    39.850989623    31.718706955    -0.360201157     0.252583448    -0.237606246
   53    19.954954211    34.531151243    39.641719762    -0.364801659     0.264767251    -0.216374796
   54    16.114066443    32.637860531    39.953137500    -0.361685114     0.284937696    -0.194921491
   55    14.560289589    40.306169758    32.854544034    -0.361215745     0.262087063    -0.225462984
   56    17.671431122    34.298791409    39.818596747    -0.373716603     0.253739465    -0.214364606
   57    16.561097640    36.224959113    37.448365403    -0.375847520     0.250208313    -0.214789296
   58    15.434057986    30.513090928    37.238695074    -0.363455231     0.266217419    -0.216860741
   59    17.085788027    31.992120702    37.953808787    -0.370837704     0.261049310    -0.210553211
   60    20.191093946    36.671435862    39.199430036    -0.365562651     0.260303815    -0.220467395
   61    20.355971250    32.044932196    40.102839862    -0.384438161     0.251134938    -0.197834637
   62    20.187740445    37.560842658    32.537001930    -0.381217713     0.240045220    -0.216913227
   63    13.450319749    38.094474176    39.730837887    -0.355400407     0.268899836    -0.226679131
   64    14.790279233    39.416166330    30.797656726    -0.364128749     0.253247757    -0.230815570
   65    15.917224943    34.142790246    33.644609297    -0.329043053     0.271387342    -0.260920639
   66    12.315534518    37.024537696    38.237965245    -0.350913269     0.273553773    -0.228096933
   67    19.146517985    33.053441755    38.349761349    -0.372316222     0.263072585    -0.205361743
   68    12.309558791    32.583927865    35.449129282    -0.441935054     0.216958546    -0.087306341
   21    23.203421192    36.797237923    34.515632027     0.370756040    -0.245755618     0.228350904
   22    30.535726862    32.180860378    36.555558747    -0.424737820     0.228902422    -0.131154356
   23    30.419800444    39.708186089    37.420398378    -0.367270485     0.259231928    -0.218886267
   24    25.366591018    34.595899737    38.248509798    -0.375292798     0.246227997    -0.220288650
   25    26.645249828    30.839750020    31.533525869    -0.358495778     0.265497422    -0.225813853
   26    23.204475785    31.422127903    38.070671077    -0.217260263    -0.317715931     0.319146620
   27    21.869098962    33.422386380    33.358874502    -0.378746305     0.248389838    -0.211786979
   28    28.862259680    35.861200127    31.628153366    -0.383392001     0.242329242    -0.210445033
   29    29.574889501    38.514013030    35.707668192    -0.358395922     0.265110454    -0.226426170
   30    28.344856231    39.427674410    32.404713467    -0.372465108     0.260058486    -0.208900280
   31    26.857225292    40.391425102    39.419104682    -0.365624874     0.267782359    -0.211213304
   32    28.984100181    31.042412339    38.648033184    -0.361805937     0.270598087    -0.214180155
   33    22.047323512    38.416738927    36.050250569    -0.366728827     0.266630689    -0.210755885
   34    31.644627483    33.401504888    38.768483044    -0.493120040    -0.023574228     0.079226776
   35    29.016916695    38.003149153    30.944695543    -0.374665860     0.255756032    -0.210272075
   36    28.530685063    32.989909029    36.278766251    -0.414899933     0.231588505    -0.155643213
   37    29.036244425    35.602788914    38.215477509    -0.367042680     0.258174126    -0.220512565
   38    27.121292614    36.519995685    34.914616256    -0.387335328     0.243790662    -0.201339157
   39    29.307799315    36.215336398    34.340142246    -0.396532695     0.231265325    -0.198187213
   40    24.074209747    39.234092146    36.887107147    -0.365463274     0.263913311    -0.216301548
   41    27.573581790    32.425996710    34.328084260    -0.413664290     0.229281984    -0.162208591
   42    21.857692070    38.867584176    33.777118310    -0.378452303     0.240691632    -0.221000889
   43    25.395502797    37.452274670    35.921509321    -0.383770216     0.245795775    -0.205681450
   44    30.335898005    34.451616059    35.204848155    -0.398346125     0.232750052    -0.192737588
   45    25.675328815    39.968323509    35.380673406    -0.371980334     0.252225526    -0.219118496
   46    28.767355226    31.646827150    32.680414751    -0.410923302     0.234028565    -0.162396645
   47    28.191819256    32.216560889    40.245179481    -0.371273349     0.255009806    -0.217085466
   48    31.396734362    33.873410756    31.166281572    -0.363758364     0.271590957    -0.209566707
   49    24.636200799    35.725569363    32.256176400     0.369891347    -0.241317859     0.234405806
   50    27.790960824    39.799655699    37.377230311    -0.359509963     0.257427729    -0.233417118
   51    31.067930927    36.233268077    31.305615196    -0.377661416     0.240266771    -0.222808738
   52    30.775383497    39.995649835    32.006793825    -0.359099390     0.254657895    -0.237059032
   53    30.044610161    34.675811454    39.929806631    -0.362645121     0.267042398    -0.217202379
   54    26.203722393    32.782520742    40.241224370    -0.358442849     0.288277080    -0.195997574
   55    24.649945539    40.450829970    33.142630904    -0.361777087     0.261760201    -0.224942075
   56    27.761087072    34.443451620    40.106683617    -0.371264025     0.256580762    -0.215242505
   57    26.650753590    36.369619324    37.736452273    -0.374213053     0.252302221    -0.215193354
   58    25.523713935    30.657751140    37.526781944    -0.361011945     0.269532955    -0.216846401
   59    27.175443976    32.136780914    38.241895656    -0.368637316     0.264086847    -0.210629216
   60    30.280749896    36.816096074    39.487516905    -0.364156167     0.261615625    -0.221240934
   61    30.445627200    32.189592408    40.390926731    -0.382494261     0.253357880    -0.198766005
   62    30.277396395    37.705502870    32.825088799    -0.380321106     0.242007958    -0.216305349
   63    23.539975699    38.239134387    40.018924757    -0.356799935     0.268078248    -0.225450348
   64    24.879935183    39.560826541    31.085743596    -0.364946183     0.252613282    -0.230219055
   65    26.006880893    34.287450457    33.932696167    -0.328056514     0.320144506    -0.199715847
   66    22.405190468    37.169197908    38.526052115    -0.352716078     0.272357030    -0.226744387
   67    29.236173935    33.198101967    38.637848219    -0.370225067     0.265695177    -0.205765577
   68    22.399214741    32.728588077    35.737216151    -0.438250614     0.221754346    -0.093602400
   21    33.293077142    36.941898135    34.803718896     0.369885516    -0.246578767     0.228874675
   22    40.625382812    32.325520589    36.843645616    -0.425437613     0.226919713    -0.132326420
   23    40.509456394    39.852846301    37.708485247    -0.368249065     0.254804765    -0.222412135
   24    35.456246967    34.740559949    38.536596668    -0.375878009     0.243022021    -0.222836307
   25    36.734905777    30.984410232    31.821612739    -0.357962911     0.263897432    -0.228518488
   26    33.294131734    31.566788114    38.358757946    -0.160432441    -0.336051241     0.333662997
   27    31.958754912    33.567046592    33.646961372    -0.374523657     0.254753987    -0.211736716
   28    38.951915629    36.005860339    31.916240236    -0.382902637     0.239095676    -0.214985646
   29    39.664545451    38.658673241    35.995755062    -0.359288904     0.260289751    -0.230566105
   30    38.434512180    39.572334622    32.692800336    -0.372038019     0.257522645    -0.212767009
   31    36.946881242    40.536085314    39.707191551    -0.366595422     0.264806853    -0.213272424
   32    39.073756131    31.187072551    38.936120054    -0.362741824     0.267694694    -0.216235797
   33    32.136979462    38.561399138    36.338337439    -0.366302998     0.266567446    -0.211574834
   34    41.734283433    33.546165099    39.056569913    -0.492024430    -0.021294107     0.086362731
   35    39.106572645    38.147809365    31.232782413    -0.374169953     0.253068709    -0.214366683
   36    38.620341013    33.134569241    36.566853120    -0.415553404     0.228732787    -0.158103386
   37    39.125900374    35.747449126    38.503564379    -0.367838840     0.255190600    -0.222648479
   38    37.210948564    36.664655896    35.202703125    -0.387647023     0.240766565    -0.204355686
   39    39.397455265    36.359996610    34.628229116    -0.396735245     0.227631452    -0.201953131
   40    34.163865697    39.378752358    37.175194017    -0.365475387     0.262598607    -0.217875453
   41    37.663237740    32.570656922    34.616171130    -0.414227932     0.226190475    -0.165085099
   42    31.947348020    39.012244388    34.065205180    -0.377762991     0.241813381    -0.220955678
   43    35.485158747    37.596934882    36.209596191    -0.384009831     0.243140825    -0.208372236
   44    40.425553955    34.596276271    35.492935024    -0.398788008     0.228585880    -0.196765394
   45    35.764984765    40.112983720    35.668760276    -0.371888643     0.250738683    -0.220972736
   46    38.857011175    31.791487361    32.968501621    -0.411443680     0.231124407    -0.165213820
   47    38.281475205    32.361221100    40.533266350    -0.372331936     0.251916873    -0.218876264
   48    41.486390312    34.018070968    31.454368442    -0.364080792     0.266918267    -0.214941423
   49    34.725856749    35.870229575    32.544263269     0.364407493    -0.241954891     0.242208607
   50    37.880616773    39.944315911    37.665317181    -0.360354936     0.254444769    -0.235376675
   51    41.157586877    36.377928289    31.593702066    -0.377256720     0.237161790    -0.226785477
   52    40.865039447    40.140310047    32.294880694    -0.358508754     0.252214110    -0.240540051
   53    40.134266111    34.820471666    40.217893501    -0.363695595     0.263672798    -0.219549925
   54    36.293378342    32.927180954    40.529311239    -0.360306579     0.284596413    -0.197949618
   55    34.739601488    40.595490181    33.430717773    -0.361085429     0.261093164    -0.226820793
   56    37.850743021    34.588111832    40.394770486    -0.372397330     0.253184235    -0.217296967
   57    36.740409540    36.514279536    38.024539142    -0.374822174     0.249134560    -0.217807963
   58    35.613369885    30.802411351    37.814868814    -0.361941320     0.266592770    -0.218921850
   59    37.265099926    32.281441125    38.529982526    -0.369590376     0.260991537    -0.212805950
   60    40.370405845    36.960756285    39.775603775    -0.364907821     0.258948263    -0.223132424
   61    40.535283150    32.334252620    40.679013601    -0.383716777     0.250186930    -0.200419397
   62    40.367052345    37.850163081    33.113175669    -0.380180230     0.238706792    -0.220186420
   63    33.629631649    38.383794599    40.307011627    -0.356353767     0.267621003    -0.226695814
   64    34.969591133    39.705486753    31.373830466    -0.363921514     0.252471483    -0.231989831
   65    36.096536842    34.432110669    34.220783037    -0.363391866     0.223853272    -0.260453574
   66    32.494846418    37.313858120    38.814138984    -0.351894256     0.272544612    -0.227793475
   67    39.325829884    33.342762179    38.925935088    -0.371315356     0.262395568    -0.208022770
   68    32.488870691    32.873248289    36.025303021    -0.441796626     0.217624682    -0.086343726
