CRYSTAL
PRIMVEC
    40.358642790     0.578641119     1.152348021
     0.540302138    40.100392953     0.122501752
     1.147485224     0.128543006    40.047960291
PRIMCOORD
 3072    1
   21     1.758269367     6.336229727     3.811625931     0.018055060    -0.029289771     0.498814719
   22     9.090575037     1.719852182     5.851552651    -0.019847370     0.180895814    -0.465706760
   23     8.974648619     9.247177894     6.716392283     0.011050000     0.023277647    -0.499335607
   24     3.921439192     4.134891542     7.544503703    -0.006745178    -0.002030057    -0.499950379
   25     5.200098002     0.378741824     0.829519774    -0.006382146     0.051429590    -0.497307013
   26     1.759323959     0.961119707     7.366664982    -0.095652504     0.376344514     0.314984770
   27     0.423947137     2.961378184     2.654868407    -0.062400691     0.024115044    -0.495504408
   28     7.417107854     5.400191931     0.924147271    -0.024996342     0.032212371    -0.498334773
   29     8.129737675     8.053004834     5.003662097     0.010831413     0.031237728    -0.498905687
   30     6.899704405     8.966666214     1.700707371    -0.018325848     0.045800183    -0.497560556
   31     5.412073467     9.930416906     8.715098586    -0.015566604     0.014722231    -0.499540726
   32     7.538948355     0.581404143     7.944027089    -0.003604483     0.032088778    -0.498956229
   33     0.602171687     7.955730731     5.346244474    -0.015913090     0.058669549    -0.496290900
   34    10.199475658     2.940496692     8.064476948    -0.066688209     0.438344356    -0.231099347
   35     7.571764870     7.542140958     0.240689448    -0.023098008     0.034557934    -0.498269236
   36     7.085533238     2.528900833     5.574760155    -0.029297742     0.133688848    -0.480904288
   37     7.591092599     5.141780718     7.511471414     0.004406579     0.002714219    -0.499973214
   38     5.676140789     6.058987489     4.210610160    -0.021078346     0.037255095    -0.498164392
   39     7.862647489     5.754328203     3.636136151    -0.037992795     0.031627348    -0.497550257
   40     2.629057922     8.773083950     6.183101052    -0.014254579     0.034083752    -0.498633237
   41     6.128429965     1.964988514     3.624078165    -0.031777275     0.117237064    -0.485021315
   42     0.412540245     8.406575980     3.073112215    -0.027233799     0.046434242    -0.497093735
   43     3.950350972     6.991266474     5.217503226    -0.016777525     0.035045224    -0.498488061
   44     8.890746180     3.990607863     4.500842059    -0.044306040     0.039434062    -0.496469465
   45     4.230176990     9.507315313     4.676667311    -0.008788256     0.029324648    -0.499061952
   46     7.322203400     1.185818954     1.976408656    -0.036047156     0.106348642    -0.487227430
   47     6.746667430     1.755552693     9.541173385    -0.003330091     0.027211897    -0.499247857
   48     9.951582536     3.412402560     0.462275477    -0.017371779     0.039513821    -0.498133395
   49     3.191048974     5.264561167     1.552170305     0.006835015    -0.005403007     0.499924084
   50     6.345808998     9.338647503     6.673224216     0.002221712    -0.002113288    -0.499990598
   51     9.622779102     5.772259882     0.601609101    -0.011457370     0.023735397    -0.499304876
   52     9.330231672     9.534641639     1.302787729     0.014353255     0.032027570    -0.498766698
   53     8.599458335     4.214803259     9.225800536    -0.000476803     0.007585839    -0.499942224
   54     4.758570567     2.321512547     9.537218274    -0.008595174     0.053727976    -0.497030610
   55     3.204793713     9.989821774     2.438624809    -0.005852151     0.040187482    -0.498347989
   56     6.315935246     3.982443425     9.402677521    -0.008634443     0.016387838    -0.499656767
   57     5.205601765     5.908611129     7.032446177    -0.007076311     0.011493761    -0.499817786
   58     4.078562110     0.196742944     6.822775849    -0.014033711     0.035465160    -0.498543155
   59     5.730292151     1.675772718     7.537889561    -0.012312625     0.041190724    -0.498148295
   60     8.835598070     6.355087878     8.783510810    -0.001214284     0.001562355    -0.499996085
   61     9.000475374     1.728584212     9.686920636    -0.007260990     0.053237415    -0.497104673
   62     8.832244570     7.244494674     2.121082704    -0.017377805     0.023736881    -0.499133822
   63     2.094823873     7.778126192     9.314918662    -0.008343403     0.040849242    -0.498258695
   64     3.434783357     9.099818346     0.381737501    -0.006641231     0.038096903    -0.498502277
   65     4.561729067     3.826442261     3.228690072     0.044983066     0.047292003    -0.495721686
   66     0.960038643     6.708189712     7.822046019    -0.004533914     0.049807100    -0.497492408
   67     7.791022109     2.737093771     7.933842124    -0.017013692     0.022970890    -0.499182204
   68     0.954062916     2.267579881     5.033210056    -0.018900613     0.286737015    -0.409175575
   21    11.847925316     6.480889939     4.099712801     0.000874801     0.003953777     0.499983602
   22    19.180230987     1.864512394     6.139639521     0.001323648     0.167600930    -0.471071307
   23    19.064304568     9.391838105     7.004479152     0.005618276     0.016519071    -0.499695463
   24    14.011095142     4.279551753     7.832590573    -0.000094654    -0.005200018    -0.499972950
   25    15.289753952     0.523402036     1.117606644    -0.001763821     0.031109687    -0.499028132
   26    11.848979909     1.105779919     7.654751851    -0.109524681     0.393178626     0.288816399
   27    10.513603086     3.106038396     2.942955276    -0.053115302    -0.009996294    -0.497070255
   28    17.506763804     5.544852143     1.212234141    -0.026617441     0.012059206    -0.499145357
   29    18.219393625     8.197665046     5.291748967     0.005029365     0.020597736    -0.499550236
   30    16.989360355     9.111326426     1.988794241    -0.009448364     0.027640113    -0.499146023
   31    15.501729417    10.075077118     9.003185456    -0.006189024    -0.003392392    -0.499950185
   32    17.628604305     0.726064355     8.232113958    -0.007764510     0.015573240    -0.499697095
   33    10.691827637     8.100390943     5.634331343    -0.002103537     0.021400257    -0.499537390
   34    20.289131608     3.085156904     8.352563818    -0.021471363     0.437777481    -0.240603112
   35    17.661420819     7.686801169     0.528776317    -0.020685890     0.017906691    -0.499250883
   36    17.175189188     2.673561045     5.862847025    -0.013677730     0.119135994    -0.485406566
   37    17.680748549     5.286440930     7.799558284    -0.000770157     0.000688214    -0.499998933
   38    15.765796739     6.203647701     4.498697030    -0.011335026     0.022859585    -0.499348532
   39    17.952303439     5.898988414     3.924223021    -0.031714243     0.018607620    -0.498646130
   40    12.718713871     8.917744162     6.471187921     0.000782636     0.001345752    -0.499997576
   41    16.218085915     2.109648726     3.912165034    -0.021939178     0.100648834    -0.489273425
   42    10.502196194     8.551236192     3.361199084    -0.013129902     0.007910373    -0.499764976
   43    14.040006922     7.135926686     5.505590095    -0.004924787     0.018209006    -0.499644052
   44    18.980402130     4.135268075     4.788928929    -0.036552903     0.027311178    -0.497913632
   45    14.319832940     9.651975525     4.964754181    -0.000396313     0.000936085    -0.499998967
   46    17.411859350     1.330479165     2.264495525    -0.032144207     0.087898825    -0.491162444
   47    16.836323380     1.900212905     9.829260255    -0.003157452     0.007415218    -0.499935041
   48    20.041238486     3.557062772     0.750362347    -0.020551826     0.021002478    -0.499135771
   49    13.280704924     5.409221379     1.840257174    -0.007141847     0.016827455     0.499665719
   50    16.435464948     9.483307715     6.961311085     0.010619999    -0.017549563    -0.499579051
   51    19.712435052     5.916920093     0.889695971    -0.014572473     0.005032428    -0.499762261
   52    19.419887622     9.679301851     1.590874599     0.018921971     0.012474629    -0.499486079
   53    18.689114285     4.359463470     9.513887405    -0.001739165    -0.002694783    -0.499989713
   54    14.848226517     2.466172758     9.825305144    -0.005572380     0.035103738    -0.498735076
   55    13.294449663    10.134481985     2.726711678    -0.005167654     0.009006833    -0.499892161
   56    16.405591196     4.127103636     9.690764391    -0.000618028    -0.000866741    -0.499998867
   57    15.295257715     6.053271340     7.320533047     0.000906296     0.005945606    -0.499963827
   58    14.168218060     0.341403156     7.110862718     0.000428109     0.000114280    -0.499999804
   59    15.819948101     1.820432930     7.825976431    -0.004902458     0.015747758    -0.499727900
   60    18.925254020     6.499748089     9.071597680     0.000076202     0.002227067    -0.499995034
   61    19.090131324     1.873244424     9.975007506    -0.007216375     0.035447257    -0.498689699
   62    18.921900520     7.389154886     2.409169573    -0.017497248     0.010518542    -0.499583033
   63    12.184479823     7.922786403     9.603005531     0.003321024    -0.000850634    -0.499988247
   64    13.524439307     9.244478557     0.669824370    -0.002397166     0.008387027    -0.499923906
   65    14.651385017     3.971102473     3.516776941     0.034364745    -0.009272156    -0.498731482
   66    11.049694593     6.852849924     8.110132889     0.010594263     0.005066957    -0.499862069
   67    17.880678059     2.881753983     8.221928993    -0.017918612     0.010800530    -0.499562080
   68    11.043718865     2.412240093     5.321296926    -0.012000666     0.258232366    -0.427986015
   21    21.937581266     6.625550151     4.387799670    -0.000733682    -0.001535884     0.499997103
   22    29.269886936     2.009172605     6.427726391    -0.032240645     0.202979601    -0.455806782
   23    29.153960518     9.536498317     7.292566022    -0.012388471     0.047603237    -0.497574575
   24    24.100751092     4.424211965     8.120677442    -0.019039968     0.041271875    -0.497929826
   25    25.379409902     0.668062247     1.405693513    -0.014104361     0.054791018    -0.496788699
   26    21.938635859     1.250440130     7.942838721    -0.036197124     0.387663946     0.313697997
   27    20.603259036     3.250698608     3.231042146    -0.053497874    -0.024914708    -0.496505020
   28    27.596419754     5.689512354     1.500321010    -0.040267005     0.043154061    -0.496504074
   29    28.309049575     8.342325257     5.579835836    -0.009386578     0.051128500    -0.497290427
   30    27.079016305     9.255986637     2.276881110    -0.027118658     0.055876437    -0.496127405
   31    25.591385366    10.219737330     9.291272326    -0.028737509     0.024890800    -0.498552508
   32    27.718260255     0.870724567     8.520200828    -0.021947875     0.064340285    -0.495357062
   33    20.781483586     8.245051154     5.922418213    -0.008437052     0.032775115    -0.498853293
   34    30.378787558     3.229817115     8.640650688    -0.110342943     0.442714339    -0.204520045
   35    27.751076769     7.831461381     0.816863187    -0.034908490     0.048337326    -0.496432171
   36    27.264845138     2.818221257     6.150933894    -0.039987036     0.154101423    -0.473976569
   37    27.770404499     5.431101141     8.087645153    -0.015876699     0.051218721    -0.497116257
   38    25.855452689     6.348307912     4.786783900    -0.030669304     0.056086056    -0.495896913
   39    28.041959389     6.043648626     4.212309890    -0.051403179     0.049284212    -0.494902798
   40    22.808369821     9.062404373     6.759274791    -0.015112132     0.025105963    -0.499140575
   41    26.307741865     2.254308937     4.200251904    -0.044833685     0.133977678    -0.479624773
   42    20.591852144     8.695896404     3.649285954    -0.013679664     0.006927959    -0.499764815
   43    24.129662871     7.280586898     5.793676965    -0.024373840     0.049835107    -0.496912848
   44    29.070058080     4.279928286     5.077015799    -0.056100367     0.057881750    -0.493459676
   45    24.409488889     9.796635736     5.252841050    -0.010945823     0.026907675    -0.499155453
   46    27.501515300     1.475139377     2.552582395    -0.051629341     0.120198643    -0.482583358
   47    26.925979330     2.044873116    10.117347125    -0.020338052     0.058134566    -0.496192237
   48    30.130894436     3.701722983     1.038449216    -0.024930222     0.053720071    -0.496480249
   49    23.370360874     5.553881591     2.128344044    -0.006370796    -0.005752280     0.499926319
   50    26.525120898     9.627967926     7.249397955    -0.000710417    -0.000364865    -0.499999362
   51    29.802091001     6.061580305     1.177782840    -0.029524834     0.037842218    -0.497690919
   52    29.509543571     9.823962063     1.878961469    -0.002030515     0.044921230    -0.497973855
   53    28.778770235     4.504123682     9.801974275    -0.020859210     0.047988721    -0.497254438
   54    24.937882467     2.610832970    10.113392014    -0.021756532     0.087675602    -0.491771941
   55    23.384105613    10.279142197     3.014798548    -0.009825265     0.029311939    -0.499043359
   56    26.495247146     4.271763848     9.978851261    -0.022495060     0.052950052    -0.496679237
   57    25.384913664     6.197931552     7.608619917    -0.018541498     0.050610521    -0.497086298
   58    24.257874010     0.486063367     7.398949588    -0.021876123     0.054035469    -0.496589975
   59    25.909604051     1.965093141     8.114063300    -0.023867203     0.066629696    -0.494965494
   60    29.014909970     6.644408301     9.359684549    -0.017814880     0.046909203    -0.497475785
   61    29.179787274     2.017904635    10.263094375    -0.025091844     0.085756427    -0.491951455
   62    29.011556469     7.533815097     2.697256443    -0.035365776     0.040943496    -0.497064274
   63    22.274135773     8.067446615     9.891092401     0.001387530     0.015795968    -0.499748499
   64    23.614095257     9.389138769     0.957911240    -0.007977098     0.023267142    -0.499394640
   65    24.741040967     4.115762685     3.804863811     0.057922161     0.067731587    -0.491993349
   66    21.139350542     6.997510135     8.398219758     0.008650499     0.016196414    -0.499662731
   67    27.970334009     3.026414194     8.510015863    -0.033230543     0.059784033    -0.495299506
   68    21.133374815     2.556900304     5.609383795     0.014449271     0.245722892    -0.435214291
   21    32.027237216     6.770210362     4.675886540     0.017750812    -0.036322121     0.498362932
   22    39.359542886     2.153832817     6.715813260    -0.025666034     0.212566248    -0.451837189
   23    39.243616468     9.681158529     7.580652891    -0.012531053     0.065495729    -0.495533331
   24    34.190407042     4.568872177     8.408764312    -0.022268717     0.054611212    -0.496509536
   25    35.469065852     0.812722459     1.693780383    -0.017650643     0.070675423    -0.494664977
   26    32.028291809     1.395100342     8.230925590    -0.128051492     0.359200454     0.323384986
   27    30.692914986     3.395358819     3.519129016    -0.060361622     0.007872281    -0.496280668
   28    37.686075704     5.834172566     1.788407880    -0.039485653     0.059732856    -0.494846309
   29    38.398705525     8.486985469     5.867922706    -0.009217461     0.071246513    -0.494812058
   30    37.168672255     9.400646849     2.564967980    -0.028329358     0.075743585    -0.493417021
   31    35.681041316    10.364397541     9.579359195    -0.023423241     0.057233916    -0.496160892
   32    37.807916205     1.015384778     8.808287698    -0.019786945     0.075537687    -0.493864895
   33    30.871139536     8.389711366     6.210505082    -0.021085122     0.065095991    -0.495295800
   34    40.468443507     3.374477327     8.928737557    -0.086252611     0.449283887    -0.201753503
   35    37.840732719     7.976121592     1.104950057    -0.034039080     0.064448905    -0.494659155
   36    37.354501087     2.962881468     6.439020764    -0.037066243     0.165799031    -0.470251821
   37    37.860060449     5.575761353     8.375732023    -0.019300428     0.059592639    -0.496060693
   38    35.945108638     6.492968124     5.074870769    -0.032997993     0.074676220    -0.493289565
   39    38.131615339     6.188308837     4.500396760    -0.051188645     0.065314346    -0.493065674
   40    32.898025771     9.207064585     7.047361661    -0.019938014     0.056300478    -0.496419915
   41    36.397397814     2.398969149     4.488338774    -0.043257174     0.145987568    -0.476252503
   42    30.681508094     8.840556615     3.937372824    -0.031521631     0.037925591    -0.497562093
   43    34.219318821     7.425247109     6.081763835    -0.028124767     0.070485552    -0.494207228
   44    39.159714029     4.424588498     5.365102668    -0.054966060     0.074112023    -0.491412393
   45    34.499144839     9.941295948     5.540927920    -0.014634983     0.056142362    -0.496622445
   46    37.591171250     1.619799589     2.840669265    -0.051510122     0.132484878    -0.479368819
   47    37.015635280     2.189533328    10.405433994    -0.020143813     0.070257690    -0.494629239
   48    40.220550386     3.846383195     1.326536086    -0.027134436     0.067513611    -0.494677304
   49    33.460016823     5.698541802     2.416430913    -0.011552668    -0.000436275     0.499866328
   50    36.614776848     9.772628138     7.537484825     0.001346656     0.040599827    -0.498347109
   51    39.891746951     6.206240517     1.465869710    -0.027629765     0.052778715    -0.496438318
   52    39.599199521     9.968622274     2.167048338    -0.000028026     0.063590669    -0.495939740
   53    38.868426185     4.648783894    10.090061145    -0.023931396     0.057008008    -0.496162650
   54    35.027538417     2.755493182    10.401478883    -0.017081749     0.099897856    -0.489620907
   55    33.473761563    10.423802409     3.302885417    -0.012337633     0.058979336    -0.496355942
   56    36.584903096     4.416424060    10.266938130    -0.022037601     0.064920651    -0.495277350
   57    35.474569614     6.342591764     7.896706786    -0.021682261     0.064380787    -0.495363497
   58    34.347529959     0.630723579     7.687036458    -0.018453371     0.071267309    -0.494550749
   59    35.999260000     2.109753353     8.402150170    -0.020975819     0.081373778    -0.492887739
   60    39.104565920     6.789068513     9.647771419    -0.022025808     0.052032300    -0.496797246
   61    39.269443224     2.162564847    10.551181245    -0.026716859     0.096301351    -0.489910460
   62    39.101212419     7.678475309     2.985343313    -0.032976821     0.055918262    -0.495767765
   63    32.363791723     8.212106827    10.179179270    -0.014673563     0.055590994    -0.496683328
   64    33.703751207     9.533798980     1.245998110    -0.011661654     0.052995746    -0.497046735
   65    34.830696916     4.260422896     4.092950681     0.139894595     0.018932836    -0.479657221
   66    31.229006492     7.142170347     8.686306628    -0.007845351     0.056713368    -0.496711228
   67    38.059989959     3.171074406     8.798102732    -0.033479520     0.070425960    -0.493881875
   68    31.223030765     2.701560516     5.897470665    -0.029971844     0.278881873    -0.413916163
   21     1.893344838    16.361323248     3.842251355    -0.006984138    -0.005953204     0.499915774
   22     9.225650508    11.744945703     5.882178075     0.011428158     0.168362004    -0.470662971
   23     9.109724090    19.272271415     6.747017706     0.002607935     0.037057469    -0.498618033
   24     4.056514663    14.159985063     7.575129127    -0.000499480     0.005649065    -0.499967838
   25     5.335173473    10.403835345     0.860145198    -0.006214499     0.032541851    -0.498901201
   26     1.894399430    10.986213228     7.397290405    -0.182644569     0.355584721     0.300333927
   27     0.559022608    12.986471705     2.685493830    -0.054940840     0.010003521    -0.496871647
   28     7.552183325    15.425285452     0.954772694    -0.015017771     0.025457805    -0.499125602
   29     8.264813147    18.078098355     5.034287521     0.007206888     0.041909387    -0.498188382
   30     7.034779876    18.991759735     1.731332795    -0.008307611     0.049384596    -0.497485824
   31     5.547148938    19.955510427     8.745724010    -0.022541299     0.026142956    -0.498807012
   32     7.674023826    10.606497664     7.974652512    -0.003395062     0.018440098    -0.499648313
   33     0.737247158    17.980824252     5.376869897    -0.010678962     0.054783912    -0.496874917
   34    10.334551129    12.965590213     8.095102372     0.001603167     0.436905562    -0.243127455
   35     7.706840341    17.567234479     0.271314871    -0.011994820     0.030986752    -0.498894724
   36     7.220608709    12.553994354     5.605385579    -0.006398380     0.122635362    -0.484685082
   37     7.726168070    15.166874239     7.542096838     0.003532675     0.006073259    -0.499950633
   38     5.811216260    16.084081010     4.241235584    -0.009394139     0.038177382    -0.498451841
   39     7.997722960    15.779421724     3.666761575    -0.023224238     0.029094348    -0.498612228
   40     2.764133393    18.798177471     6.213726475    -0.014589387     0.034346525    -0.498605521
   41     6.263505436    11.990082035     3.654703588    -0.015081372     0.104218020    -0.488785389
   42     0.547615716    18.431669501     3.103737638    -0.022339718     0.039547492    -0.497932659
   43     4.085426443    17.016359995     5.248128649    -0.007986353     0.035682588    -0.498661179
   44     9.025821651    14.015701384     4.531467483    -0.028725026     0.036090095    -0.497867832
   45     4.365252461    19.532408834     4.707292735    -0.006772288     0.032270241    -0.498911583
   46     7.457278871    11.210912475     2.007034079    -0.024992100     0.091443953    -0.490931154
   47     6.881742901    11.780646214     9.571798809    -0.002755903     0.009813888    -0.499896082
   48    10.086658007    13.437496081     0.492900900    -0.013056270     0.025596612    -0.499173664
   49     3.326124445    15.289654688     1.582795728    -0.006903568     0.016912013     0.499666213
   50     6.480884469    19.363741024     6.703849639     0.004956144     0.003326824    -0.499964368
   51     9.757854573    15.797353403     0.632234525     0.006603901     0.015265779    -0.499723268
   52     9.465307143    19.559735160     1.333413153     0.024274474     0.034386530    -0.498225166
   53     8.734533807    14.239896780     9.256425959    -0.006736688    -0.000691156    -0.499954137
   54     4.893646038    12.346606068     9.567843698    -0.007309037     0.040072181    -0.498338036
   55     3.339869184    20.014915295     2.469250232    -0.007986551     0.044365847    -0.497963740
   56     6.451010717    14.007536946     9.433302945    -0.007251653     0.005523459    -0.499916898
   57     5.340677236    15.933704650     7.063071601    -0.003614303     0.016598644    -0.499711338
   58     4.213637581    10.221836465     6.853401272    -0.005863144     0.021415773    -0.499506745
   59     5.865367622    11.700866239     7.568514984    -0.006715362     0.027781205    -0.499182440
   60     8.970673541    16.380181399     8.814136233     0.000585974     0.000280285    -0.499999578
   61     9.135550845    11.753677733     9.717546060    -0.003211244     0.037866943    -0.498553691
   62     8.967320041    17.269588195     2.151708127    -0.002412656     0.021559577    -0.499529142
   63     2.229899344    17.803219713     9.345544085     0.007736925     0.040881340    -0.498265849
   64     3.569858828    19.124911867     0.412362924    -0.009146847     0.041786361    -0.498166875
   65     4.696804538    13.851535782     3.259315495     0.068777014     0.017195954    -0.494948504
   66     1.095114114    16.733283233     7.852671443     0.012878538     0.047860162    -0.497537484
   67     7.926097580    12.762187292     7.964467547    -0.016407569     0.013378236    -0.499551613
   68     1.089138387    12.292673402     5.063835480    -0.054099200     0.270300357    -0.417146249
   21    11.983000787    16.505983460     4.130338224    -0.002274510     0.002644385     0.499987834
   22    19.315306458    11.889605915     6.170264945     0.024094761     0.152254197    -0.475644933
   23    19.199380039    19.416931626     7.035104576     0.013911968     0.020503013    -0.499385706
   24    14.146170613    14.304645274     7.863215996    -0.000798651    -0.008603466    -0.499925337
   25    15.424829423    10.548495557     1.148232067     0.001995434     0.005979804    -0.499960259
   26    11.984055380    11.130873440     7.685377275    -0.010390665     0.410486526     0.285294315
   27    10.648678557    13.131131917     2.973580700    -0.046775917    -0.017048725    -0.497515180
   28    17.641839275    15.569945664     1.242859564    -0.014503005     0.004735296    -0.499767186
   29    18.354469096    18.222758567     5.322374390     0.020185301     0.019255418    -0.499221176
   30    17.124435826    19.136419947     2.019419664    -0.010899121     0.022598958    -0.499370099
   31    15.636804888    20.100170639     9.033810880    -0.009208163     0.006817763    -0.499868711
   32    17.763679776    10.751157876     8.262739382    -0.001997098     0.005328780    -0.499967615
   33    10.826903108    18.125484464     5.664956767     0.002682779     0.028428238    -0.499183972
   34    20.424207079    13.110250425     8.383189242     0.044199797     0.428194654    -0.254353526
   35    17.796496290    17.711894690     0.559401741    -0.011640046     0.008210677    -0.499797053
   36    17.310264659    12.698654566     5.893472448     0.003476373     0.104552134    -0.488934317
   37    17.815824020    15.311534451     7.830183707     0.001771994    -0.000255726    -0.499996795
   38    15.900872210    16.228741222     4.529322454    -0.006207759     0.018237282    -0.499628727
   39    18.087378910    15.924081935     3.954848444    -0.023671403     0.008784173    -0.499362096
   40    12.853789342    18.942837683     6.501813345     0.000228168     0.007689018    -0.499940823
   41    16.353161386    12.134742247     3.942790458    -0.006292211     0.084604201    -0.492749974
   42    10.637271665    18.576329713     3.391824508     0.000799170     0.014861891    -0.499778436
   43    14.175082393    17.161020207     5.536215519    -0.001955249     0.014889293    -0.499774435
   44    19.115477601    14.160361596     4.819554353    -0.028574961     0.015815418    -0.498932204
   45    14.454908411    19.677069046     4.995379604    -0.001341371     0.001052323    -0.499997093
   46    17.546934821    11.355572686     2.295120949    -0.016229005     0.070478233    -0.494741789
   47    16.971398851    11.925306426     9.859885678     0.001915076    -0.000308933    -0.499996237
   48    20.176313957    13.582156293     0.780987770    -0.009498207     0.001653459    -0.499907041
   49    13.415780395    15.434314900     1.870882598    -0.022176819     0.000229353     0.499507894
   50    16.570540419    19.508401236     6.991936509     0.011504680    -0.009248975    -0.499782051
   51    19.847510523    15.942013614     0.920321394     0.000740205    -0.002034805    -0.499995312
   52    19.554963093    19.704395372     1.621500023     0.020762624     0.011342609    -0.499439945
   53    18.824189756    14.384556991     9.544512829    -0.004240403    -0.004499703    -0.499961770
   54    14.983301988    12.491266279     9.855930568    -0.000866752     0.028440896    -0.499189708
   55    13.429525134    20.159575507     2.757337102    -0.002308563     0.010715293    -0.499879839
   56    16.540666667    14.152197157     9.721389815    -0.000501051    -0.003954028    -0.499984114
   57    15.430333186    16.078364861     7.351158471    -0.000755648     0.002956722    -0.499990687
   58    14.303293531    10.366496677     7.141488142     0.001270208    -0.003149042    -0.499988470
   59    15.955023572    11.845526451     7.856601854     0.003842211     0.006963956    -0.499936737
   60    19.060329491    16.524841611     9.102223103    -0.001278286     0.001682724    -0.499995534
   61    19.225206795    11.898337945    10.005632929    -0.000105008     0.029397868    -0.499135006
   62    19.056975991    17.414248407     2.439794997    -0.006883017     0.000736932    -0.499952079
   63    12.319555294    17.947879924     9.633630955     0.008009470     0.005674571    -0.499903638
   64    13.659514778    19.269572078     0.700449794    -0.003834316     0.006752125    -0.499939703
   65    14.786460488    13.996195994     3.547402365     0.063048048     0.016827649    -0.495723485
   66    11.184770064    16.877943445     8.140758312     0.014268989     0.008356253    -0.499726494
   67    18.015753530    12.906847504     8.252554417    -0.014737978     0.004186791    -0.499765208
   68    11.178794336    12.437333614     5.351922349     0.027329722     0.245183988    -0.434899872
   21    22.072656737    16.650643672     4.418425094     0.001981420    -0.004327337     0.499977348
   22    29.404962407    12.034266126     6.458351814    -0.026438639     0.180343053    -0.465593580
   23    29.289035989    19.561591838     7.323191445    -0.011737217     0.059472165    -0.496311696
   24    24.235826563    14.449305486     8.151302866    -0.026233691     0.021344260    -0.498854905
   25    25.514485373    10.693155768     1.436318937    -0.011825544     0.028930797    -0.499022209
   26    22.073711330    11.275533651     7.973464144     0.040963295     0.395452760     0.303214648
   27    20.738334507    13.275792129     3.261667569    -0.051603924    -0.036563693    -0.495984003
   28    27.731495225    15.714605876     1.530946434    -0.039160801     0.033430344    -0.497341778
   29    28.444125046    18.367418778     5.610461260    -0.008982597     0.061122721    -0.496168647
   30    27.214091776    19.281080158     2.307506534    -0.024542015     0.052747964    -0.496603808
   31    25.726460837    20.244830851     9.321897749    -0.024244080     0.045213430    -0.497361006
   32    27.853335726    10.895818088     8.550826252    -0.018917910     0.035069519    -0.498409712
   33    20.916559057    18.270144675     5.953043636    -0.004152368     0.036074211    -0.498679666
   34    30.513863029    13.254910636     8.671276111    -0.071398099     0.436605163    -0.232976916
   35    27.886152240    17.856554902     0.847488611    -0.033020284     0.040831838    -0.497234775
   36    27.399920609    12.843314778     6.181559318    -0.037390009     0.132210648    -0.480751840
   37    27.905479970    15.456194662     8.118270577    -0.021268773     0.034421609    -0.498360103
   38    25.990528160    16.373401433     4.817409323    -0.032903249     0.046496769    -0.496744831
   39    28.177034860    16.068742147     4.242935314    -0.051253729     0.038018563    -0.495910924
   40    22.943445292    19.087497894     6.789900215    -0.013595460     0.031038055    -0.498850481
   41    26.442817336    12.279402459     4.230877327    -0.042845204     0.111542440    -0.485512691
   42    20.726927615    18.720989925     3.679911378    -0.001231057     0.006130912    -0.499960895
   43    24.264738342    17.305680419     5.824302389    -0.027192117     0.042582179    -0.497440797
   44    29.205133551    14.305021807     5.107641222    -0.055919809     0.044196763    -0.494893545
   45    24.544564360    19.821729257     5.283466474    -0.010817621     0.031887014    -0.498864909
   46    27.636590771    11.500232898     2.583207819    -0.050597610     0.097189709    -0.487846331
   47    27.061054801    12.069966637    10.147972548    -0.017427740     0.032146079    -0.498661111
   48    30.265969907    13.726816504     1.069074640    -0.034415008     0.029282301    -0.497953968
   49    23.505436345    15.578975112     2.158969467    -0.000355047     0.004791836     0.499976912
   50    26.660196369    19.653061447     7.280023379    -0.002013996     0.028646283    -0.499174653
   51    29.937166472    16.086673826     1.208408264    -0.026427382     0.031244247    -0.498322577
   52    29.644619042    19.849055584     1.909586892     0.006807188     0.041634486    -0.498217053
   53    28.913845706    14.529217203     9.832599699    -0.028271613     0.025941307    -0.498525591
   54    25.072957938    12.635926491    10.144017437    -0.025563168     0.060291926    -0.495692857
   55    23.519181084    20.304235718     3.045423971    -0.008820328     0.029968191    -0.499023155
   56    26.630322617    14.296857369    10.009476684    -0.024563076     0.028008794    -0.498610231
   57    25.519989135    16.223025073     7.639245340    -0.025029372     0.033697928    -0.498234864
   58    24.392949481    10.511156888     7.429575012    -0.019918259     0.023900292    -0.499031100
   59    26.044679522    11.990186662     8.144688724    -0.024401932     0.036372591    -0.498077886
   60    29.149985441    16.669501822     9.390309973    -0.021020946     0.035518610    -0.498293637
   61    29.314862745    12.042998156    10.293719799    -0.023263219     0.060759092    -0.495749085
   62    29.146631940    17.558908618     2.727881867    -0.032441042     0.036068754    -0.497641059
   63    22.409211244    18.092540136     9.921717824     0.004615473     0.022665879    -0.499464669
   64    23.749170728    19.414232290     0.988536664    -0.008130871     0.021516603    -0.499470645
   65    24.876116438    14.140856206     3.835489234     0.054095644     0.042899789    -0.495210328
   66    21.274426013    17.022603656     8.428845182     0.011243840     0.019380891    -0.499497705
   67    28.105409480    13.051507715     8.540641286    -0.034300749     0.036378447    -0.497493786
   68    21.268450286    12.581993825     5.640009219     0.045771697     0.229627555    -0.441787435
   21    32.162312687    16.795303883     4.706511964     0.018296650    -0.034922094     0.498443257
   22    39.494618357    12.178926338     6.746438684    -0.048331955     0.196455746    -0.457240814
   23    39.378691939    19.706252050     7.611278315    -0.011367328     0.063785491    -0.495784424
   24    34.325482513    14.593965698     8.439389735    -0.018295290     0.044997585    -0.497634906
   25    35.604141323    10.837815980     1.724405806    -0.015974077     0.057351433    -0.496442990
   26    32.163367280    11.420193863     8.261551014    -0.105261166     0.369722228     0.319727323
   27    30.827990457    13.420452340     3.549754439    -0.067474172    -0.012065936    -0.495279365
   28    37.821151175    15.859266087     1.819033303    -0.037827802     0.055379776    -0.495481723
   29    38.533780996    18.512078990     5.898548129    -0.001741475     0.068664962    -0.495259619
   30    37.303747726    19.425740370     2.595593404    -0.026720353     0.074928366    -0.493631201
   31    35.816116787    20.389491062     9.609984619    -0.029623200     0.057575006    -0.495789859
   32    37.942991676    11.040478299     8.838913121    -0.014667993     0.062015148    -0.495922344
   33    31.006215007    18.414804887     6.241130506    -0.017457325     0.065971199    -0.495321151
   34    40.603518978    13.399570848     8.959362981    -0.157562843     0.422788057    -0.215462779
   35    37.975808190    18.001215114     1.135575480    -0.032373359     0.061137710    -0.495191020
   36    37.489576558    12.987974989     6.469646188    -0.049588370     0.150997475    -0.474068303
   37    37.995135920    15.600854874     8.406357446    -0.003081924     0.054340460    -0.497028788
   38    36.080184109    16.518061645     5.105496193    -0.028173957     0.069507738    -0.494342900
   39    38.266690810    16.213402359     4.531022183    -0.047470078     0.058948535    -0.494238467
   40    33.033101242    19.232158106     7.077987084    -0.020254112     0.056036108    -0.496437031
   41    36.532473285    12.424062670     4.518964197    -0.053617948     0.131622227    -0.479375328
   42    30.816583565    18.865650136     3.967998247    -0.027250135     0.038526423    -0.497768164
   43    34.354394292    17.450340630     6.112389258    -0.024040978     0.066181828    -0.495017168
   44    39.294789500    14.449682019     5.395728092    -0.053721043     0.064085402    -0.492957514
   45    34.634220310    19.966389469     5.571553343    -0.018323735     0.054592476    -0.496672832
   46    37.726246721    11.644893110     2.871294688    -0.059580188     0.118814230    -0.482009730
   47    37.150710751    12.214626849    10.436059418    -0.019065858     0.056038348    -0.496483833
   48    40.355625857    13.871476716     1.357161509    -0.028399081     0.057482695    -0.495872193
   49    33.595092294    15.723635323     2.447056337     0.014439793    -0.016933339     0.499504509
   50    36.749852319    19.797721659     7.568110248    -0.013759451     0.039924553    -0.498213516
   51    40.026822422    16.231334038     1.496495133    -0.024656373     0.048579919    -0.497023193
   52    39.734274992    19.993715795     2.197673762    -0.000371500     0.062087180    -0.496130068
   53    39.003501656    14.673877415    10.120686568    -0.010123390     0.051167046    -0.497272008
   54    35.162613888    12.780586703    10.432104307    -0.020632818     0.084663245    -0.492347867
   55    33.608837034    20.448895930     3.333510841    -0.016819152     0.057598131    -0.496386514
   56    36.719978567    14.441517581    10.297563554    -0.020893966     0.051729476    -0.496877755
   57    35.609645085    16.367685285     7.927332210    -0.015439407     0.056549603    -0.496551878
   58    34.482605430    10.655817100     7.717661881    -0.014585787     0.055835233    -0.496658516
   59    36.134335471    12.134846874     8.432775593    -0.019291343     0.066346684    -0.495202950
   60    39.239641391    16.814162034     9.678396842    -0.004425992     0.049350720    -0.497538860
   61    39.404518695    12.187658368    10.581806669    -0.027916805     0.082111716    -0.492420875
   62    39.236287890    17.703568830     3.015968736    -0.029082345     0.051166649    -0.496524109
   63    32.498867194    18.237200348    10.209804694    -0.002075953     0.051142158    -0.497373270
   64    33.838826678    19.558892502     1.276623533    -0.016679224     0.050785391    -0.497134436
   65    34.965772388    14.285516417     4.123576104     0.046570153     0.065685686    -0.493474023
   66    31.364081963    17.167263868     8.716932052     0.003237803     0.050433559    -0.497439416
   67    38.195065430    13.196167927     8.828728156    -0.026123920     0.060165576    -0.495678973
   68    31.358106236    12.726654037     5.928096088    -0.018217277     0.257564380    -0.428169033
   21     2.028420309    26.386416769     3.872876778     0.016522519    -0.053456412     0.496859556
   22     9.360725979    21.770039224     5.912803499     0.003792770     0.181636126    -0.465826075
   23     9.244799561    29.297364936     6.777643130    -0.006641626     0.063868786    -0.495859523
   24     4.191590134    24.185078584     7.605754550    -0.023352665     0.030191312    -0.498541009
   25     5.470248944    20.428928866     0.890770621    -0.005591663     0.042634121    -0.498147634
   26     2.029474901    21.011306749     7.427915829    -0.044391866     0.384144042     0.316958541
   27     0.694098079    23.011565226     2.716119254    -0.068534034     0.031961993    -0.494248437
   28     7.687258796    25.450378973     0.985398118    -0.036230829     0.048458305    -0.496325619
   29     8.399888618    28.103191876     5.064912944    -0.005190661     0.068010518    -0.495325778
   30     7.169855347    29.016853256     1.761958218    -0.022616714     0.071161648    -0.494393066
   31     5.682224409    29.980603948     8.776349434    -0.018613809     0.058494972    -0.496217557
   32     7.809099297    20.631591185     8.005277936    -0.011508737     0.032184737    -0.498830324
   33     0.872322629    28.005917773     5.407495321    -0.017335067     0.083300205    -0.492707389
   34    10.469626600    22.990683734     8.125727796     0.001921795     0.441770399    -0.234169216
   35     7.841915812    27.592328000     0.301940295    -0.030112995     0.055771268    -0.495966504
   36     7.355684180    22.579087875     5.636011002    -0.017824682     0.137735883    -0.480323961
   37     7.861243541    25.191967760     7.572722261    -0.019410275     0.038191539    -0.498161267
   38     5.946291731    26.109174531     4.271861008    -0.034032364     0.062949131    -0.494852710
   39     8.132798432    25.804515245     3.697386998    -0.048508318     0.053208861    -0.494788602
   40     2.899208864    28.823270992     6.244351899    -0.016611964     0.064509430    -0.495542709
   41     6.398580907    22.015175556     3.685329012    -0.024896935     0.118695925    -0.485068469
   42     0.682691187    28.456763022     3.134363062    -0.028237254     0.064935201    -0.494960682
   43     4.220501914    27.041453516     5.278754073    -0.029401601     0.061816046    -0.495292159
   44     9.160897122    24.040794905     4.562092906    -0.052040627     0.058665037    -0.493811894
   45     4.500327932    29.557502355     4.737918158    -0.013554975     0.060359280    -0.496158261
   46     7.592354342    21.236005996     2.037659503    -0.034072020     0.105605031    -0.487531204
   47     7.016818372    21.805739735     9.602424232    -0.015932294     0.028683610    -0.498922251
   48    10.221733479    23.462589602     0.523526324    -0.024181751     0.045836342    -0.497307021
   49     3.461199916    25.314748209     1.613421152     0.019237874    -0.032447135     0.498575057
   50     6.615959940    29.388834545     6.734475063    -0.002773218     0.041801744    -0.498241832
   51     9.892930044    25.822446924     0.662859948    -0.024369670     0.043275287    -0.497527254
   52     9.600382614    29.584828681     1.364038577     0.004648835     0.057563875    -0.496653590
   53     8.869609278    24.264990301     9.287051383    -0.025026006     0.030011735    -0.498470656
   54     5.028721509    22.371699589     9.598469122    -0.021011107     0.059477770    -0.496004968
   55     3.474944655    30.040008816     2.499875656    -0.009791489     0.066415019    -0.495472675
   56     6.586086188    24.032630467     9.463928369    -0.022146108     0.028510963    -0.498694972
   57     5.475752707    25.958798171     7.093697025    -0.022919564     0.043626998    -0.497565452
   58     4.348713052    20.246929986     6.884026696    -0.013136191     0.028373414    -0.499021432
   59     6.000443093    21.725959760     7.599140408    -0.016214826     0.039494527    -0.498173927
   60     9.105749012    26.405274920     8.844761657    -0.019843216     0.038073911    -0.498153213
   61     9.270626317    21.778771254     9.748171483    -0.018156008     0.057515541    -0.496348992
   62     9.102395512    27.294681716     2.182333551    -0.030307247     0.047269624    -0.496837049
   63     2.364974815    27.828313234     9.376169509    -0.004183013     0.069734226    -0.495095587
   64     3.704934300    29.150005388     0.442988348    -0.010599754     0.062156167    -0.496008323
   65     4.831880009    23.876629303     3.289940919     0.063073585     0.036672164    -0.494648234
   66     1.230189585    26.758376754     7.883296866     0.000702534     0.073510246    -0.494566224
   67     8.061173051    22.787280813     7.995092971    -0.033031869     0.034010322    -0.497747118
   68     1.224213858    22.317766923     5.094460903    -0.001627538     0.275118244    -0.417501261
   21    12.118076258    26.531076981     4.160963648     0.025045100    -0.018934695     0.499013247
   22    19.450381929    21.914699436     6.200890368     0.033818568     0.161081325    -0.472132515
   23    19.334455510    29.442025147     7.065729999    -0.006987415     0.048035544    -0.497638184
   24    14.281246084    24.329738795     7.893841420    -0.013900818     0.009299496    -0.499720208
   25    15.559904894    20.573589078     1.178857491    -0.007229591     0.010345020    -0.499840688
   26    12.119130851    21.155966961     7.716002698    -0.011999632     0.399289147     0.300706145
   27    10.783754028    23.156225438     3.004206123    -0.071926928     0.007992510    -0.494734916
   28    17.776914746    25.595039185     1.273484988    -0.035906358     0.030190426    -0.497794407
   29    18.489544567    28.247852088     5.352999814    -0.004800196     0.050532466    -0.497416755
   30    17.259511297    29.161513468     2.050045088    -0.020496833     0.054941184    -0.496549440
   31    15.771880359    30.125264160     9.064436303    -0.021641175     0.034670524    -0.498326815
   32    17.898755247    20.776251397     8.293364805     0.001612345     0.013526677    -0.499814395
   33    10.961978579    28.150577985     5.695582190    -0.017324120     0.058000743    -0.496322263
   34    20.559282550    23.135343946     8.413814665     0.080853132     0.427300192    -0.246733292
   35    17.931571761    27.736988211     0.590027165    -0.029369471     0.039154717    -0.497598576
   36    17.445340130    22.723748087     5.924097872     0.004062501     0.117404436    -0.486003801
   37    17.950899491    25.336627972     7.860809131    -0.009254683     0.020236058    -0.499504607
   38    16.035947681    26.253834743     4.559947877    -0.028520770     0.043327709    -0.497301996
   39    18.222454381    25.949175456     3.985473868    -0.042247077     0.037310365    -0.496812964
   40    12.988864813    28.967931204     6.532438768    -0.018187102     0.040374377    -0.498035279
   41    16.488236857    22.159835768     3.973415881    -0.006871951     0.097129087    -0.490427076
   42    10.772347136    28.601423234     3.422449932    -0.026639362     0.040612688    -0.497635362
   43    14.310157864    27.186113728     5.566840943    -0.025342248     0.040537023    -0.497709273
   44    19.250553072    24.185455117     4.850179776    -0.044759631     0.041919956    -0.496225042
   45    14.589983882    29.702162567     5.026005028    -0.013796094     0.037235981    -0.498420655
   46    17.682010292    21.380666207     2.325746373    -0.019700958     0.082690735    -0.492721133
   47    17.106474322    21.950399947     9.890511102     0.004253295     0.004274008    -0.499963641
   48    20.311389428    23.607249814     0.811613194    -0.027534980     0.021109545    -0.498794759
   49    13.550855866    25.459408421     1.901508021     0.005013594    -0.005703227     0.499942334
   50    16.705615890    29.533494757     7.022561933     0.000033377     0.018643675    -0.499652291
   51    19.982585994    25.967107135     0.950946818    -0.022423068     0.027949483    -0.498714380
   52    19.690038564    29.729488893     1.652125446     0.007885545     0.042174064    -0.498155765
   53    18.959265227    24.409650512     9.575138253    -0.016329985     0.009717097    -0.499638779
   54    15.118377459    22.516359800     9.886555991    -0.004575014     0.034971089    -0.498754541
   55    13.564600605    30.184669028     2.787962525    -0.009243747     0.045921190    -0.497800962
   56    16.675742138    24.177290678     9.752015238    -0.008265041     0.002907587    -0.499923229
   57    15.565408657    26.103458382     7.381783894    -0.014397373     0.023515446    -0.499239161
   58    14.438369002    20.391590198     7.172113565    -0.002996756     0.004699486    -0.499968933
   59    16.090099043    21.870619972     7.887227278    -0.002599245     0.018722798    -0.499642573
   60    19.195404962    26.549935132     9.132848527    -0.013414203     0.020915074    -0.499382237
   61    19.360282266    21.923431466    10.036258353    -0.000827478     0.035366096    -0.498746985
   62    19.192051462    27.439341928     2.470420421    -0.027034901     0.033562759    -0.498139193
   63    12.454630765    27.972973445     9.664256378    -0.013092251     0.039829288    -0.498239120
   64    13.794590249    29.294665599     0.731075218    -0.007984997     0.042438886    -0.498131690
   65    14.921535959    24.021289515     3.578027788     0.065193774     0.013972247    -0.495534608
   66    11.319845535    26.903036966     8.171383736    -0.007365700     0.044179407    -0.497989886
   67    18.150829001    22.931941025     8.283179840    -0.019622875     0.014531363    -0.499403426
   68    11.313869807    22.462427135     5.382547773     0.022587105     0.256700423    -0.428479539
   21    22.207732208    26.675737193     4.449050518     0.015457332    -0.030691033     0.498817734
   22    29.540037878    22.059359647     6.488977238    -0.040942224     0.185968684    -0.462319568
   23    29.424111460    29.586685359     7.353816869    -0.016608143     0.075060601    -0.494054730
   24    24.370902034    24.474399007     8.181928289    -0.022903595     0.044685943    -0.497472202
   25    25.649560844    20.718249289     1.466944360    -0.010488481     0.030969689    -0.498929725
   26    22.208786801    21.300627172     8.004089568     0.081569537     0.375345848     0.320096712
   27    20.873409978    23.300885650     3.292292993    -0.075903903    -0.012240951    -0.494053395
   28    27.866570696    25.739699397     1.561571857    -0.052839280     0.044387777    -0.495214838
   29    28.579200517    28.392512299     5.641086683    -0.015781072     0.075912505    -0.493951667
   30    27.349167247    29.306173679     2.338131958    -0.036391013     0.069501204    -0.493806923
   31    25.861536308    30.269924372     9.352523173    -0.026248672     0.062046240    -0.495440482
   32    27.988411197    20.920911609     8.581451675    -0.016303498     0.054515554    -0.496751699
   33    21.051634528    28.295238196     5.983669060    -0.016774556     0.060860181    -0.495998642
   34    30.648938500    23.280004157     8.701901535    -0.127205379     0.425191969    -0.230283697
   35    28.021227711    27.881648423     0.878114034    -0.044863658     0.053802658    -0.495068204
   36    27.534996080    22.868408299     6.212184742    -0.047618882     0.139320953    -0.477830633
   37    28.040555441    25.481288183     8.148896000    -0.016115965     0.059800229    -0.496149381
   38    26.125603631    26.398494954     4.848034747    -0.039170108     0.064630405    -0.494255615
   39    28.312110331    26.093835668     4.273560737    -0.060379921     0.051903245    -0.493619609
   40    23.078520763    29.112591416     6.820525638    -0.019766697     0.053586971    -0.496727002
   41    26.577892807    22.304495980     4.261502751    -0.050463643     0.117693423    -0.483323576
   42    20.862003086    28.746083446     3.710536801    -0.023163485     0.034328518    -0.498282055
   43    24.399813813    27.330773940     5.854927812    -0.032739235     0.062227402    -0.495031204
   44    29.340209022    24.330115329     5.138266646    -0.065490362     0.055291500    -0.492599089
   45    24.679639831    29.846822778     5.314091897    -0.017268588     0.053215032    -0.496860097
   46    27.771666242    21.525326419     2.613833242    -0.055648710     0.102869129    -0.486128752
   47    27.196130272    22.095060158    10.178597972    -0.018612029     0.050900071    -0.497054097
   48    30.401045378    23.751910026     1.099700063    -0.044745445     0.039084198    -0.496457723
   49    23.640511816    25.604068633     2.189594891     0.012815235    -0.022159754     0.499344285
   50    26.795271840    29.678154968     7.310648802    -0.005539111     0.045388360    -0.497904825
   51    30.072241943    26.111767347     1.239033687    -0.038774744     0.042736953    -0.496658909
   52    29.779694513    29.874149105     1.940212316    -0.010990939     0.058201942    -0.496479338
   53    29.048921177    24.554310724     9.863225122    -0.019389957     0.053882250    -0.496709908
   54    25.208033409    22.661020012    10.174642861    -0.018842177     0.081027352    -0.493030973
   55    23.654256555    30.329329239     3.076049395    -0.013547664     0.055394593    -0.496737254
   56    26.765398088    24.321950890    10.040102108    -0.021302411     0.049704021    -0.497067116
   57    25.655064606    26.248118594     7.669870764    -0.022915677     0.056558267    -0.496262062
   58    24.528024952    20.536250409     7.460200435    -0.018639292     0.039282052    -0.498105910
   59    26.179754993    22.015280183     8.175314147    -0.020393431     0.055333967    -0.496510080
   60    29.285060912    26.694595343     9.420935396    -0.017887154     0.060526971    -0.496000540
   61    29.449938216    22.068091677    10.324345223    -0.026539274     0.079614814    -0.492906835
   62    29.281707411    27.584002139     2.758507290    -0.043616792     0.049216953    -0.495656400
   63    22.544286715    28.117633657     9.952343248    -0.005390698     0.045370451    -0.497908086
   64    23.884246199    29.439325811     1.019162087    -0.012121279     0.048758329    -0.497469296
   65    25.011191909    24.165949727     3.866114658     0.015143941     0.057204563    -0.496485950
   66    21.409501484    27.047697177     8.459470606     0.000147537     0.041572012    -0.498268749
   67    28.240484951    23.076601236     8.571266710    -0.032002372     0.057254646    -0.495679083
   68    21.403525757    22.607087346     5.670634642     0.063134265     0.235226357    -0.436672218
   21    32.297388158    26.820397404     4.737137387     0.018911763    -0.052016415     0.496927196
   22    39.629693828    22.204019859     6.777064107    -0.014355672     0.202082952    -0.457117485
   23    39.513767410    29.731345571     7.641903738    -0.013947746     0.086497602    -0.492263776
   24    34.460557984    24.619059219     8.470015159    -0.024868820     0.056941310    -0.496124207
   25    35.739216794    20.862909501     1.755031230    -0.020321422     0.058493187    -0.496150770
   26    32.298442751    21.445287384     8.292176437    -0.146902912     0.358848010     0.315670145
   27    30.963065928    23.445545861     3.580379863    -0.073506582    -0.001746481    -0.494564184
   28    37.956226646    25.884359608     1.849658727    -0.042678957     0.068116913    -0.493496295
   29    38.668856467    28.537172511     5.929173553    -0.010023383     0.090189578    -0.491696422
   30    37.438823197    29.450833891     2.626218827    -0.028610317     0.088967871    -0.491188526
   31    35.951192258    30.414584583     9.640610042    -0.026116043     0.076962266    -0.493350547
   32    38.078067147    21.065571820     8.869538545    -0.024894820     0.061283617    -0.495605252
   33    31.141290478    28.439898408     6.271755930    -0.021874709     0.082390916    -0.492679646
   34    40.738594449    23.424664369     8.989988404    -0.049219218     0.445884436    -0.220826943
   35    38.110883661    28.026308635     1.166200904    -0.036183817     0.074738924    -0.493056614
   36    37.624652029    23.013068510     6.500271611    -0.031293314     0.159047155    -0.472995487
   37    38.130211391    25.625948395     8.436982870    -0.015623056     0.068852241    -0.494990191
   38    36.215259580    26.543155166     5.136121616    -0.031671772     0.085268706    -0.491656533
   39    38.401766281    26.238495880     4.561647607    -0.050000414     0.075581442    -0.491718826
   40    33.168176713    29.257251627     7.108612508    -0.021939467     0.072836212    -0.494179670
   41    36.667548756    22.449156191     4.549589621    -0.040441608     0.138699240    -0.478672119
   42    30.951659036    28.890743657     3.998623671    -0.035687443     0.052694599    -0.495933146
   43    34.489469763    27.475434151     6.143014682    -0.027751503     0.081774099    -0.492486397
   44    39.429864971    24.474775540     5.426353515    -0.054067726     0.081374637    -0.490361958
   45    34.769295781    29.991482990     5.602178767    -0.018086531     0.071447159    -0.494538351
   46    37.861322192    21.669986631     2.901920112    -0.050555913     0.125133481    -0.481441286
   47    37.285786222    22.239720370    10.466684841    -0.013858876     0.062582555    -0.495874334
   48    40.490701328    23.896570237     1.387786933    -0.032030526     0.067196785    -0.494427586
   49    33.730167765    25.748728844     2.477681760     0.021066114    -0.023131940     0.499020172
   50    36.884927790    29.822815180     7.598735672    -0.003941308     0.060653038    -0.496291925
   51    40.161897893    26.256427559     1.527120557    -0.029729830     0.063537344    -0.495054687
   52    39.869350463    30.018809316     2.228299185    -0.002250796     0.077194374    -0.493999962
   53    39.138577127    24.698970936    10.151311992    -0.022070415     0.062262998    -0.495617005
   54    35.297689359    22.805680224    10.462729730    -0.027518429     0.090675438    -0.490938592
   55    33.743912505    30.473989451     3.364136264    -0.017542131     0.072314569    -0.494431873
   56    36.855054038    24.466611102    10.328188977    -0.025287619     0.059263757    -0.495830963
   57    35.744720556    26.392778806     7.957957633    -0.022369321     0.069918764    -0.494581621
   58    34.617680902    20.680910621     7.748287305    -0.020924581     0.055869228    -0.496428032
   59    36.269410942    22.159940395     8.463401017    -0.027342405     0.067264174    -0.494699832
   60    39.374716862    26.839255555     9.709022266    -0.017281208     0.067387916    -0.495136576
   61    39.539594166    22.212751889    10.612432092    -0.022081026     0.089888650    -0.491357771
   62    39.371363361    27.728662351     3.046594160    -0.033454136     0.069174096    -0.494060487
   63    32.633942665    28.262293869    10.240430118    -0.011821476     0.073499110    -0.494427076
   64    33.973902149    29.583986023     1.307248957    -0.017652732     0.065395688    -0.495390538
   65    35.100847859    24.310609938     4.154201528     0.048338662     0.017617493    -0.497345954
   66    31.499157434    27.192357389     8.747557475    -0.005811698     0.073211745    -0.494576854
   67    38.330140901    23.221261448     8.859353579    -0.033808621     0.066487010    -0.494405152
   68    31.493181707    22.751747558     5.958721512    -0.040783105     0.261086573    -0.424465004
   21     2.163495780    36.411510290     3.903502202     0.017707627    -0.047970530     0.497378395
   22     9.495801450    31.795132745     5.943428922    -0.021718780     0.197918305    -0.458646530
   23     9.379875032    39.322458457     6.808268553     0.003719737     0.037852793    -0.498551231
   24     4.326665605    34.210172105     7.636379974    -0.011952365     0.041216017    -0.498154977
   25     5.605324415    30.454022387     0.921396045    -0.010557174     0.059752341    -0.496304547
   26     2.164550372    31.036400270     7.458541252    -0.171672809     0.336067433     0.328004766
   27     0.829173550    33.036658747     2.746744677    -0.061391169     0.029214698    -0.495356060
   28     7.822334267    35.475472494     1.016023542    -0.033358178     0.046709070    -0.496694569
   29     8.534964089    38.128285397     5.095538368    -0.010010122     0.041277513    -0.498192698
   30     7.304930818    39.041946777     1.792583642    -0.018392288     0.064229707    -0.495516164
   31     5.817299880    40.005697469     8.806974857    -0.018318189     0.033731149    -0.498524476
   32     7.944174769    30.656684706     8.035903359    -0.010347575     0.061111615    -0.496143425
   33     1.007398100    38.031011294     5.438120744    -0.020216624     0.073929372    -0.494090818
   34    10.604702071    33.015777255     8.156353219    -0.083417979     0.444638246    -0.212927854
   35     7.976991283    37.617421521     0.332565719    -0.026695566     0.051655097    -0.496607589
   36     7.490759651    32.604181396     5.666636426    -0.032177594     0.150808267    -0.475627448
   37     7.996319012    35.217061281     7.603347685    -0.010243761     0.044809245    -0.497882714
   38     6.081367202    36.134268052     4.302486431    -0.029140243     0.061326099    -0.495368505
   39     8.267873903    35.829608766     3.728012422    -0.045561059     0.050771180    -0.495324618
   40     3.034284335    38.848364513     6.274977322    -0.020059262     0.049890248    -0.497100180
   41     6.533656378    32.040269077     3.715954435    -0.038503878     0.131214338    -0.480936845
   42     0.817766658    38.481856543     3.164988486    -0.029640517     0.060379597    -0.495455088
   43     4.355577385    37.066547037     5.309379497    -0.025134445     0.058423135    -0.495938501
   44     9.295972593    34.065888426     4.592718330    -0.051175303     0.058112355    -0.493967653
   45     4.635403403    39.582595876     4.768543582    -0.015180913     0.045682841    -0.497677223
   46     7.727429813    31.261099517     2.068284927    -0.046354074     0.117896144    -0.483685641
   47     7.151893843    31.830833256     9.633049656    -0.010197389     0.054474180    -0.496919085
   48    10.356808950    33.487683123     0.554151748    -0.024259109     0.052815006    -0.496610583
   49     3.596275387    35.339841730     1.644046575     0.004357411    -0.032701189     0.498910458
   50     6.751035411    39.413928066     6.765100486    -0.005897835     0.004379697    -0.499946031
   51    10.028005515    35.847540445     0.693485372    -0.021457242     0.038191432    -0.498077305
   52     9.735458085    39.609922202     1.394664000     0.013360134     0.047582798    -0.497551388
   53     9.004684749    34.290083822     9.317676806    -0.015943154     0.041237031    -0.498041487
   54     5.163796980    32.396793110     9.629094545    -0.005426819     0.084204785    -0.492828676
   55     3.610020126    40.065102337     2.530501079    -0.009531890     0.056500213    -0.496706019
   56     6.721161659    34.057723988     9.494553792    -0.011576007     0.049895793    -0.497369486
   57     5.610828178    35.983891692     7.124322448    -0.013132308     0.050749773    -0.497244410
   58     4.483788523    30.272023507     6.914652119    -0.010371330     0.059625833    -0.496323680
   59     6.135518564    31.751053281     7.629765832    -0.012427492     0.068071472    -0.495188683
   60     9.240824483    36.430368441     8.875387081    -0.014109194     0.036749744    -0.498447978
   61     9.405701788    31.803864775     9.778796907    -0.016660066     0.079857314    -0.493300367
   62     9.237470983    37.319775237     2.212958975    -0.027390145     0.038963636    -0.497726446
   63     2.500050287    37.853406755     9.406794932    -0.006360200     0.063310113    -0.495934852
   64     3.840009771    39.175098909     0.473613771    -0.008712259     0.054087507    -0.496989575
   65     4.966955480    33.901722824     3.320566342     0.058080713     0.073141865    -0.491199449
   66     1.365265056    36.783470275     7.913922290    -0.001750783     0.069783009    -0.495103289
   67     8.196248522    32.812374334     8.025718394    -0.024565679     0.055039884    -0.496353844
   68     1.359289329    32.342860444     5.125086327    -0.043707363     0.289986654    -0.404965933
   21    12.253151729    36.556170502     4.191589072     0.009776079     0.000198824     0.499904380
   22    19.585457400    31.939792957     6.231515792    -0.010815303     0.185022337    -0.464381055
   23    19.469530981    39.467118668     7.096355423    -0.002684367     0.030823966    -0.499041759
   24    14.416321555    34.354832316     7.924466843    -0.016410931     0.020400139    -0.499314045
   25    15.694980365    30.598682599     1.209482914    -0.008595453     0.042379447    -0.498126591
   26    12.254206322    31.181060482     7.746628122    -0.095798133     0.373185358     0.318677590
   27    10.918829499    33.181318959     3.034831547    -0.060584981     0.006793014    -0.496269398
   28    17.911990217    35.620132706     1.304110411    -0.033028710     0.036276849    -0.497587273
   29    18.624620038    38.272945609     5.383625237     0.006291428     0.034740760    -0.498751940
   30    17.394586768    39.186606989     2.080670512    -0.015316887     0.051728556    -0.497081029
   31    15.906955830    40.150357681     9.095061727    -0.012394059     0.006744832    -0.499800855
   32    18.033830718    30.801344918     8.323990229    -0.014244863     0.038578056    -0.498305948
   33    11.097054050    38.175671506     5.726207614    -0.007997893     0.039169450    -0.498399225
   34    20.694358021    33.160437467     8.444440089    -0.044325067     0.442919911    -0.227721849
   35    18.066647233    37.762081732     0.620652588    -0.026829193     0.041908682    -0.497517695
   36    17.580415601    32.748841608     5.954723296    -0.024772382     0.137528342    -0.480075290
   37    18.085974962    35.361721493     7.891434554    -0.014591574     0.026016079    -0.499109457
   38    16.171023152    36.278928264     4.590573301    -0.022962690     0.044712273    -0.497467112
   39    18.357529852    35.974268977     4.016099291    -0.041467841     0.041168708    -0.496573817
   40    13.123940284    38.993024725     6.563064192    -0.007206539     0.018809668    -0.499594097
   41    16.623312328    32.184929289     4.004041305    -0.031091127     0.118236473    -0.484823141
   42    10.907422607    38.626516755     3.453075355    -0.022014260     0.024758329    -0.498901190
   43    14.445233335    37.211207249     5.597466366    -0.017557126     0.038581569    -0.498199970
   44    19.385628543    34.210548638     4.880805200    -0.046266989     0.048606729    -0.495476288
   45    14.725059353    39.727256088     5.056630451    -0.001333299     0.019341226    -0.499623998
   46    17.817085763    31.405759728     2.356371796    -0.039245508     0.104837821    -0.487307728
   47    17.241549793    31.975493468     9.921136526    -0.019634740     0.022060613    -0.499127044
   48    20.446464899    33.632343335     0.842238617    -0.025790535     0.039142144    -0.497797892
   49    13.685931337    35.484501942     1.932133445    -0.004916538     0.010347797     0.499868734
   50    16.840691361    39.558588278     7.053187356     0.006908977    -0.005916246    -0.499917257
   51    20.117661465    35.992200656     0.981572241    -0.020687691     0.031181202    -0.498597786
   52    19.825114035    39.754582414     1.682750870     0.013281327     0.037568595    -0.498409678
   53    19.094340698    34.434744033     9.605763676    -0.020294414     0.018363459    -0.499250358
   54    15.253452930    32.541453321     9.917181415    -0.020128687     0.057489817    -0.496275888
   55    13.699676076    40.209762549     2.818587949     0.000618637     0.032711098    -0.498928453
   56    16.810817609    34.202384199     9.782640662    -0.019973775     0.024138826    -0.499017400
   57    15.700484128    36.128551903     7.412409318    -0.015554511     0.030965972    -0.498797720
   58    14.573444473    30.416683719     7.202738989    -0.012936673     0.035855824    -0.498544885
   59    16.225174514    31.895713493     7.917852701    -0.015710346     0.045467097    -0.497680548
   60    19.330480433    36.575028653     9.163473950    -0.017489483     0.021736756    -0.499221025
   61    19.495357737    31.948524987    10.066883776    -0.026211919     0.042646809    -0.497487874
   62    19.327126933    37.464435449     2.501045844    -0.024374545     0.034204652    -0.498232800
   63    12.589706236    37.998066966     9.694881802    -0.005066775     0.023228691    -0.499434436
   64    13.929665720    39.319759120     0.761700641     0.000846090     0.030936627    -0.499041290
   65    15.056611430    34.046383036     3.608653212     0.029056619     0.075922378    -0.493347246
   66    11.454921006    36.928130487     8.202009160    -0.000247600     0.032912190    -0.498915550
   67    18.285904472    32.957034546     8.313805264    -0.029814730     0.031630604    -0.498107003
   68    11.448945278    32.487520656     5.413173196    -0.016070913     0.273635961    -0.418168730
   21    22.342807679    36.700830714     4.479675941     0.012686558    -0.030034113     0.498935871
   22    29.675113349    32.084453168     6.519602661    -0.042105053     0.204911979    -0.454134612
   23    29.559186931    39.611778880     7.384442292    -0.015457293     0.073515278    -0.494324363
   24    24.505977505    34.499492528     8.212553713    -0.026227586     0.053042297    -0.496486282
   25    25.784636315    30.743342810     1.497569784    -0.018155571     0.055259138    -0.496605279
   26    22.343862272    31.325720693     8.034714991    -0.045270195     0.379553158     0.322319732
   27    21.008485449    33.325979171     3.322918417    -0.060519329    -0.003822946    -0.496309174
   28    28.001646167    35.764792918     1.592197281    -0.042463071     0.061311958    -0.494406444
   29    28.714275988    38.417605820     5.671712107    -0.011289870     0.077308175    -0.493858264
   30    27.484242718    39.331267200     2.368757381    -0.029601554     0.077224821    -0.493112639
   31    25.996611779    40.295017893     9.383148596    -0.030744645     0.056811265    -0.495809688
   32    28.123486668    30.946005130     8.612077099    -0.019176078     0.069670205    -0.494750786
   33    21.186710000    38.320331717     6.014294484    -0.018053133     0.057856879    -0.496313072
   34    30.784013971    33.305097678     8.732526958    -0.129593303     0.433838067    -0.212108717
   35    28.156303182    37.906741944     0.908739458    -0.036807570     0.067381784    -0.494069730
   36    27.670071551    32.893501820     6.242810165    -0.047204777     0.159221239    -0.471614574
   37    28.175630912    35.506381704     8.179521424    -0.019029640     0.066070607    -0.495249985
   38    26.260679102    36.423588475     4.878660170    -0.037041966     0.074090343    -0.493090776
   39    28.447185802    36.118929189     4.304186161    -0.054104585     0.067075594    -0.492517572
   40    23.213596234    39.137684937     6.851151062    -0.022183274     0.052202316    -0.496772403
   41    26.712968278    32.329589501     4.292128175    -0.050303543     0.139398149    -0.477532941
   42    20.997078557    38.771176967     3.741162225    -0.020136880     0.031935775    -0.498572575
   43    24.534889284    37.355867461     5.885553236    -0.031567087     0.069364625    -0.494157938
   44    29.475284493    34.355208850     5.168892069    -0.059382934     0.072504170    -0.491138282
   45    24.814715302    39.871916299     5.344717321    -0.020005025     0.053037535    -0.496776427
   46    27.906741713    31.550419940     2.644458666    -0.056434278     0.125500209    -0.480692074
   47    27.331205743    32.120153679    10.209223395    -0.018596650     0.066315769    -0.495233665
   48    30.536120849    33.777003547     1.130325487    -0.030674343     0.062371867    -0.495145266
   49    23.775587287    35.629162154     2.220220314     0.007972598    -0.005683742     0.499904124
   50    26.930347311    39.703248490     7.341274226    -0.012391389     0.040601845    -0.498194685
   51    30.207317415    36.136860868     1.269659111    -0.030009336     0.057649941    -0.495757929
   52    29.914769984    39.899242626     1.970837739    -0.003224617     0.065973698    -0.495617870
   53    29.183996648    34.579404245     9.893850546    -0.021824084     0.061859646    -0.495678417
   54    25.343108880    32.686113533    10.205268284    -0.019437873     0.094689654    -0.490567058
   55    23.789332026    40.354422760     3.106674818    -0.016628358     0.055582627    -0.496622663
   56    26.900473559    34.347044411    10.070727531    -0.023616115     0.061797312    -0.495604047
   57    25.790140077    36.273212115     7.700496187    -0.025311496     0.064364847    -0.495193391
   58    24.663100423    30.561343930     7.490825859    -0.018810414     0.057787775    -0.496293000
   59    26.314830464    32.040373704     8.205939571    -0.022875375     0.071427669    -0.494342801
   60    29.420136383    36.719688864     9.451560820    -0.020410976     0.064151208    -0.495447287
   61    29.585013687    32.093185198    10.354970646    -0.025299258     0.094769395    -0.490284315
   62    29.416782882    37.609095660     2.789132714    -0.036323913     0.061556107    -0.494865051
   63    22.679362186    38.142727178     9.982968672    -0.014174606     0.042881859    -0.497956049
   64    24.019321670    39.464419332     1.049787511    -0.016136368     0.048973299    -0.497334127
   65    25.146267380    34.191043248     3.896740082     0.025546137     0.084417763    -0.492159564
   66    21.544576955    37.072790698     8.490096029    -0.007324119     0.040176792    -0.498329392
   67    28.375560422    33.101694757     8.601892133    -0.033127810     0.069830474    -0.493990135
   68    21.538601228    32.632180867     5.701260066     0.000345004     0.261688829    -0.426050276
   21    32.432463629    36.845490925     4.767762811     0.024436982    -0.054167035     0.496456208
   22    39.764769299    32.229113380     6.807689531    -0.042644364     0.217168192    -0.448351909
   23    39.648842881    39.756439092     7.672529162    -0.013085638     0.079529829    -0.493461014
   24    34.595633455    34.644152740     8.500640582    -0.023038653     0.065809303    -0.495114488
   25    35.874292265    30.888003022     1.785656654    -0.017008006     0.071975438    -0.494500014
   26    32.433518222    31.470380905     8.322801861    -0.146199986     0.346924162     0.329042839
   27    31.098141399    33.470639382     3.611005286    -0.064002295     0.018156844    -0.495554271
   28    38.091302117    35.909453129     1.880284150    -0.040387382     0.070840734    -0.493305635
   29    38.803931938    38.562266032     5.959798976    -0.009775425     0.084703402    -0.492676136
   30    37.573898668    39.475927412     2.656844251    -0.029392156     0.087975988    -0.491321002
   31    36.086267729    40.439678104     9.671235466    -0.027201254     0.072265756    -0.494001774
   32    38.213142618    31.090665341     8.900163968    -0.017659018     0.082711574    -0.492795043
   33    31.276365949    38.464991929     6.302381353    -0.022348209     0.084866990    -0.492237901
   34    40.873669920    33.449757890     9.020613828    -0.141048214     0.437285068    -0.197198302
   35    38.245959132    38.051402156     1.196826327    -0.034775101     0.076082236    -0.492952519
   36    37.759727501    33.038162031     6.530897035    -0.048610349     0.171227556    -0.467245287
   37    38.265286862    35.651041916     8.467608294    -0.015829367     0.074946845    -0.494097563
   38    36.350335051    36.568248687     5.166747040    -0.035541458     0.087268706    -0.491040709
   39    38.536841752    36.263589401     4.592273030    -0.052960427     0.076787158    -0.491221870
   40    33.303252184    39.282345148     7.139237931    -0.023066991     0.073279517    -0.494062776
   41    36.802624227    32.474249712     4.580215044    -0.052885320     0.151338713    -0.473602932
   42    31.086734507    38.915837178     4.029249094    -0.031029652     0.060641032    -0.495338092
   43    34.624545234    37.500527672     6.173640105    -0.031141184     0.083894536    -0.491926756
   44    39.564940442    34.499869061     5.456978939    -0.058247648     0.082958298    -0.489617333
   45    34.904371252    40.016576511     5.632804190    -0.019717495     0.071802490    -0.494424537
   46    37.996397663    31.695080152     2.932545535    -0.058660663     0.137861367    -0.477025335
   47    37.420861693    32.264813891    10.497310265    -0.020448995     0.077965520    -0.493460451
   48    40.625776799    33.921663758     1.418412356    -0.028565464     0.074506824    -0.493591681
   49    33.865243236    35.773822365     2.508307184     0.025122996    -0.018892749     0.499010921
   50    37.020003261    39.847908701     7.629361095    -0.008270015     0.055463451    -0.496845461
   51    40.296973364    36.281521080     1.557745980    -0.028748853     0.064559369    -0.494980395
   52    40.004425934    40.043902837     2.258924609    -0.004365204     0.075177341    -0.494296786
   53    39.273652598    34.724064457    10.181937415    -0.020463837     0.071405013    -0.494451773
   54    35.432764830    32.830773745    10.493355154    -0.019658438     0.107113342    -0.487996186
   55    33.878987976    40.499082972     3.394761688    -0.016473128     0.074774127    -0.494102688
   56    36.990129509    34.491704623    10.358814401    -0.023563558     0.073663152    -0.493982286
   57    35.879796027    36.417872327     7.988583057    -0.022363362     0.076570934    -0.493595758
   58    34.752756373    30.706004142     7.778912728    -0.017087124     0.074680633    -0.494095976
   59    36.404486414    32.185033916     8.494026440    -0.021442237     0.086495448    -0.491994683
   60    39.509792333    36.864349076     9.739647689    -0.018042419     0.069959126    -0.494752657
   61    39.674669637    32.237845410    10.643057516    -0.028763932     0.104511035    -0.488108676
   62    39.506438832    37.753755872     3.077219583    -0.034728830     0.068201327    -0.494107769
   63    32.769018136    38.287387390    10.271055541    -0.013041404     0.074012124    -0.494319863
   64    34.108977620    39.609079544     1.337874380    -0.015674504     0.069111689    -0.494952406
   65    35.235923330    34.335703459     4.184826951     0.037060715     0.100162008    -0.488460925
   66    31.634232905    37.217450910     8.778182899    -0.006785760     0.075021003    -0.494293235
   67    38.465216372    33.246354969     8.889979003    -0.031302642     0.081281233    -0.492355061
   68    31.628257178    32.776841079     5.989346936    -0.042344330     0.278477965    -0.413106500
   21     2.045140537     6.368365464    13.823611293     0.000785652     0.000618985     0.499999000
   22     9.377446208     1.751987918    15.863538013    -0.007470842     0.176368351    -0.467801658
   23     9.261519789     9.279313630    16.728377644     0.005912648     0.017531838    -0.499657558
   24     4.208310363     4.167027278    17.556489065    -0.015148158     0.022460995    -0.499265498
   25     5.486969173     0.410877561    10.841505136    -0.008746066     0.031445685    -0.498933538
   26     2.046195130     0.993255443    17.378650343    -0.140177119     0.357995263     0.319671342
   27     0.710818307     2.993513921    12.666853769    -0.063150170     0.017667240    -0.495681273
   28     7.703979025     5.432327668    10.936132633    -0.015851678     0.002869402    -0.499740423
   29     8.416608846     8.085140570    15.015647459     0.012703830     0.018461654    -0.499497528
   30     7.186575576     8.998801951    11.712692733    -0.006906449     0.021002157    -0.499510971
   31     5.698944638     9.962552643    18.727083948    -0.018261939     0.012032248    -0.499521498
   32     7.825819526     0.613539880    17.956012451    -0.011388077     0.049911833    -0.497372215
   33     0.889042858     7.987866467    15.358229835    -0.021182859     0.046810404    -0.497353066
   34    10.486346829     2.972632428    18.076462310    -0.054245873     0.435557058    -0.239473244
   35     7.858636041     7.574276694    10.252674810    -0.012929854     0.007385294    -0.499778227
   36     7.372404409     2.561036570    15.586745517    -0.017388030     0.126966062    -0.483298330
   37     7.877963770     5.173916455    17.523456776    -0.009038205     0.032253288    -0.498876775
   38     5.963011960     6.091123225    14.222595522    -0.019527890     0.034668583    -0.498414236
   39     8.149518660     5.786463939    13.648121513    -0.030572542     0.018403739    -0.498724996
   40     2.915929093     8.805219687    16.195086414    -0.016891942     0.024928404    -0.499092413
   41     6.415301136     1.997124251    13.636063527    -0.022591137     0.105407887    -0.488240533
   42     0.699411415     8.438711717    13.085097577    -0.027649597     0.034371295    -0.498050313
   43     4.237222143     7.023402211    15.229488588    -0.016572209     0.032522637    -0.498665860
   44     9.177617351     4.022743600    14.512827421    -0.035694503     0.026316139    -0.498029480
   45     4.517048161     9.539451049    14.688652673    -0.007358501     0.020610357    -0.499520836
   46     7.609074571     1.217954690    11.988394018    -0.031297630     0.090003634    -0.490835822
   47     7.033538601     1.787688429    19.553158747    -0.012872031     0.045741745    -0.497736882
   48    10.238453707     3.444538297    10.474260839    -0.009649304     0.012272590    -0.499756215
   49     3.477920145     5.296696904    11.564155666    -0.014845714     0.009817675     0.499683118
   50     6.632680169     9.370783240    16.685209578     0.003360767    -0.003536321    -0.499976199
   51     9.909650273     5.804395618    10.613594463    -0.003937213    -0.003042258    -0.499975242
   52     9.617102843     9.566777376    11.314773091     0.022250796     0.010661222    -0.499390869
   53     8.886329506     4.246938995    19.237785898    -0.017166664     0.029929335    -0.498808120
   54     5.045441738     2.353648283    19.549203636    -0.013116130     0.074338354    -0.494268931
   55     3.491664884    10.021957510    12.450610170    -0.005251954     0.022101417    -0.499483678
   56     6.602806417     4.014579161    19.414662883    -0.016257584     0.038209506    -0.498272741
   57     5.492472936     5.940746865    17.044431539    -0.012975337     0.031702635    -0.498825203
   58     4.365433281     0.228878680    16.834761211    -0.008519851     0.050486680    -0.497371599
   59     6.017163322     1.707908454    17.549874923    -0.013607506     0.056734582    -0.496584356
   60     9.122469241     6.387223614    18.795496172    -0.010254877     0.026947125    -0.499167998
   61     9.287346545     1.760719949    19.698905998    -0.019425500     0.071274643    -0.494512462
   62     9.119115741     7.276630410    12.133068066    -0.010156252     0.004143434    -0.499879668
   63     2.381695044     7.810261928    19.326904024    -0.011843122     0.047260941    -0.497620482
   64     3.721654528     9.131954082    10.393722863    -0.003894274     0.019615833    -0.499599894
   65     4.848600238     3.858577998    13.240675434    -0.005671717     0.040823068    -0.498298413
   66     1.246909814     6.740325449    17.834031381    -0.007012919     0.053644217    -0.497064500
   67     8.077893280     2.769229508    17.945827485    -0.026141270     0.042295564    -0.497521577
   68     1.240934086     2.299715618    15.045195418    -0.034905992     0.282368856    -0.411156176
   21    12.134796487     6.513025675    14.111698163    -0.005563921     0.008699035     0.499893358
   22    19.467102157     1.896648130    16.151624883    -0.003762925     0.149546547    -0.477097129
   23    19.351175739     9.423973842    17.016464514     0.008641620     0.017097504    -0.499632863
   24    14.297966313     4.311687490    17.844575934     0.000203566    -0.006111366    -0.499962608
   25    15.576625123     0.555537772    11.129592005    -0.002014066     0.000883953    -0.499995162
   26    12.135851080     1.137915655    17.666737213    -0.073746670     0.398638422     0.292658226
   27    10.800474257     3.138174132    12.954940638    -0.045032921    -0.030685474    -0.497021567
   28    17.793634975     5.576987879    11.224219502    -0.013485898     0.000769302    -0.499817505
   29    18.506264796     8.229800782    15.303734328     0.010582432     0.021911842    -0.499407532
   30    17.276231526     9.143462162    12.000779603    -0.002690086     0.017629713    -0.499681855
   31    15.788600587    10.107212855    19.015170818    -0.007925906     0.004217656    -0.499919385
   32    17.915475476     0.758200091    18.244099320    -0.003453688     0.015023503    -0.499762310
   33    10.978698808     8.132526679    15.646316705     0.000933266     0.022850086    -0.499476729
   34    20.576002779     3.117292640    18.364549180    -0.067019087     0.416692945    -0.268095937
   35    17.948291990     7.718936906    10.540761679    -0.009662451     0.006951014    -0.499858300
   36    17.462060359     2.705696781    15.874832387    -0.019379059     0.100367136    -0.489439363
   37    17.967619720     5.318576666    17.811543646     0.006410965     0.002029531    -0.499954778
   38    16.052667910     6.235783437    14.510682392    -0.009834202     0.011005730    -0.499782115
   39    18.239174610     5.931124151    13.936208382    -0.024663399     0.000113189    -0.499391333
   40    13.005585042     8.949879898    16.483173283    -0.002109135     0.005579127    -0.499964424
   41    16.504957086     2.141784462    13.924150396    -0.025869616     0.079942329    -0.492889427
   42    10.789067365     8.583371928    13.373184446     0.000096186     0.000509932    -0.499999731
   43    14.326878093     7.168062422    15.517575457    -0.002638677     0.010362611    -0.499885641
   44    19.267273301     4.167403811    14.800914291    -0.029889031     0.009984601    -0.499005965
   45    14.606704110     9.684111261    14.976739542     0.003592600    -0.000533331    -0.499986809
   46    17.698730521     1.362614902    12.276480887    -0.036098275     0.065265486    -0.494406038
   47    17.123194551     1.932348641    19.841245617     0.004322212     0.007946897    -0.499918159
   48    20.328109657     3.589198508    10.762347708    -0.009457625     0.000355074    -0.499910419
   49    13.567576095     5.441357116    11.852242536    -0.014128864     0.014831799     0.499580217
   50    16.722336119     9.515443451    16.973296447     0.012567670    -0.011121555    -0.499718285
   51    19.999306223     5.949055830    10.901681332    -0.000695088    -0.004191429    -0.499981948
   52    19.706758793     9.711437587    11.602859961     0.024222589     0.005575292    -0.499381800
   53    18.975985456     4.391599207    19.525872767     0.000983113    -0.000782907    -0.499998421
   54    15.135097688     2.498308495    19.837290506     0.001528340     0.034493197    -0.498806459
   55    13.581320834    10.166617722    12.738697040     0.004029352    -0.001943797    -0.499979986
   56    16.692462367     4.159239373    19.702749753     0.001637866     0.001874813    -0.499993802
   57    15.582128885     6.085407077    17.332518409     0.001457433     0.003901845    -0.499982651
   58    14.455089231     0.373538892    17.122848080    -0.002165315     0.000486343    -0.499995075
   59    16.106819272     1.852568666    17.837961792    -0.000924129     0.015145507    -0.499769707
   60    19.212125191     6.531883826    19.083583041     0.002725819     0.000582737    -0.499992230
   61    19.377002495     1.905380160    19.986992868    -0.002507618     0.037162429    -0.498610736
   62    19.208771690     7.421290622    12.421154935    -0.007158619     0.000418535    -0.499948576
   63    12.471350994     7.954922140    19.614990893    -0.000659506     0.019533956    -0.499617844
   64    13.811310478     9.276614294    10.681809732     0.005492680    -0.007412585    -0.499914877
   65    14.938256188     4.003238210    13.528762303     0.025480449    -0.016869596    -0.499065290
   66    11.336565763     6.884985660    18.122118251     0.006248388     0.025294305    -0.499320694
   67    18.167549230     2.913889719    18.233914355    -0.012139874     0.010602045    -0.499740153
   68    11.330590036     2.444375829    15.333282288    -0.000747756     0.253757682    -0.430820705
   21    22.224452437     6.657685887    14.399785032    -0.002737963     0.007683662     0.499933460
   22    29.556758107     2.041308342    16.439711752    -0.013391414     0.201438407    -0.457431130
   23    29.440831689     9.568634053    17.304551384     0.007486851     0.040385748    -0.498310083
   24    24.387622263     4.456347701    18.132662804    -0.019912262     0.028335058    -0.498799184
   25    25.666281073     0.700197984    11.417678875    -0.013640911     0.052630883    -0.497035125
   26    22.225507030     1.282575867    17.954824083    -0.106233202     0.380660953     0.306287031
   27    20.890130207     3.282834344    13.243027508    -0.038496764    -0.042522575    -0.496698933
   28    27.883290925     5.721648091    11.512306372    -0.033419158     0.043452538    -0.496985952
   29    28.595920746     8.374460994    15.591821198     0.008827873     0.046900086    -0.497717240
   30    27.365887476     9.288122374    12.288866472    -0.019463943     0.054181656    -0.496674444
   31    25.878256537    10.251873066    19.303257687    -0.007933137     0.013775019    -0.499747250
   32    28.005131426     0.902860303    18.532186190    -0.012183964     0.060187006    -0.496214747
   33    21.068354757     8.277186891    15.934403575     0.002049432     0.018578765    -0.499650507
   34    30.665658728     3.261952852    18.652636049    -0.061640343     0.451097376    -0.206667911
   35    28.037947940     7.863597117    10.828848549    -0.027929771     0.047794282    -0.496926186
   36    27.551716309     2.850356993    16.162919256    -0.026692606     0.152342916    -0.475477803
   37    28.057275670     5.463236878    18.099630515    -0.011251483     0.041503002    -0.498147473
   38    26.142323859     6.380443649    14.798769261    -0.020384974     0.047291774    -0.497340870
   39    28.328830560     6.075784362    14.224295252    -0.039950157     0.047784716    -0.496105438
   40    23.095240992     9.094540110    16.771260153    -0.003986120     0.003014916    -0.499975021
   41    26.594613035     2.286444674    14.212237266    -0.034038364     0.132345796    -0.480963595
   42    20.878723315     8.728032140    13.661271316    -0.001045917    -0.002413735    -0.499993080
   43    24.416534042     7.312722634    15.805662327    -0.014067252     0.037683673    -0.498379427
   44    29.356929250     4.312064023    15.089001160    -0.045004594     0.056840993    -0.494715765
   45    24.696360060     9.828771473    15.264826412     0.004111609     0.002367828    -0.499977488
   46    27.788386471     1.507275113    12.564567757    -0.043236246     0.118615502    -0.483798501
   47    27.212850501     2.077008853    20.129332486    -0.012515324     0.053621484    -0.496958855
   48    30.417765607     3.733858720    11.050434578    -0.024171581     0.050753137    -0.496829804
   49    23.657232044     5.586017327    12.140329406    -0.019417582     0.010750485     0.499507142
   50    26.811992069     9.660103663    17.261383317     0.010280266    -0.005393900    -0.499865204
   51    30.088962172     6.093716041    11.189768202    -0.020477150     0.037966615    -0.498135747
   52    29.796414742     9.856097799    11.890946830     0.001846276     0.042886265    -0.498153952
   53    29.065641406     4.536259418    19.813959637    -0.012187110     0.039894152    -0.498256893
   54    25.224753638     2.642968706    20.125377375    -0.014235174     0.082337467    -0.492968459
   55    23.670976784    10.311277934    13.026783910    -0.001540272     0.014089368    -0.499799077
   56    26.782118317     4.303899584    19.990836622    -0.014982268     0.046648548    -0.497593654
   57    25.671784835     6.230067288    17.620605278    -0.018061213     0.037995832    -0.498226966
   58    24.544745181     0.518199104    17.410934950    -0.012882353     0.050066513    -0.497320208
   59    26.196475222     1.997228878    18.126048662    -0.015667451     0.062138094    -0.495876384
   60    29.301781141     6.676544038    19.371669911    -0.012664051     0.036896085    -0.498475978
   61    29.466658445     2.050040372    20.275079737    -0.020696805     0.079867754    -0.493145804
   62    29.298427640     7.565950834    12.709241805    -0.023302110     0.040923663    -0.497777325
   63    22.561006944     8.099582351    19.903077763     0.008192421     0.007022687    -0.499883553
   64    23.900966428     9.421274505    10.969896602    -0.002959260     0.009365195    -0.499903527
   65    25.027912138     4.147898421    13.816849173     0.072440770     0.033620046    -0.493580821
   66    21.426221713     7.029645872    18.410205120     0.014389525     0.009240127    -0.499707476
   67    28.257205180     3.058549931    18.522001224    -0.025080050     0.054001536    -0.496442167
   68    21.420245986     2.589036041    15.621369157     0.000604314     0.227053336    -0.445473251
   21    32.314108387     6.802346099    14.687871902     0.005709808    -0.032614188     0.498902508
   22    39.646414057     2.185968553    16.727798622    -0.036044606     0.208300684    -0.453113243
   23    39.530487639     9.713294265    17.592638253    -0.016725354     0.057765783    -0.496370201
   24    34.477278212     4.601007913    18.420749674    -0.021364800     0.054850505    -0.496522877
   25    35.755937022     0.844858196    11.705765745    -0.012484613     0.068000390    -0.495197013
   26    32.315162980     1.427236078    18.242910952    -0.059487823     0.365621988     0.335829958
   27    30.979786157     3.427494556    13.531114377    -0.056207541     0.004431801    -0.496810901
   28    37.972946874     5.866308303    11.800393242    -0.041248598     0.050572223    -0.495722708
   29    38.685576696     8.519121205    15.879908068    -0.007777353     0.063606601    -0.495876712
   30    37.455543426     9.432782586    12.576953342    -0.027099821     0.068232319    -0.494580580
   31    35.967912487    10.396533278    19.591344557    -0.031856372     0.052379873    -0.496227287
   32    38.094787376     1.047520515    18.820273059    -0.020317853     0.076978612    -0.493620784
   33    31.158010707     8.421847102    16.222490444    -0.016963360     0.059648582    -0.496139387
   34    40.755314678     3.406613063    18.940722919    -0.119288575     0.440265051    -0.204785059
   35    38.127603890     8.008257329    11.116935418    -0.034835794     0.055712027    -0.495663835
   36    37.641372258     2.995017205    16.451006126    -0.043089786     0.161130903    -0.471359844
   37    38.146931619     5.607897089    18.387717385    -0.019176754     0.062656226    -0.495687855
   38    36.231979809     6.525103860    15.086856131    -0.037596765     0.068149919    -0.493904922
   39    38.418486510     6.220444574    14.512382122    -0.054624394     0.056888316    -0.493740717
   40    33.184896942     9.239200322    17.059347022    -0.021529592     0.050678288    -0.496958940
   41    36.684268985     2.431104886    14.500324135    -0.046037907     0.141702725    -0.477284872
   42    30.968379265     8.872692352    13.949358185    -0.014991995     0.038782735    -0.498268140
   43    34.506189992     7.457382846    16.093749196    -0.032715426     0.064389159    -0.494756240
   44    39.446585200     4.456724235    15.377088030    -0.059535803     0.065544453    -0.492096955
   45    34.786016010     9.973431684    15.552913282    -0.021254638     0.049835880    -0.497055958
   46    37.878042420     1.651935325    12.852654626    -0.052000485     0.128443336    -0.480414674
   47    37.302506451     2.221669064    20.417419356    -0.022328620     0.072137746    -0.494264685
   48    40.507421557     3.878518932    11.338521447    -0.028190348     0.060539125    -0.495520250
   49    33.746887994     5.730677539    12.428416275    -0.006463869     0.001913450     0.499954555
   50    36.901648019     9.804763875    17.549470186    -0.014521753     0.034812513    -0.498575177
   51    40.178618122     6.238376253    11.477855072    -0.030103879     0.042538859    -0.497276786
   52    39.886070692    10.000758011    12.179033700    -0.001380240     0.055266804    -0.496934277
   53    39.155297356     4.680919630    20.102046506    -0.024129300     0.060504903    -0.495738776
   54    35.314409587     2.787628918    20.413464245    -0.022321565     0.100471384    -0.489292600
   55    33.760632733    10.455938145    13.314870779    -0.019228098     0.052676283    -0.496845539
   56    36.871774267     4.448559796    20.278923492    -0.025125564     0.065919957    -0.494998248
   57    35.761440785     6.374727500    17.908692148    -0.022026574     0.063762622    -0.495428257
   58    34.634401130     0.662859315    17.699021819    -0.021175540     0.070612527    -0.494535608
   59    36.286131171     2.141889089    18.414135532    -0.024911566     0.080760719    -0.492805357
   60    39.391437091     6.821204249    19.659756781    -0.021909719     0.056869938    -0.496271875
   61    39.556314395     2.194700584    20.563166607    -0.030051102     0.098433044    -0.489293232
   62    39.388083590     7.710611045    12.997328674    -0.035296992     0.045789268    -0.496646217
   63    32.650662894     8.244242563    20.191164632    -0.018610635     0.047555683    -0.497385264
   64    33.990622378     9.565934717    11.257983471    -0.017291237     0.047376445    -0.497449983
   65    35.117568087     4.292558633    14.104936042     0.076001014     0.056829865    -0.490911614
   66    31.515877663     7.174306084    18.698291990    -0.008258364     0.048094434    -0.497613027
   67    38.346861130     3.203210143    18.810088094    -0.035075432     0.071943061    -0.493552338
   68    31.509901936     2.733696253    15.909456027    -0.004406600     0.277805125    -0.415698081
   21     2.180216008    16.393458985    13.854236717     0.007037564    -0.001133294     0.499949186
   22     9.512521679    11.777081439    15.894163437     0.007553283     0.156600269    -0.474783428
   23     9.396595261    19.304407151    16.759003068    -0.000619816     0.039228319    -0.498458378
   24     4.343385834    14.192120799    17.587114488    -0.004745153    -0.003810799    -0.499962960
   25     5.622044644    10.435971082    10.872130559    -0.003385792     0.001237172    -0.499987006
   26     2.181270601    11.018348964    17.409275767    -0.180954692     0.362464975     0.293043583
   27     0.845893778    13.018607442    12.697479192    -0.040755034     0.012658900    -0.498175451
   28     7.839054496    15.457421189    10.966758056    -0.018866531     0.003101685    -0.499634300
   29     8.551684317    18.110234091    15.046272882     0.002466481     0.040261572    -0.498370266
   30     7.321651047    19.023895472    11.743318157    -0.010931336     0.029471769    -0.499010942
   31     5.834020109    19.987646164    18.757709372    -0.014318123     0.038809436    -0.498285881
   32     7.960894997    10.638633401    17.986637874    -0.008348486     0.013055084    -0.499759810
   33     1.024118329    18.012959989    15.388855259    -0.007395030     0.053789473    -0.497043264
   34    10.621422300    12.997725949    18.107087734    -0.022998586     0.431049108    -0.252324655
   35     7.993711512    17.599370215    10.283300233    -0.014030162     0.010182996    -0.499699371
   36     7.507479880    12.586130091    15.617370941    -0.008531807     0.108748690    -0.487955870
   37     8.013039241    15.199009976    17.554082199     0.001942047     0.009140026    -0.499912681
   38     6.098087431    16.116216746    14.253220946    -0.016880905     0.027237723    -0.498972085
   39     8.284594131    15.811557460    13.678746936    -0.030895378     0.014200562    -0.498842480
   40     3.051004564    18.830313208    16.225711837    -0.014736735     0.032893816    -0.498699133
   41     6.550376607    12.022217772    13.666688950    -0.016752027     0.087329944    -0.492029319
   42     0.834486886    18.463805238    13.115723000    -0.011811719     0.038004702    -0.498413609
   43     4.372297614    17.048495732    15.260114011    -0.013764589     0.026688103    -0.499097467
   44     9.312692822    14.047837121    14.543452845    -0.034685578     0.021807282    -0.498318526
   45     4.652123632    19.564544570    14.719278096    -0.005695219     0.026989426    -0.499238556
   46     7.744150042    11.243048211    12.019019441    -0.026659458     0.072173396    -0.494044810
   47     7.168614072    11.812781950    19.583784171    -0.009940881     0.004916906    -0.499876988
   48    10.373529178    13.469631818    10.504886262    -0.012004755     0.003080953    -0.499846370
   49     3.612995616    15.321790425    11.594781090    -0.022183524    -0.002459789     0.499501592
   50     6.767755640    19.395876761    16.715835001     0.004132732     0.019628057    -0.499597498
   51    10.044725744    15.829489139    10.644219886    -0.005762694    -0.002271803    -0.499961629
   52     9.752178314    19.591870897    11.345398515     0.017852829     0.017104757    -0.499388330
   53     9.021404977    14.272032516    19.268411321    -0.003167393    -0.003075313    -0.499980510
   54     5.180517209    12.378741804    19.579829060    -0.009735608     0.033935173    -0.498752065
   55     3.626740355    20.047051031    12.481235594     0.009980357     0.025168391    -0.499266406
   56     6.737881888    14.039672682    19.445288307    -0.006693473    -0.002701292    -0.499947898
   57     5.627548407    15.965840386    17.075056963    -0.005215677     0.009854227    -0.499875675
   58     4.500508752    10.253972201    16.865386634    -0.002969381     0.016066171    -0.499732990
   59     6.152238793    11.733001975    17.580500346    -0.010146774     0.020659992    -0.499469927
   60     9.257544712    16.412317135    18.826121595    -0.005950903     0.010644605    -0.499851257
   61     9.422422016    11.785813470    19.729531422    -0.009788637     0.038066239    -0.498452750
   62     9.254191212    17.301723931    12.163693489    -0.013544444     0.007160337    -0.499765222
   63     2.516770515    17.835355449    19.357529447    -0.009426569     0.052862654    -0.497108318
   64     3.856729999    19.157047603    10.424348286     0.004869164     0.024331487    -0.499383890
   65     4.983675709    13.883671519    13.271300857     0.062662478     0.010195553    -0.495953087
   66     1.381985285    16.765418970    17.864656805    -0.002688786     0.056255872    -0.496817922
   67     8.212968751    12.794323029    17.976452909    -0.018576449     0.010070117    -0.499553309
   68     1.376009558    12.324809139    15.075820841    -0.053688372     0.259244365    -0.424157893
   21    12.269871958    16.538119196    14.142323586    -0.001082021     0.003127754     0.499989046
   22    19.602177629    11.921741651    16.182250306     0.016809606     0.151484468    -0.476203626
   23    19.486251210    19.449067363    17.047089938     0.015009123     0.011952915    -0.499631718
   24    14.433041784    14.336781011    17.875201358    -0.000711576    -0.010590076    -0.499887331
   25    15.711700594    10.580631293    11.160217429     0.006521806    -0.005014440    -0.499932317
   26    12.270926551    11.163009176    17.697362637    -0.072316505     0.402328313     0.287927511
   27    10.935549728    13.163267653    12.985566062    -0.051924598    -0.032796489    -0.496213892
   28    17.928710446    15.602081400    11.254844926    -0.014914013     0.003339890    -0.499766363
   29    18.641340267    18.254894303    15.334359752     0.020756258     0.010289452    -0.499463017
   30    17.411306997    19.168555683    12.031405026    -0.002311600     0.019073638    -0.499630716
   31    15.923676059    20.132306376    19.045796241    -0.008346258     0.003854695    -0.499915474
   32    18.050550947    10.783293613    18.274724744    -0.000410174     0.010584668    -0.499887784
   33    11.113774279    18.157620200    15.676942129    -0.001611193     0.026558693    -0.499291538
   34    20.711078250    13.142386161    18.395174603     0.005609624     0.427586674    -0.259110340
   35    18.083367461    17.744030427    10.571387103    -0.011238848     0.006775458    -0.499827752
   36    17.597135830    12.730790302    15.905457810    -0.001320340     0.103479472    -0.489173032
   37    18.102695191    15.343670187    17.842169069     0.001243215    -0.000658116    -0.499998021
   38    16.187743381    16.260876958    14.541307815    -0.014056545     0.012111580    -0.499655605
   39    18.374250081    15.956217672    13.966833806    -0.026453055     0.007878210    -0.499237588
   40    13.140660513    18.974973419    16.513798707    -0.001124388     0.006572138    -0.499955541
   41    16.640032557    12.166877983    13.954775820    -0.008375070     0.082126215    -0.493138057
   42    10.924142836    18.608465450    13.403809870    -0.009968669     0.006584714    -0.499857247
   43    14.461953564    17.193155943    15.548200881    -0.009336357     0.009819692    -0.499816372
   44    19.402348772    14.192497332    14.831539714    -0.030612117     0.015813726    -0.498811412
   45    14.741779581    19.709204782    15.007364966     0.003576553     0.001005850    -0.499986196
   46    17.833805992    11.387708423    12.307106311    -0.017604816     0.066766383    -0.495209370
   47    17.258270022    11.957442162    19.871871040    -0.001452891     0.004376116    -0.499978738
   48    20.463185128    13.614292029    10.792973132    -0.011084429    -0.003556434    -0.499864469
   49    13.702651566    15.466450637    11.882867960    -0.022043402    -0.002671487     0.499506708
   50    16.857411590    19.540536972    17.003921871     0.012156607    -0.011396138    -0.499722268
   51    20.134381694    15.974149351    10.932306756    -0.001865519    -0.004294379    -0.499978078
   52    19.841834264    19.736531108    11.633485384     0.023369294     0.008368788    -0.499383459
   53    19.111060927    14.416692728    19.556498191    -0.005886168    -0.001761406    -0.499962249
   54    15.270173159    12.523402016    19.867915929    -0.002484381     0.033036894    -0.498901184
   55    13.716396305    20.191711243    12.769322464     0.006472051     0.001665713    -0.499955336
   56    16.827537838    14.184332894    19.733375176    -0.000856494    -0.001484593    -0.499997062
   57    15.717204356    16.110500598    17.363143832    -0.000430948    -0.000476163    -0.499999588
   58    14.590164702    10.398632413    17.153473504     0.001905173     0.003624515    -0.499983233
   59    16.241894743    11.877662187    17.868587216     0.002218059     0.014201253    -0.499793362
   60    19.347200662    16.556977347    19.114208465    -0.000044160    -0.000078213    -0.499999992
   61    19.512077966    11.930473681    20.017618291    -0.003269746     0.032940983    -0.498902997
   62    19.343847161    17.446384143    12.451780359    -0.007667710     0.000381111    -0.499941057
   63    12.606426465    17.980015661    19.645616317     0.004522938     0.013100077    -0.499807894
   64    13.946385949    19.301707815    10.712435156     0.008334644    -0.003457926    -0.499918570
   65    15.073331659    14.028331731    13.559387727     0.037908146    -0.027125529    -0.497822436
   66    11.471641234    16.910079181    18.152743674     0.009902181     0.016437616    -0.499631616
   67    18.302624701    12.938983240    18.264539778    -0.015144168     0.007484995    -0.499714548
   68    11.465665507    12.469469350    15.363907711     0.019971090     0.235253554    -0.440745869
   21    22.359527908    16.682779408    14.430410456    -0.000601925     0.001739266     0.499996613
   22    29.691833578    12.066401863    16.470337176     0.021709811     0.175519057    -0.467676966
   23    29.575907160    19.593727574    17.335176807    -0.017514481     0.052011548    -0.496978915
   24    24.522697734    14.481441222    18.163288228    -0.003622618     0.017796822    -0.499670041
   25    25.801356544    10.725291505    11.448304299    -0.009093276     0.023854773    -0.499347837
   26    22.360582501    11.307669388    17.985449506    -0.058613259     0.404757066     0.287639016
   27    21.025205678    13.307927865    13.273652931    -0.051410529    -0.038171714    -0.495882927
   28    28.018366396    15.746741612    11.542931795    -0.041965446     0.028579402    -0.497415439
   29    28.730996217    18.399554515    15.622446622    -0.016479995     0.055010558    -0.496691301
   30    27.500962947    19.313215895    12.319491896    -0.026925250     0.053991666    -0.496346583
   31    26.013332008    20.276966587    19.333883111    -0.017094821     0.036457072    -0.498376012
   32    28.140206897    10.927953824    18.562811613    -0.001128789     0.026393044    -0.499301645
   33    21.203430228    18.302280412    15.965028998    -0.002018622     0.029455849    -0.499127517
   34    30.800734199    13.287046373    18.683261473     0.055456467     0.438326238    -0.234082654
   35    28.173023411    17.888690638    10.859473972    -0.034655132     0.038621572    -0.497300107
   36    27.686791780    12.875450514    16.193544680    -0.006240008     0.129391498    -0.482927430
   37    28.192351141    15.488330399    18.130255939    -0.014310225     0.026112263    -0.499112580
   38    26.277399330    16.405537170    14.829394685    -0.027064952     0.043039588    -0.497408366
   39    28.463906031    16.100877883    14.254920676    -0.045231530     0.039094928    -0.496412828
   40    23.230316463    19.119633631    16.801885576    -0.008293560     0.025401272    -0.499285482
   41    26.729688506    12.311538195    14.242862689    -0.018140472     0.109202982    -0.487591665
   42    21.013798786    18.753125661    13.691896739    -0.000919453    -0.001220027    -0.499997666
   43    24.551609513    17.337816155    15.836287750    -0.021675381     0.038084362    -0.498076058
   44    29.492004722    14.337157544    15.119626584    -0.049137557     0.045800406    -0.495467278
   45    24.831435531    19.853864994    15.295451836    -0.010956264     0.024743727    -0.499267171
   46    27.923461942    11.532368635    12.595193180    -0.031655127     0.094829037    -0.489903467
   47    27.347925972    12.102102374    20.159957910     0.001514992     0.021252872    -0.499545814
   48    30.552841078    13.758952241    11.081060001    -0.032976052     0.025058029    -0.498281723
   49    23.792307516    15.611110848    12.170954829    -0.019131384    -0.004179050     0.499616379
   50    26.947067540    19.685197184    17.292008740    -0.010212567     0.009337871    -0.499808471
   51    30.224037643    16.118809562    11.220393626    -0.025002055     0.030196701    -0.498460687
   52    29.931490213    19.881191320    11.921572254     0.001435628     0.045749496    -0.497900515
   53    29.200716877    14.561352939    19.844585060    -0.019289859     0.018077031    -0.499300633
   54    25.359829109    12.668062227    20.156002799    -0.001594071     0.050182464    -0.497472792
   55    23.806052255    20.336371455    13.057409333    -0.002093152     0.029668833    -0.499114595
   56    26.917193788    14.328993105    20.021462046    -0.004526403     0.019289682    -0.499607266
   57    25.806860306    16.255160809    17.651230702    -0.010268994     0.028762974    -0.499066367
   58    24.679820652    10.543292625    17.441560373     0.003784330     0.008655499    -0.499910753
   59    26.331550693    12.022322399    18.156674085    -0.000917905     0.026552597    -0.499293618
   60    29.436856612    16.701637559    19.402295334    -0.018275834     0.026885095    -0.498942066
   61    29.601733916    12.075133893    20.305705161    -0.002102146     0.051290728    -0.497357861
   62    29.433503111    17.591044355    12.739867228    -0.029428568     0.036696533    -0.497782406
   63    22.696082415    18.124675872    19.933703186     0.003947505     0.008600430    -0.499910442
   64    24.036041899    19.446368026    11.000522025     0.002963290     0.022697322    -0.499475776
   65    25.162987609    14.172991942    13.847474596     0.071182360     0.037636483    -0.493473978
   66    21.561297184    17.054739393    18.440830544     0.011071343     0.011095436    -0.499754256
   67    28.392280651    13.083643452    18.552626648    -0.021467036     0.027771182    -0.498766406
   68    21.555321457    12.614129562    15.651994581     0.033202251     0.229319073    -0.443069265
   21    32.449183858    16.827439620    14.718497325     0.020725134    -0.028507553     0.498756241
   22    39.781489528    12.211062074    16.758424046    -0.046917956     0.186781750    -0.461423107
   23    39.665563110    19.738387786    17.623263677    -0.007479945     0.059320237    -0.496412288
   24    34.612353683    14.626101434    18.451375097    -0.017480304     0.045453317    -0.497622784
   25    35.891012493    10.869951717    11.736391168    -0.011742046     0.051847050    -0.497165976
   26    32.450238451    11.452329599    18.273536376     0.064409025     0.370407409     0.329620734
   27    31.114861628    13.452588077    13.561739801    -0.078335243    -0.007811995    -0.493763671
   28    38.108022345    15.891401824    11.831018665    -0.019448292     0.051225938    -0.496988599
   29    38.820652167    18.544214726    15.910533491    -0.011178745     0.061615350    -0.496063085
   30    37.590618897    19.457876107    12.607578765    -0.010954746     0.069065609    -0.495085786
   31    36.102987958    20.421626799    19.621969981    -0.018666117     0.049114741    -0.497231655
   32    38.229862847    11.072614036    18.850898483    -0.024180896     0.056936906    -0.496158718
   33    31.293086178    18.446940623    16.253115868    -0.016969823     0.059975731    -0.496099725
   34    40.890390149    13.431706584    18.971348343    -0.153488143     0.414599910    -0.233555784
   35    38.262679361    18.033350850    11.147560842    -0.016801285     0.054830070    -0.496700494
   36    37.776447729    13.020110726    16.481631549    -0.047174853     0.143440893    -0.476654218
   37    38.282007090    15.632990610    18.418342808    -0.016438743     0.056113621    -0.496569259
   38    36.367055280    16.550197381    15.117481555    -0.019629993     0.067015106    -0.495099625
   39    38.553561981    16.245538095    14.543007545    -0.034151469     0.056589724    -0.495612026
   40    33.319972413    19.264293843    17.089972446    -0.017681013     0.047399159    -0.497434118
   41    36.819344456    12.456198407    14.530949559    -0.052253353     0.123321825    -0.481727428
   42    31.103454736    18.897785873    13.979983609    -0.027065004     0.035736642    -0.497986323
   43    34.641265463    17.482476367    16.124374620    -0.016423287     0.062853167    -0.495761793
   44    39.581660671    14.481817756    15.407713454    -0.040686987     0.062600575    -0.494394313
   45    34.921091481    19.998525205    15.583538705    -0.009282846     0.046401843    -0.497755661
   46    38.013117892    11.677028846    12.883280050    -0.058345812     0.110339371    -0.484170414
   47    37.437581922    12.246762585    20.448044779    -0.022286193     0.056810648    -0.496261902
   48    40.642497028    13.903612453    11.369146871    -0.018744969     0.051603990    -0.496976513
   49    33.881963465    15.755771060    12.459041699     0.013209797    -0.019040631     0.499462667
   50    37.036723490    19.829857396    17.580095610     0.015559113     0.009021612    -0.499676420
   51    40.313693593    16.263469774    11.508480495    -0.008067745     0.043460842    -0.498042234
   52    40.021146163    20.025851532    12.209659124     0.021459866     0.053934422    -0.496619122
   53    39.290372827    14.706013151    20.132671930    -0.023701789     0.051690664    -0.496755775
   54    35.449485059    12.812722439    20.444089669    -0.040191198     0.076193053    -0.492523386
   55    33.895708204    20.481031666    13.345496203    -0.002335684     0.051890520    -0.497294599
   56    37.006849738    14.473653317    20.309548916    -0.025297318     0.051812257    -0.496664410
   57    35.896516256    16.399821021    17.939317572    -0.014523494     0.056852811    -0.496544888
   58    34.769476601    10.687952836    17.729647243    -0.021716833     0.051471580    -0.496869254
   59    36.421206642    12.166982610    18.444760955    -0.019723449     0.063654862    -0.495539145
   60    39.526512562    16.846297770    19.690382204    -0.016914079     0.054189502    -0.496766959
   61    39.691389866    12.219794105    20.593792030    -0.031007143     0.084851922    -0.491770992
   62    39.523159061    17.735704566    13.027954098    -0.017379390     0.046488263    -0.497530701
   63    32.785738365    18.269336084    20.221790056    -0.006911960     0.047593213    -0.497681737
   64    34.125697849    19.591028238    11.288608895    -0.003198431     0.046237324    -0.497847246
   65    35.252643558    14.317652154    14.135561466     0.041688250     0.033010644    -0.497164346
   66    31.650953134    17.199399605    18.728917413    -0.003896220     0.044643100    -0.497987764
   67    38.481936601    13.228303664    18.840713518    -0.033177476     0.059753731    -0.495306720
   68    31.644977407    12.758789774    15.940081450     0.048435490     0.250377031    -0.430075977
   21     2.315291480    26.418552506    13.884862140     0.019858401    -0.050544912     0.497042107
   22     9.647597150    21.802174960    15.924788860    -0.006312897     0.175332650    -0.468207869
   23     9.531670732    29.329500672    16.789628491    -0.007952218     0.062295491    -0.496040355
   24     4.478461305    24.217214320    17.617739912    -0.025974338     0.031324614    -0.498341351
   25     5.757120115    20.461064603    10.902755983    -0.006619570     0.019632603    -0.499570558
   26     2.316346072    21.043442485    17.439901190    -0.124584323     0.358202969     0.325836430
   27     0.980969250    23.043700963    12.728104616    -0.062596896     0.032837996    -0.494978075
   28     7.974129967    25.482514710    10.997383480    -0.037130875     0.035931603    -0.497323052
   29     8.686759788    28.135327612    15.076898306    -0.003491370     0.066016904    -0.495610309
   30     7.456726518    29.048988993    11.773943580    -0.018349329     0.062295281    -0.495764662
   31     5.969095580    30.012739685    18.788334795    -0.025108072     0.059472651    -0.495815075
   32     8.095970468    20.663726922    18.017263298    -0.010389043     0.041263545    -0.498186097
   33     1.159193800    28.038053510    15.419480683    -0.020807971     0.080845375    -0.492981798
   34    10.756497771    23.022819470    18.137713157    -0.031948118     0.432225587    -0.249319795
   35     8.128786983    27.624463736    10.313925657    -0.029971933     0.044425199    -0.497119789
   36     7.642555351    22.611223612    15.647996364    -0.022277037     0.130794087    -0.482075347
   37     8.148114712    25.224103497    17.584707623    -0.019642540     0.044010461    -0.497671830
   38     6.233162902    26.141310267    14.283846369    -0.033130959     0.060482287    -0.495221397
   39     8.419669602    25.836650981    13.709372360    -0.048074598     0.045957865    -0.495556967
   40     3.186080035    28.855406729    16.256337261    -0.017703996     0.063278625    -0.495663580
   41     6.685452078    22.047311293    13.697314374    -0.029105341     0.108705963    -0.487171318
   42     0.969562358    28.488898759    13.146348424    -0.030570247     0.061444226    -0.495267672
   43     4.507373085    27.073589253    15.290739435    -0.028664978     0.060183209    -0.495536376
   44     9.447768293    24.072930642    14.574078268    -0.051978669     0.050924672    -0.494676557
   45     4.787199103    29.589638091    14.749903520    -0.011669680     0.058855803    -0.496386757
   46     7.879225513    21.268141732    12.049644865    -0.037664531     0.093223127    -0.489786516
   47     7.303689543    21.837875471    19.614409594    -0.017431099     0.039162234    -0.498159087
   48    10.508604649    23.494725339    10.535511686    -0.029444164     0.028435669    -0.498321637
   49     3.748071087    25.346883946    11.625406514     0.019685363    -0.009385330     0.499524176
   50     6.902831111    29.420970282    16.746460425    -0.009677955     0.041554694    -0.498176218
   51    10.179801215    25.854582660    10.674845310    -0.024895297     0.032261591    -0.498336647
   52     9.887253785    29.616964418    11.376023938     0.006473470     0.048611518    -0.497589203
   53     9.156480448    24.297126037    19.299036745    -0.025644447     0.037560500    -0.497927275
   54     5.315592680    22.403835325    19.610454483    -0.021862787     0.067294147    -0.494968197
   55     3.761815826    30.072144552    12.511861017    -0.003856628     0.061996823    -0.496126516
   56     6.872957359    24.064766203    19.475913730    -0.024802611     0.034574753    -0.498186127
   57     5.762623878    25.990933907    17.105682386    -0.024804602     0.044785089    -0.497372122
   58     4.635584223    20.279065722    16.896012058    -0.007983552     0.034903754    -0.498716343
   59     6.287314264    21.758095496    17.611125770    -0.009671719     0.047569970    -0.497637977
   60     9.392620183    26.437410656    18.856747019    -0.021338335     0.043375348    -0.497657769
   61     9.557497487    21.810906991    19.760156845    -0.022418106     0.066833911    -0.495005714
   62     9.389266683    27.326817452    12.194318913    -0.028815739     0.039401241    -0.497611490
   63     2.651845986    27.860448970    19.388154871    -0.008126323     0.070531570    -0.494933592
   64     3.991805470    29.182141124    10.454973710    -0.003440703     0.057589124    -0.496660502
   65     5.118751180    23.908765040    13.301926281     0.051979527     0.026113627    -0.496604679
   66     1.517060756    26.790512491    17.895282228    -0.000734742     0.073446756    -0.494575610
   67     8.348044222    22.819416550    18.007078332    -0.029939071     0.044244359    -0.497137897
   68     1.511085029    22.349902660    15.106446265    -0.008197766     0.273987751    -0.418166843
   21    12.404947429    26.563212718    14.172949010     0.017245570    -0.017434448     0.499398268
   22    19.737253100    21.946835172    16.212875730     0.037447171     0.151184413    -0.475122071
   23    19.621326681    29.474160884    17.077715361    -0.003462020     0.019259000    -0.499616959
   24    14.568117255    24.361874532    17.905826782    -0.001546412    -0.001815805    -0.499994311
   25    15.846776065    20.605724814    11.190842853     0.006304584    -0.001702836    -0.499957351
   26    12.406002022    21.188102697    17.727988060    -0.056370685     0.405018459     0.287719297
   27    11.070625199    23.188361175    13.016191485    -0.069349158    -0.001365506    -0.495165457
   28    18.063785917    25.627174921    11.285470349    -0.030924591     0.015854906    -0.498790829
   29    18.776415738    28.279987824    15.364985175     0.010348105     0.009359774    -0.499805273
   30    17.546382468    29.193649204    12.062030450    -0.022765725     0.034098794    -0.498316159
   31    16.058751530    30.157399897    19.076421665    -0.015752793     0.019627288    -0.499366217
   32    18.185626418    20.808387134    18.305350167    -0.000615971     0.009320437    -0.499912742
   33    11.248849750    28.182713721    15.707567552    -0.013206635     0.052413127    -0.497069863
   34    20.846153721    23.167479682    18.425800027     0.087306049     0.422822450    -0.252188084
   35    18.218442932    27.769123948    10.602012526    -0.026390582     0.023137445    -0.498766675
   36    17.732211301    22.755883824    15.936083234     0.008894635     0.106970848    -0.488342219
   37    18.237770662    25.368763708    17.872794493    -0.001583314     0.012927306    -0.499830349
   38    16.322818852    26.285970479    14.571933239    -0.021458363     0.032244939    -0.498497545
   39    18.509325552    25.981311193    13.997459230    -0.037285123     0.024126999    -0.498023802
   40    13.275735984    29.000066940    16.544424130    -0.013507017     0.030523446    -0.498884636
   41    16.775108028    22.191971504    13.985401243     0.000376421     0.085715782    -0.492597872
   42    11.059218307    28.633558971    13.434435293    -0.022844284     0.035432102    -0.498219535
   43    14.597029035    27.218249464    15.578826304    -0.017794623     0.030236123    -0.498767609
   44    19.537424243    24.217590853    14.862165138    -0.039105270     0.029857802    -0.497573401
   45    14.876855053    29.734298303    15.037990389    -0.009933919     0.024977969    -0.499276895
   46    17.968881463    21.412801944    12.337731734    -0.011209371     0.070471694    -0.494881895
   47    17.393345493    21.982535683    19.902496464    -0.000051849     0.006292525    -0.499960400
   48    20.598260599    23.639385550    10.823598555    -0.020544645     0.007022320    -0.499528382
   49    13.837727037    25.491544158    11.913493383    -0.003318277    -0.007639945     0.499930615
   50    16.992487061    29.565630493    17.034547294    -0.000008253     0.000009405    -0.500000000
   51    20.269457165    25.999242872    10.962932180    -0.018497514     0.011151463    -0.499533269
   52    19.976909735    29.761624629    11.664110808     0.008230023     0.027819531    -0.499157631
   53    19.246136398    24.441786249    19.587123614    -0.013440063     0.002667869    -0.499812212
   54    15.405248630    22.548495537    19.898541353    -0.003952625     0.032210264    -0.498945764
   55    13.851471776    30.216804764    12.799947887    -0.010939173     0.030886285    -0.498925217
   56    16.962613309    24.209426415    19.764000600    -0.003424658    -0.001437687    -0.499986205
   57    15.852279828    26.135594119    17.393769256    -0.004173372     0.013073779    -0.499811624
   58    14.725240173    20.423725934    17.184098927    -0.000376444     0.000377088    -0.499999716
   59    16.376970214    21.902755708    17.899212639     0.001565379     0.013140429    -0.499824848
   60    19.482276133    26.582070868    19.144833888    -0.011553431     0.012821165    -0.499702047
   61    19.647153437    21.955567202    20.048243715    -0.000832274     0.034653307    -0.498797008
   62    19.478922633    27.471477664    12.482405782    -0.022392563     0.016329445    -0.499231331
   63    12.741501936    28.005109182    19.676241740    -0.007413716     0.042227401    -0.498158492
   64    14.081461420    29.326801336    10.743060579    -0.011164409     0.026809069    -0.499155917
   65    15.208407130    24.053425252    13.590013150     0.071497559     0.011589700    -0.494725962
   66    11.606716706    26.935172702    18.183369098    -0.003596400     0.046799719    -0.497791977
   67    18.437700172    22.964076761    18.295165202    -0.018206420     0.010966714    -0.499548053
   68    11.600740978    22.494562871    15.394533135     0.006833808     0.250212447    -0.432836032
   21    22.494603379    26.707872929    14.461035879     0.017372815    -0.007610075     0.499640143
   22    29.826909049    22.091495384    16.500962600    -0.043841627     0.185889255    -0.462085594
   23    29.710982631    29.618821095    17.365802231    -0.006312939     0.079776871    -0.493554250
   24    24.657773205    24.506534743    18.193913651    -0.022450572     0.039649826    -0.497919535
   25    25.936432015    20.750385026    11.478929722    -0.009855964     0.037513747    -0.498493309
   26    22.495657972    21.332762909    18.016074930     0.082560825     0.389564797     0.302362330
   27    21.160281149    23.333021386    13.304278355    -0.068400987    -0.023338559    -0.494749044
   28    28.153441867    25.771835133    11.573557219    -0.034800363     0.057388532    -0.495475016
   29    28.866071688    28.424648036    15.653072045    -0.002657399     0.082423103    -0.493152482
   30    27.636038418    29.338309416    12.350117319    -0.021571848     0.077517203    -0.493483271
   31    26.148407479    30.302060108    19.364508535    -0.016479380     0.066265597    -0.495315355
   32    28.275282368    20.953047345    18.593437037    -0.015230421     0.045688482    -0.497675192
   33    21.338505699    28.327373933    15.995654422    -0.015170751     0.049560771    -0.497306322
   34    30.935809670    23.312139894    18.713886897    -0.143792820     0.417545371    -0.234477052
   35    28.308098882    27.913784159    10.890099396    -0.029093803     0.064610659    -0.494953547
   36    27.821867251    22.900544035    16.224170103    -0.045055437     0.142598643    -0.477111763
   37    28.327426612    25.513423920    18.160881362    -0.017646980     0.054897474    -0.496663721
   38    26.412474801    26.430630691    14.860020109    -0.031929616     0.066670813    -0.494505311
   39    28.598981502    26.125971404    14.285546099    -0.048150988     0.060686627    -0.493962160
   40    23.365391934    29.144727152    16.832511000    -0.017355358     0.048207321    -0.497367918
   41    26.864763978    22.336631716    14.273488113    -0.048897378     0.122688929    -0.482241094
   42    21.148874257    28.778219182    13.722522163    -0.019231889     0.014762148    -0.499411868
   43    24.686684984    27.362909676    15.866913174    -0.027230588     0.061880429    -0.495408223
   44    29.627080193    24.362251065    15.150252007    -0.053892416     0.064336001    -0.492906164
   45    24.966511002    29.878958515    15.326077259    -0.010480932     0.052135389    -0.497164008
   46    28.058537413    21.557462156    12.625818604    -0.055502610     0.109014431    -0.484804408
   47    27.483001443    22.127195895    20.190583333    -0.015687089     0.042344015    -0.497956725
   48    30.687916549    23.784045762    11.111685425    -0.023733867     0.052981193    -0.496618261
   49    23.927382987    25.636204369    12.201580253    -0.005014028     0.001949617     0.499971058
   50    27.082143011    29.710290705    17.322634164     0.004234316     0.049513163    -0.497524389
   51    30.359113114    26.143903083    11.251019049    -0.023727927     0.053776343    -0.496533071
   52    30.066565684    29.906284841    11.952197678     0.004727763     0.066792518    -0.495496123
   53    29.335792348    24.586446460    19.875210484    -0.019529372     0.048269830    -0.497281235
   54    25.494904580    22.693155748    20.186628223    -0.022364086     0.072119955    -0.494265677
   55    23.941127726    30.361464976    13.088034757    -0.007369229     0.053430992    -0.497082311
   56    27.052269259    24.354086626    20.052087469    -0.015588785     0.044253854    -0.497793719
   57    25.941935777    26.280254330    17.681856126    -0.022396971     0.052489996    -0.496732499
   58    24.814896123    20.568386146    17.472185797    -0.012035621     0.032140750    -0.498820725
   59    26.466626164    22.047415920    18.187299509    -0.012007441     0.049207295    -0.497427848
   60    29.571932083    26.726731080    19.432920758    -0.019302114     0.056321718    -0.496442638
   61    29.736809387    22.100227414    20.336330584    -0.019130060     0.073603678    -0.494182698
   62    29.568578582    27.616137876    12.770492652    -0.028710178     0.059104888    -0.495663533
   63    22.831157886    28.149769393    19.964328610    -0.004157594     0.039859246    -0.498391367
   64    24.171117370    29.471461547    11.031147449    -0.006163073     0.045933643    -0.497847484
   65    25.298063080    24.198085463    13.878100020     0.047799723     0.028860294    -0.496872489
   66    21.696372655    27.079832914    18.471455967     0.002444902     0.034635072    -0.498792977
   67    28.527356122    23.108736973    18.583252072    -0.030835107     0.051144542    -0.496420620
   68    21.690396928    22.639223083    15.682620004     0.065956869     0.226296020    -0.440953289
   21    32.584259329    26.852533141    14.749122749     0.017995723    -0.053971254     0.496752713
   22    39.916564999    22.236155595    16.789049469    -0.017290756     0.200254417    -0.457820050
   23    39.800638581    29.763481307    17.653889100    -0.014792979     0.084360239    -0.492609904
   24    34.747429155    24.651194955    18.482000521    -0.014798556     0.055530668    -0.496686367
   25    36.026087965    20.895045238    11.767016592    -0.006907109     0.052944052    -0.497141046
   26    32.585313922    21.477423120    18.304161799    -0.182601847     0.352483883     0.303992890
   27    31.249937099    23.477681598    13.592365224    -0.055052582     0.014864358    -0.496737621
   28    38.243097817    25.916495345    11.861644089    -0.035965920     0.065976031    -0.494321369
   29    38.955727638    28.569308247    15.941158915    -0.012744539     0.087487196    -0.492121496
   30    37.725694368    29.482969628    12.638204189    -0.025463084     0.086674743    -0.491771411
   31    36.238063429    30.446720320    19.652595404    -0.029840402     0.075364733    -0.493385962
   32    38.364938318    21.097707557    18.881523906    -0.009893084     0.054378889    -0.496935673
   33    31.428161649    28.472034144    16.283741291    -0.016152746     0.085059009    -0.492447006
   34    41.025465620    23.456800105    19.001973766    -0.072519210     0.443682330    -0.218830880
   35    38.397754832    28.058444371    11.178186266    -0.030631849     0.072426853    -0.493777319
   36    37.911523200    23.045204247    16.512256973    -0.030836780     0.156738322    -0.473795517
   37    38.417082561    25.658084132    18.448968232    -0.015154902     0.066721568    -0.495296438
   38    36.502130751    26.575290902    15.148106978    -0.033952329     0.081357225    -0.492166884
   39    38.688637452    26.270631616    14.573632969    -0.050800595     0.071573877    -0.492236203
   40    33.455047884    29.289387364    17.120597869    -0.021106457     0.073093654    -0.494177939
   41    36.954419927    22.481291928    14.561574982    -0.036647688     0.136434460    -0.479627548
   42    31.238530207    28.922879394    14.010609033    -0.023208894     0.060542282    -0.495778155
   43    34.776340934    27.507569888    16.155000044    -0.029402476     0.078770940    -0.492879938
   44    39.716736142    24.506911277    15.438338877    -0.054249786     0.077941526    -0.490899256
   45    35.056166952    30.023618726    15.614164129    -0.019228592     0.070966738    -0.494564438
   46    38.148193363    21.702122367    12.913905474    -0.044076018     0.122618056    -0.482723644
   47    37.572657393    22.271856106    20.478670203    -0.011926039     0.059779929    -0.496270218
   48    40.777572499    23.928705974    11.399772295    -0.025341140     0.062611111    -0.495416668
   49    34.017038936    25.780864581    12.489667122     0.019623019    -0.037583086     0.498199206
   50    37.171798961    29.854950917    17.610721034    -0.013578768     0.058038342    -0.496434455
   51    40.448769064    26.288563295    11.539105919    -0.025161651     0.060995847    -0.495627277
   52    40.156221634    30.050945053    12.240284547    -0.002128198     0.074116720    -0.494471620
   53    39.425448298    24.731106672    20.163297354    -0.018195750     0.060617480    -0.495978261
   54    35.584560530    22.837815960    20.474715092    -0.008292627     0.089274654    -0.491895587
   55    34.030783676    30.506125187    13.376121626    -0.012772895     0.074170697    -0.494303106
   56    37.141925209    24.498746838    20.340174339    -0.015440206     0.057740749    -0.496414752
   57    36.031591727    26.424914542    17.969942995    -0.016380871     0.067854465    -0.495103463
   58    34.904552072    20.713046357    17.760272666    -0.009901705     0.047435196    -0.497646319
   59    36.556282113    22.192076131    18.475386379    -0.013971001     0.061316623    -0.496029317
   60    39.661588033    26.871391291    19.721007628    -0.016189090     0.066563665    -0.495284960
   61    39.826465337    22.244887626    20.624417454    -0.020023888     0.089671886    -0.491485500
   62    39.658234532    27.760798087    13.058579522    -0.033859963     0.065164651    -0.494577670
   63    32.920813836    28.294429605    20.252415479    -0.013879604     0.071836057    -0.494617971
   64    34.260773320    29.616121759    11.319234319    -0.011406329     0.068224433    -0.495192207
   65    35.387719029    24.342745675    14.166186889     0.062155046     0.048587023    -0.493736824
   66    31.786028605    27.224493126    18.759542837    -0.005957515     0.071188371    -0.494870411
   67    38.617012072    23.253397185    18.871338941    -0.026874674     0.063851212    -0.495177518
   68    31.780052878    22.783883295    15.970706874    -0.048301868     0.259022628    -0.424940240
   21     2.450366951    36.443646027    13.915487564     0.018976532    -0.050356004     0.497095729
   22     9.782672621    31.827268481    15.955414284    -0.016849891     0.194429111    -0.460340528
   23     9.666746203    39.354594193    16.820253915    -0.003870278     0.049663129    -0.497512406
   24     4.613536776    34.242307841    17.648365336    -0.018838489     0.044132892    -0.497692073
   25     5.892195586    30.486158124    10.933381407    -0.003217112     0.052461954    -0.497229719
   26     2.451421543    31.068536007    17.470526614    -0.151005086     0.349570381     0.324033968
   27     1.116044721    33.068794484    12.758730039    -0.059885677     0.029830300    -0.495503642
   28     8.109205438    35.507608231    11.028008903    -0.031271527     0.036657228    -0.497672924
   29     8.821835260    38.160421133    15.107523729    -0.005237133     0.054079590    -0.497039204
   30     7.591801989    39.074082514    11.804569004    -0.018513075     0.050263934    -0.497122523
   31     6.104171051    40.037833206    18.818960219    -0.019234022     0.049539221    -0.497167897
   32     8.231045939    30.688820443    18.047888721    -0.017047470     0.061709038    -0.495884441
   33     1.294269271    38.063147031    15.450106106    -0.017629916     0.078986933    -0.493406780
   34    10.891573242    33.047912991    18.168338581    -0.074600796     0.441226586    -0.223055645
   35     8.263862454    37.649557257    10.344551080    -0.026013393     0.040435569    -0.497682899
   36     7.777630822    32.636317133    15.678621788    -0.027465010     0.147821104    -0.476859093
   37     8.283190183    35.249197018    17.615333047    -0.013854510     0.050553358    -0.497244820
   38     6.368238373    36.166403788    14.314471793    -0.024835933     0.064535474    -0.495195264
   39     8.554745073    35.861744502    13.739997784    -0.040835992     0.048884608    -0.495926120
   40     3.321155506    38.880500250    16.286962684    -0.015883975     0.058001549    -0.496370345
   41     6.820527549    32.072404814    13.727939797    -0.032664895     0.127170527    -0.482452756
   42     1.104637829    38.513992280    13.176973847    -0.027899714     0.061772947    -0.495384405
   43     4.642448556    37.098682774    15.321364858    -0.020853979     0.062992114    -0.495577547
   44     9.582843764    34.098024163    14.604703692    -0.044883794     0.056862273    -0.494724294
   45     4.922274574    39.614731612    14.780528943    -0.010382386     0.052283970    -0.497150473
   46     8.014300984    31.293235253    12.080270288    -0.039812749     0.113005394    -0.485432514
   47     7.438765014    31.862968992    19.645035018    -0.018719638     0.057817250    -0.496292999
   48    10.643680120    33.519818860    10.566137109    -0.020143656     0.043912262    -0.497660473
   49     3.883146558    35.371977467    11.656031937    -0.016021723    -0.031849274     0.498727308
   50     7.037906582    39.446063803    16.777085848     0.002476069     0.032306845    -0.498949032
   51    10.314876686    35.879676181    10.705470734    -0.020520470     0.029439177    -0.498710583
   52    10.022329256    39.642057939    11.406649362     0.014291323     0.035139590    -0.498558890
   53     9.291555919    34.322219558    19.329662168    -0.020570334     0.047396320    -0.497323285
   54     5.450668151    32.428928846    19.641079907    -0.021611277     0.086717773    -0.491948148
   55     3.896891297    40.097238073    12.542486441    -0.006913966     0.050630537    -0.497381891
   56     7.008032830    34.089859724    19.506539154    -0.022461905     0.052439080    -0.496734945
   57     5.897699349    36.016027428    17.136307810    -0.017572914     0.054363315    -0.496725098
   58     4.770659694    30.304159243    16.926637481    -0.013999281     0.059484386    -0.496251577
   59     6.422389735    31.783189017    17.641751193    -0.018210752     0.068506715    -0.494949693
   60     9.527695654    36.462504177    18.887372442    -0.015934046     0.044485074    -0.497762176
   61     9.692572958    31.836000512    19.790782269    -0.024371094     0.084124204    -0.492269406
   62     9.524342154    37.351910974    12.224944336    -0.024255871     0.035051096    -0.498179760
   63     2.786921457    37.885542491    19.418780294    -0.010099600     0.070571074    -0.494891626
   64     4.126880941    39.207234645    10.485599133    -0.006234312     0.046479310    -0.497795949
   65     5.253826651    33.933858561    13.332551704     0.076845225     0.029021389    -0.493206418
   66     1.652136227    36.815606012    17.925907652    -0.005262772     0.075000705    -0.494314877
   67     8.483119693    32.844510071    18.037703756    -0.030363502     0.058035698    -0.495691351
   68     1.646160500    32.374996181    15.137071689    -0.039820601     0.286615697    -0.407756989
   21    12.540022900    36.588306239    14.203574433    -0.000721721    -0.012806588     0.499835443
   22    19.872328571    31.971928693    16.243501154    -0.092061798     0.099625104    -0.481247820
   23    19.756402152    39.499254405    17.108340785    -0.004452740     0.026552851    -0.499274593
   24    14.703192726    34.386968053    17.936452205    -0.004086527    -0.000775633    -0.499982698
   25    15.981851536    30.630818335    11.221468276    -0.009930040     0.025473313    -0.499251945
   26    12.541077493    31.213196218    17.758613484    -0.080815410     0.390520502     0.301600078
   27    11.205700670    33.213454696    13.046816909    -0.054745921     0.003066041    -0.496984390
   28    18.198861388    35.652268442    11.316095773    -0.032112289     0.014813538    -0.498747792
   29    18.911491209    38.305081345    15.395610599    -0.003841606     0.030059977    -0.499080795
   30    17.681457939    39.218742725    12.092655873    -0.017858620     0.027443720    -0.498926760
   31    16.193827001    40.182493418    19.107047089    -0.009875208     0.005653422    -0.499870502
   32    18.320701889    30.833480655    18.335975591    -0.002274276     0.024708873    -0.499383920
   33    11.383925221    38.207807242    15.738192976    -0.005883752     0.039327766    -0.498416200
   34    20.981229192    33.192573203    18.456425451    -0.315509148     0.229256387    -0.312882544
   35    18.353518403    37.794217469    10.632637950    -0.027654859     0.020386115    -0.498818219
   36    17.867286772    32.780977345    15.966708657    -0.069877925     0.068475843    -0.490334717
   37    18.372846133    35.393857229    17.903419916     0.000165280     0.025717404    -0.499338150
   38    16.457894323    36.311064000    14.602558662    -0.013799426     0.025536303    -0.499156762
   39    18.644401023    36.006404714    14.028084653    -0.034936409     0.014597195    -0.498564308
   40    13.410811455    39.025160461    16.575049554    -0.007932019     0.011321379    -0.499808873
   41    16.910183499    32.217065025    14.016026667    -0.070737177     0.046623527    -0.492770229
   42    11.194293778    38.658652492    13.465060717    -0.016050585     0.027670413    -0.498975678
   43    14.732104506    37.243342985    15.609451728    -0.008798253     0.021769233    -0.499448387
   44    19.672499714    34.242684374    14.892790561    -0.038366407     0.017062108    -0.498233784
   45    15.011930524    39.759391824    15.068615813    -0.003001991     0.000474679    -0.499990763
   46    18.103956934    31.437895465    12.368357158    -0.075592303     0.032776693    -0.493164772
   47    17.528420964    32.007629204    19.933121887    -0.000395140     0.023081098    -0.499466823
   48    20.733336070    33.664479071    10.854223979    -0.020551703     0.018371070    -0.499239553
   49    13.972802508    35.516637679    11.944118807     0.001432437    -0.007570765     0.499940628
   50    17.127562532    39.590724014    17.065172718     0.009292430    -0.009558116    -0.499822262
   51    20.404532636    36.024336393    10.993557603    -0.019716221     0.010239473    -0.499506180
   52    20.111985206    39.786718150    11.694736231     0.012620273     0.017053984    -0.499549688
   53    19.381211869    34.466879770    19.617749038    -0.002355229     0.028446022    -0.499184612
   54    15.540324101    32.573589058    19.929166776    -0.006482117     0.051948941    -0.497251737
   55    13.986547247    40.241898285    12.830573311    -0.003068258     0.004089106    -0.499973864
   56    17.097688780    34.234519936    19.794626023    -0.007978243     0.019059609    -0.499572897
   57    15.987355299    36.160687640    17.424394680    -0.003288807     0.014476645    -0.499779562
   58    14.860315644    30.448819455    17.214724351    -0.009762502     0.020376514    -0.499489230
   59    16.512045685    31.927849229    17.929838063    -0.012605091     0.026777768    -0.499123294
   60    19.617351604    36.607164389    19.175459312    -0.001921996     0.026651616    -0.499285487
   61    19.782228908    31.980660723    20.078869138    -0.018492056     0.048674294    -0.497281467
   62    19.613998104    37.496571185    12.513031206    -0.021790826     0.014852110    -0.499304090
   63    12.876577407    38.030202703    19.706867164    -0.005464768     0.027330018    -0.499222602
   64    14.216536891    39.351894857    10.773686003     0.001094440     0.001548056    -0.499996406
   65    15.343482601    34.078518773    13.620638574    -0.000560625     0.001005324    -0.499998675
   66    11.741792177    36.960266223    18.213994521     0.000229573     0.037525635    -0.498589785
   67    18.572775643    32.989170282    18.325790626    -0.012656647     0.029189593    -0.498986750
   68    11.735816449    32.519656392    15.425158558    -0.010623518     0.269639312    -0.420929664
   21    22.629678850    36.732966450    14.491661303     0.011910766    -0.020306565     0.499445470
   22    29.961984520    32.116588905    16.531588023    -0.024113333     0.212024605    -0.452177083
   23    29.846058102    39.643914616    17.396427654    -0.005436960     0.069997323    -0.495046275
   24    24.792848676    34.531628264    18.224539075    -0.017472915     0.055175277    -0.496639090
   25    26.071507486    30.775478547    11.509555146    -0.010078945     0.057036845    -0.496633882
   26    22.630733443    31.357856430    18.046700353    -0.441288090     0.104128472     0.210765469
   27    21.295356620    33.358114907    13.334903778    -0.000974677     0.001200310    -0.499997609
   28    28.288517338    35.796928654    11.604182643    -0.037608329     0.060783470    -0.494864611
   29    29.001147159    38.449741557    15.683697469    -0.003614856     0.073547840    -0.494547923
   30    27.771113889    39.363402937    12.380742743    -0.024806826     0.075981340    -0.493570114
   31    26.283482950    40.327153629    19.395133958    -0.019145801     0.054278850    -0.496676197
   32    28.410357839    30.978140866    18.624062460    -0.010743678     0.073384875    -0.494468638
   33    21.473581170    38.352467454    16.026279845    -0.008208792     0.052402566    -0.497178627
   34    31.070885142    33.337233415    18.744512320    -0.093281870     0.448954662    -0.199344435
   35    28.443174353    37.938877680    10.920724820    -0.032292578     0.066350583    -0.494524812
   36    27.956942722    32.925637556    16.254795527    -0.033859627     0.164439769    -0.470970368
   37    28.462502083    35.538517441    18.191506786    -0.012564101     0.067144222    -0.495311818
   38    26.547550273    36.455724212    14.890645532    -0.028177814     0.074135764    -0.493669828
   39    28.734056973    36.151064925    14.316171523    -0.047832119     0.066934368    -0.493185441
   40    23.500467405    39.169820673    16.863136423    -0.009018873     0.048762757    -0.497534776
   41    26.999839449    32.361725237    14.304113536    -0.038724117     0.143812975    -0.477303123
   42    21.283949728    38.803312703    13.753147587    -0.013928840     0.021744143    -0.499332734
   43    24.821760455    37.388003197    15.897538598    -0.023456768     0.068266758    -0.494761993
   44    29.762155664    34.387344586    15.180877431    -0.052051205     0.073863857    -0.491767021
   45    25.101586473    39.904052036    15.356702683    -0.009810438     0.049666001    -0.497430441
   46    28.193612884    31.582555677    12.656444028    -0.045883658     0.129440621    -0.480770024
   47    27.618076914    32.152289416    20.221208757    -0.016722861     0.066765462    -0.495240062
   48    30.822992020    33.809139283    11.142310849    -0.025636016     0.063080681    -0.495341925
   49    24.062458458    35.661297890    12.232205676    -0.001026527     0.000860902     0.499998205
   50    27.217218482    39.735384226    17.353259587    -0.007692674     0.035788753    -0.498658187
   51    30.494188585    36.168996604    11.281644473    -0.025798952     0.056339353    -0.496145434
   52    30.201641155    39.931378362    11.982823101     0.000193401     0.064230198    -0.495857282
   53    29.470867819    34.611539981    19.905835907    -0.020562554     0.061539848    -0.495772154
   54    25.629980051    32.718249269    20.217253646    -0.017144908     0.097278227    -0.490145895
   55    24.076203197    40.386558497    13.118660180    -0.011318150     0.050188435    -0.497345977
   56    27.187344730    34.379180147    20.082712893    -0.019153780     0.063697061    -0.495556069
   57    26.077011248    36.305347851    17.712481549    -0.017315761     0.065549798    -0.495382063
   58    24.949971594    30.593479667    17.502811220    -0.000702022     0.066479906    -0.495560218
   59    26.601701635    32.072509441    18.217924933    -0.008772398     0.077666271    -0.493853212
   60    29.707007554    36.751824601    19.463546182    -0.017085059     0.064236508    -0.495562077
   61    29.871884858    32.125320935    20.366956008    -0.022262337     0.094812021    -0.490423357
   62    29.703654053    37.641231397    12.801118076    -0.030390912     0.060703687    -0.495370018
   63    22.966233357    38.174862914    19.994954033    -0.001236966     0.044943844    -0.497974418
   64    24.306192841    39.496555068    11.061772872    -0.011746602     0.042612163    -0.498042389
   65    25.433138551    34.223178984    13.908725443     0.053181302     0.078608797    -0.490909774
   66    21.831448126    37.104926435    18.502081391     0.007431826     0.042543951    -0.498131288
   67    28.662431593    33.133830494    18.613877495    -0.028333266     0.071317711    -0.494075915
   68    21.825472399    32.664316604    15.713245428    -0.120986693     0.161535124    -0.457458876
   21    32.719334800    36.877626662    14.779748173     0.016721585    -0.053328603     0.496866631
   22    40.051640470    32.261249116    16.819674893    -0.039892641     0.214002518    -0.450123871
   23    39.935714052    39.788574828    17.684514524    -0.012852348     0.081044932    -0.493220575
   24    34.882504626    34.676288476    18.512625944    -0.028799858     0.063604803    -0.495100997
   25    36.161163436    30.920138759    11.797642015    -0.012529822     0.071730529    -0.494669319
   26    32.720389393    31.502516641    18.334787223    -0.107814560     0.355482873     0.334675884
   27    31.385012570    33.502775119    13.622990648    -0.060672448     0.018450910    -0.495962113
   28    38.378173288    35.941588866    11.892269512    -0.035439398     0.069749764    -0.493841087
   29    39.090803109    38.594401768    15.971784338    -0.008496860     0.085489892    -0.492563987
   30    37.860769839    39.508063149    12.668829613    -0.024792094     0.085868270    -0.491947144
   31    36.373138900    40.471813841    19.683220828    -0.028981768     0.072877725    -0.493810585
   32    38.500013789    31.122801078    18.912149330    -0.021369004     0.081056964    -0.492923051
   33    31.563237120    38.497127665    16.314366715    -0.018359565     0.083188404    -0.492689168
   34    41.160541091    33.481893626    19.032599190    -0.130869646     0.437703535    -0.203196338
   35    38.532830303    38.083537892    11.208811689    -0.030501274     0.074322044    -0.493503704
   36    38.046598671    33.070297768    16.542882397    -0.046025558     0.168877435    -0.468361036
   37    38.552158033    35.683177653    18.479593655    -0.020982913     0.075102674    -0.493881874
   38    36.637206222    36.600384423    15.178732402    -0.036299668     0.085540521    -0.491289277
   39    38.823712923    36.295725137    14.604258392    -0.051383217     0.075477681    -0.491592194
   40    33.590123355    39.314480885    17.151223293    -0.022448194     0.071767981    -0.494313095
   41    37.089495398    32.506385449    14.592200406    -0.049669538     0.149280090    -0.474603405
   42    31.373605678    38.947972915    14.041234456    -0.026216793     0.058736113    -0.495845489
   43    34.911416405    37.532663409    16.185625467    -0.032089812     0.082134008    -0.492162827
   44    39.851811613    34.532004798    15.468964301    -0.056979071     0.081467930    -0.490016695
   45    35.191242423    40.048712247    15.644789552    -0.020552932     0.069955805    -0.494655195
   46    38.283268834    31.727215888    12.944530897    -0.055272943     0.135906240    -0.477989953
   47    37.707732864    32.296949627    20.509295627    -0.024561987     0.076766204    -0.493460899
   48    40.912647970    33.953799495    11.430397718    -0.025709720     0.072845802    -0.493996457
   49    34.152114407    35.805958102    12.520292546    -0.013116289    -0.044593415     0.497834702
   50    37.306874432    39.880044438    17.641346457    -0.009429206     0.056001091    -0.496764499
   51    40.583844535    36.313656816    11.569731342    -0.024390721     0.063639802    -0.495333290
   52    40.291297105    40.076038574    12.270909971     0.002763630     0.072930480    -0.494644830
   53    39.560523769    34.756200193    20.193922777    -0.025637968     0.071216888    -0.494237645
   54    35.719636001    32.862909481    20.505340516    -0.026948822     0.105530460    -0.487992913
   55    34.165859147    40.531218708    13.406747050    -0.014368152     0.072385467    -0.494523913
   56    37.277000680    34.523840359    20.370799763    -0.027329789     0.072706636    -0.493929983
   57    36.166667198    36.450008063    18.000568419    -0.027416183     0.074742584    -0.493621210
   58    35.039627543    30.738139878    17.790898090    -0.019501950     0.073600933    -0.494168571
   59    36.691357584    32.217169652    18.506011802    -0.023705855     0.085151585    -0.492125228
   60    39.796663504    36.896484812    19.751633051    -0.022113430     0.071818721    -0.494320814
   61    39.961540808    32.269981147    20.655042877    -0.032091711     0.103681275    -0.488078186
   62    39.793310003    37.785891608    13.089204945    -0.031089294     0.067830417    -0.494401143
   63    33.055889307    38.319523126    20.283040903    -0.010868084     0.075088913    -0.494210016
   64    34.395848791    39.641215280    11.349859742    -0.013268790     0.066666572    -0.495357959
   65    35.522794500    34.367839196    14.196812313     0.038892490     0.106509922    -0.486973316
   66    31.921104076    37.249586647    18.790168261    -0.003987962     0.075387449    -0.494267973
   67    38.752087543    33.278490706    18.901964365    -0.035940656     0.079946404    -0.492256886
   68    31.915128349    32.808976816    16.001332297    -0.019200521     0.286946190    -0.409014943
   21     2.332011708     6.400501200    23.835596655     0.011184504    -0.042299077     0.498082016
   22     9.664317379     1.784123655    25.875523375    -0.024296890     0.191239139    -0.461342880
   23     9.548390960     9.311449367    26.740363006    -0.008363693     0.044930845    -0.497906887
   24     4.495181534     4.199163015    27.568474427    -0.014923534     0.040445503    -0.498137982
   25     5.773840344     0.443013297    20.853490498    -0.005987119     0.047850279    -0.497669072
   26     2.333066301     1.025391180    27.390635705    -0.150654235     0.346597625     0.327373468
   27     0.997689478     3.025649657    22.678839130    -0.060599908     0.017460941    -0.496006821
   28     7.990850196     5.464463404    20.948117995    -0.029625290     0.026235216    -0.498431596
   29     8.703480017     8.117276307    25.027632821    -0.000852434     0.049263076    -0.497566501
   30     7.473446747     9.030937687    21.724678095    -0.016597142     0.037753655    -0.498296294
   31     5.985815809     9.994688379    28.739069310    -0.025530588     0.044212641    -0.497386602
   32     8.112690697     0.645675616    27.967997812    -0.013241228     0.062870739    -0.495854757
   33     1.175914029     8.020002204    25.370215197    -0.017376450     0.070509098    -0.494698419
   34    10.773218000     3.004768165    28.088447672    -0.091411174     0.436700720    -0.225691114
   35     8.145507211     7.606412431    20.264660171    -0.022695413     0.030652150    -0.498543242
   36     7.659275580     2.593172306    25.598730879    -0.033166108     0.143039594    -0.477953642
   37     8.164834941     5.206052191    27.535442138    -0.012380575     0.046945044    -0.497637302
   38     6.249883131     6.123258962    24.234580884    -0.027503740     0.055083382    -0.496194886
   39     8.436389831     5.818599676    23.660106875    -0.041977167     0.039209060    -0.496689608
   40     3.202800263     8.837355423    26.207071775    -0.018804171     0.049609502    -0.497177333
   41     6.702172307     2.029259987    23.648048888    -0.037975271     0.121887364    -0.483426674
   42     0.986282586     8.470847453    23.097082939    -0.026672159     0.052493595    -0.496520914
   43     4.524093314     7.055537947    25.241473950    -0.023840798     0.053534464    -0.496553801
   44     9.464488522     4.054879336    24.524812783    -0.046676374     0.047669064    -0.495528987
   45     4.803919332     9.571586786    24.700638035    -0.011933389     0.043107223    -0.497995343
   46     7.895945742     1.250090427    22.000379380    -0.044487827     0.107278821    -0.486325085
   47     7.320409772     1.819824166    29.565144109    -0.013926917     0.058312660    -0.496392662
   48    10.525324878     3.476674033    20.486246201    -0.024209151     0.033440097    -0.498292762
   49     3.764791316     5.328832640    21.576141028    -0.025050738    -0.020906710     0.498934234
   50     6.919551340     9.402918976    26.697194939    -0.006801826     0.026916744    -0.499228629
   51    10.196521444     5.836531355    20.625579825    -0.018597991     0.019359952    -0.499278787
   52     9.903974014     9.598913112    21.326758453     0.014870635     0.024102402    -0.499197294
   53     9.173200677     4.279074732    29.249771259    -0.017556068     0.045066614    -0.497655287
   54     5.332312909     2.385784020    29.561188998    -0.014501569     0.087561330    -0.492059669
   55     3.778536055    10.054093247    22.462595532    -0.009601403     0.035738027    -0.498628726
   56     6.889677588     4.046714898    29.426648245    -0.016748867     0.052420125    -0.496962379
   57     5.779344107     5.972882602    27.056416901    -0.014967132     0.049504719    -0.497318075
   58     4.652304452     0.261014417    26.846746572    -0.012937259     0.061471771    -0.496038152
   59     6.304034493     1.740044191    27.561860285    -0.016417545     0.069338149    -0.494896641
   60     9.409340412     6.419359351    28.807481534    -0.014692068     0.040331059    -0.498154142
   61     9.574217716     1.792855685    29.710891360    -0.020303684     0.084132654    -0.492452492
   62     9.405986912     7.308766147    22.145053428    -0.022422124     0.026286309    -0.498804850
   63     2.668566215     7.842397665    29.338889385    -0.011998618     0.061027421    -0.496116606
   64     4.008525699     9.164089819    20.405708224    -0.010758581     0.030032069    -0.498981290
   65     5.135471409     3.890713734    23.252660795     0.046256224     0.066603464    -0.493380523
   66     1.533780985     6.772461185    27.846016743    -0.006293148     0.066349872    -0.495538183
   67     8.364764451     2.801365244    27.957812847    -0.027035716     0.057103917    -0.495992150
   68     1.527805257     2.331851354    25.057180780    -0.042185006     0.285457296    -0.408331431
   21    12.421667658     6.545161412    24.123683524     0.003100839    -0.007947646     0.499927214
   22    19.753973328     1.928783866    26.163610245     0.016836605     0.161040001    -0.473056706
   23    19.638046910     9.456109578    27.028449876     0.011448377     0.010119138    -0.499766483
   24    14.584837484     4.343823226    27.856561296    -0.000015356    -0.000223339    -0.499999950
   25    15.863496294     0.587673509    21.141577367     0.005474369     0.003955783    -0.499954381
   26    12.422722251     1.170051392    27.678722575    -0.117941960     0.379210166     0.303791613
   27    11.087345428     3.170309869    22.966926000    -0.055209963    -0.008393212    -0.496871627
   28    18.080506146     5.609123616    21.236204864    -0.012059239    -0.002192048    -0.499849747
   29    18.793135967     8.261936519    25.315719690     0.014933448     0.013528774    -0.499593799
   30    17.563102697     9.175597899    22.012764964    -0.003151849     0.017402116    -0.499687134
   31    16.075471758    10.139348591    29.027156180    -0.012448917     0.000572601    -0.499844672
   32    18.202346647     0.790335828    28.256084682    -0.009841986     0.021164741    -0.499454892
   33    11.265569978     8.164662416    25.658302067    -0.007904286     0.035654085    -0.498664525
   34    20.862873950     3.149428376    28.376534542     0.023939188     0.434932657    -0.245480140
   35    18.235163161     7.751072642    20.552747041    -0.009426870     0.003041499    -0.499901874
   36    17.748931530     2.737832518    25.886817749    -0.001391942     0.111792078    -0.487340327
   37    18.254490891     5.350712403    27.823529007    -0.001745897     0.004384822    -0.499977725
   38    16.339539081     6.267919174    24.522667754    -0.009504603     0.020967261    -0.499469755
   39    18.526045781     5.963259887    23.948193744    -0.023146114     0.010925387    -0.499344464
   40    13.292456213     8.982015635    26.495158645    -0.008377337     0.008357937    -0.499859945
   41    16.791828257     2.173920199    23.936135758    -0.009314405     0.090674018    -0.491621261
   42    11.075938536     8.615507665    23.385169808    -0.010583655     0.023513311    -0.499334668
   43    14.613749263     7.200198159    25.529560819    -0.006144787     0.017701785    -0.499648765
   44    19.554144472     4.199539548    24.812899653    -0.029226998     0.015745566    -0.498896642
   45    14.893575281     9.716246998    24.988724904     0.002074419     0.001721664    -0.499992733
   46    17.985601692     1.394750638    22.288466249    -0.019537261     0.075346903    -0.493903978
   47    17.410065722     1.964484377    29.853230979    -0.000631390     0.018784506    -0.499646619
   48    20.614980828     3.621334245    20.774333070     0.000384493     0.001795749    -0.499996627
   49    13.854447266     5.473492852    21.864227898    -0.006807915     0.012139122     0.499806256
   50    17.009207290     9.547579188    26.985281809     0.006329923    -0.016368367    -0.499691914
   51    20.286177393     5.981191566    20.913666694     0.001211841    -0.004824925    -0.499975251
   52    19.993629963     9.743573324    21.614845323     0.023144226     0.007577400    -0.499406576
   53    19.262856627     4.423734943    29.537858129    -0.007866894     0.000740171    -0.499937560
   54    15.421968859     2.530444231    29.849275868    -0.000986454     0.045121047    -0.497958952
   55    13.868192005    10.198753458    22.750682402     0.002718310     0.007771223    -0.499932214
   56    16.979333538     4.191375109    29.714735115     0.002096849     0.008949321    -0.499915506
   57    15.869000056     6.117542813    27.344503771    -0.000220977     0.009619055    -0.499907416
   58    14.741960402     0.405674629    27.134833442    -0.000059489     0.022368919    -0.499499377
   59    16.393690443     1.884704402    27.849947154    -0.007009950     0.028959174    -0.499111437
   60    19.498996362     6.564019562    29.095568403    -0.001641128    -0.000942558    -0.499996418
   61    19.663873666     1.937515897    29.998978229    -0.004429928     0.045335151    -0.497920777
   62    19.495642861     7.453426359    22.433140297    -0.006162306    -0.000337696    -0.499961910
   63    12.758222165     7.987057876    29.626976255    -0.002822826     0.029927061    -0.499095585
   64    14.098181649     9.308750030    20.693795094     0.004507806     0.003983332    -0.499963811
   65    15.225127359     4.035373946    23.540747665     0.037133211     0.045372859    -0.496550529
   66    11.623436934     6.917121397    28.134103612     0.002581516     0.036987228    -0.498623386
   67    18.454420401     2.946025456    28.245899717    -0.018220697     0.016332209    -0.499400906
   68    11.617461207     2.476511566    25.345267649    -0.020276380     0.267039168    -0.422230921
   21    22.511323608     6.689821624    24.411770394    -0.003066753     0.008369552     0.499920539
   22    29.843629278     2.073444078    26.451697114    -0.019095929     0.197801135    -0.458813749
   23    29.727702860     9.600769790    27.316536745     0.008404910     0.029811507    -0.499039709
   24    24.674493434     4.488483438    28.144648166    -0.022294044     0.011934714    -0.499360129
   25    25.953152244     0.732333720    21.429664237    -0.006346905     0.050255827    -0.497427451
   26    22.512378201     1.314711603    27.966809444     0.019763499     0.390181594     0.312038023
   27    21.177001378     3.314970081    23.255012870    -0.046214540    -0.038639518    -0.496357939
   28    28.170162096     5.753783827    21.524291734    -0.029609204     0.030759579    -0.498173808
   29    28.882791917     8.406596730    25.603806560     0.015581091     0.032856496    -0.498675927
   30    27.652758647     9.320258110    22.300851834    -0.012787518     0.039909240    -0.498240637
   31    26.165127708    10.284008803    29.315243049    -0.015042601     0.006548733    -0.499730762
   32    28.292002597     0.934996040    28.544171552    -0.011751730     0.057207095    -0.496577532
   33    21.355225928     8.309322627    25.946388936     0.002221224     0.018360793    -0.499657830
   34    30.952529899     3.294088588    28.664621411    -0.084887748     0.443733186    -0.214231019
   35    28.324819111     7.895732854    20.840833911    -0.023337186     0.035542868    -0.498188800
   36    27.838587479     2.882492730    26.174904618    -0.026439262     0.148192536    -0.476801780
   37    28.344146841     5.495372614    28.111615877    -0.007442886     0.038325626    -0.498473419
   38    26.429195030     6.412579385    24.810754623    -0.022398853     0.038002706    -0.498050284
   39    28.615701731     6.107920099    24.236280614    -0.037905322     0.037727063    -0.497131628
   40    23.382112163     9.126675846    26.783245515    -0.003302326     0.004438562    -0.499969393
   41    26.881484206     2.318580410    24.224222628    -0.030292253     0.128941107    -0.482137502
   42    21.165594486     8.760167877    23.673256678    -0.001771309    -0.003107155    -0.499987208
   43    24.703405213     7.344858371    25.817647689    -0.017475294     0.029536306    -0.498820830
   44    29.643800421     4.344199759    25.100986522    -0.043188323     0.046866903    -0.495921629
   45    24.983231231     9.860907209    25.276811774    -0.000549138     0.000089857    -0.499999690
   46    28.075257642     1.539410850    22.576553119    -0.037244997     0.115452792    -0.485060267
   47    27.499721672     2.109144589    30.141317848    -0.012587533     0.049115301    -0.497422598
   48    30.704636778     3.765994456    21.062419940    -0.018875668     0.042931697    -0.497795720
   49    23.944103215     5.618153064    22.152314767    -0.019986307     0.016749176     0.499319550
   50    27.098863240     9.692239399    27.273368679     0.006330369    -0.008605673    -0.499885856
   51    30.375833343     6.125851778    21.201753564    -0.016537971     0.026496122    -0.499023498
   52    30.083285913     9.888233536    21.902932192     0.017531019     0.030422629    -0.498765603
   53    29.352512577     4.568395155    29.825944999    -0.010142150     0.037387414    -0.498497059
   54    25.511624809     2.675104443    30.137362737    -0.007372255     0.079922935    -0.493515931
   55    23.957847955    10.343413670    23.038769271     0.006169122     0.001227405    -0.499960434
   56    27.068989488     4.336035321    30.002821984    -0.013595609     0.041352681    -0.498101511
   57    25.958656006     6.262203025    27.632590640    -0.018320033     0.026323301    -0.498970400
   58    24.831616351     0.550334840    27.422920312    -0.014014096     0.047594407    -0.497532288
   59    26.483346392     2.029364614    28.138034024    -0.016560414     0.058258127    -0.496318188
   60    29.588652312     6.708679774    29.383655273    -0.012368712     0.036139560    -0.498538812
   61    29.753529616     2.082176108    30.287065099    -0.031341520     0.071030087    -0.493935660
   62    29.585298811     7.598086570    22.721227167    -0.018085253     0.029680429    -0.498790533
   63    22.847878115     8.131718088    29.915063125     0.004553557     0.005817923    -0.499945414
   64    24.187837599     9.453410242    20.981881964     0.008457977    -0.002128466    -0.499923926
   65    25.314783308     4.180034158    23.828834535     0.075266033     0.039325622    -0.492735750
   66    21.713092884     7.061781608    28.422190482     0.011057473     0.007730804    -0.499817934
   67    28.544076351     3.090685667    28.533986586    -0.024797129     0.050143476    -0.496860880
   68    21.707117157     2.621171777    25.633354519     0.035448716     0.239077344    -0.437704709
   21    32.600979558     6.834481835    24.699857264    -0.007725781    -0.024243794     0.499352131
   22    39.933285228     2.218104290    26.739783984    -0.041494371     0.211748489    -0.451044116
   23    39.817358810     9.745430001    27.604623615    -0.014564929     0.072399136    -0.494516155
   24    34.764149383     4.633143649    28.432735035    -0.021237256     0.059223115    -0.496025807
   25    36.042808193     0.876993932    21.717751106    -0.014473136     0.069561520    -0.494925978
   26    32.602034150     1.459371815    28.254896314    -0.082565554     0.350803898     0.346582681
   27    31.266657328     3.459630292    23.543099739    -0.052404882    -0.009834024    -0.497148892
   28    38.259818045     5.898444039    21.812378603    -0.039311612     0.056876278    -0.495196614
   29    38.972447867     8.551256942    25.891893429    -0.010625796     0.076345903    -0.494022667
   30    37.742414596     9.464918322    22.588938704    -0.024919107     0.073414626    -0.493952762
   31    36.254783658    10.428669014    29.603329919    -0.033478529     0.061625767    -0.495057020
   32    38.381658547     1.079656251    28.832258421    -0.020523411     0.081697076    -0.492853302
   33    31.444881878     8.453982839    26.234475806    -0.008253699     0.057385219    -0.496627439
   34    41.042185849     3.438748800    28.952708281    -0.133053209     0.438107856    -0.200893878
   35    38.414475061     8.040393065    21.128920780    -0.033799944     0.061502193    -0.495050547
   36    37.928243429     3.027152941    26.462991488    -0.046883619     0.164633711    -0.469784703
   37    38.433802790     5.640032826    28.399702747    -0.018885118     0.069243788    -0.494821837
   38    36.518850980     6.557239597    25.098841493    -0.035201073     0.073356300    -0.493335320
   39    38.705357681     6.252580310    24.524367483    -0.052306861     0.063889451    -0.493135002
   40    33.471768113     9.271336058    27.071332384    -0.019019221     0.052231273    -0.496900557
   41    36.971140156     2.463240622    24.512309497    -0.050413030     0.144632046    -0.475962286
   42    31.255250436     8.904828088    23.961343547    -0.003170969     0.029654481    -0.499109764
   43    34.793061163     7.489518582    26.105734558    -0.030362895     0.068595762    -0.494340688
   44    39.733456371     4.488859971    25.389073392    -0.057825387     0.070867328    -0.491562861
   45    35.072887181    10.005567421    25.564898643    -0.021114778     0.051875976    -0.496853147
   46    38.164913591     1.684071062    22.864639988    -0.055756817     0.131196182    -0.479248098
   47    37.589377621     2.253804801    30.429404718    -0.021783056     0.076936494    -0.493564863
   48    40.794292728     3.910654668    21.350506809    -0.028628966     0.063644311    -0.495105831
   49    34.033759165     5.762813275    22.440401637    -0.004541926     0.003764738     0.499965196
   50    37.188519189     9.836899611    27.561455548    -0.011493541     0.044578850    -0.497876114
   51    40.465489293     6.270511990    21.489840433    -0.027492577     0.051124257    -0.496619038
   52    40.172941863    10.032893747    22.191019062    -0.004966539     0.060884775    -0.496254348
   53    39.442168527     4.713055366    30.114031868    -0.022273188     0.067345193    -0.494942956
   54    35.601280758     2.819764655    30.425449607    -0.021135476     0.106327064    -0.488106389
   55    34.047503904    10.488073882    23.326856141    -0.022898539     0.049282345    -0.497038135
   56    37.158645437     4.480695532    30.290908854    -0.023641546     0.071614376    -0.494279737
   57    36.048311956     6.406863237    27.920677510    -0.020866819     0.068653240    -0.494824523
   58    34.921272301     0.694995052    27.711007181    -0.020984675     0.074476334    -0.493976638
   59    36.573002342     2.174024826    28.426120893    -0.024135663     0.085233728    -0.492090115
   60    39.678308261     6.853339986    29.671742142    -0.021226788     0.064624928    -0.495351433
   61    39.843185566     2.226836320    30.575151969    -0.030480641     0.102970863    -0.488331785
   62    39.674954761     7.742746782    23.009314036    -0.033591920     0.055930256    -0.495725115
   63    32.937534065     8.276378300    30.203149994    -0.017818665     0.050511634    -0.497122792
   64    34.277493549     9.598070453    21.269968833    -0.023586884     0.041111831    -0.497748407
   65    35.404439258     4.324694369    24.116921404    -0.017557741     0.086516788    -0.492144868
   66    31.802748834     7.206441820    28.710277352    -0.006317411     0.049458369    -0.497507749
   67    38.633732300     3.235345879    28.822073456    -0.034236376     0.077700207    -0.492737809
   68    31.796773107     2.765831989    25.921441389    -0.014878867     0.274337140    -0.417753220
   21     2.467087179    16.425594721    23.866222078     0.017659387    -0.041650854     0.497949146
   22     9.799392850    11.809217176    25.906148799    -0.011712472     0.169497487    -0.470248254
   23     9.683466431    19.336542888    26.770988430    -0.002919109     0.053983667    -0.497068650
   24     4.630257005    14.224256536    27.599099850    -0.014350157     0.034420888    -0.498607336
   25     5.908915815    10.468106818    20.884115921    -0.010018017     0.010094523    -0.499797699
   26     2.468141772    11.050484701    27.421261129    -0.150670098     0.357327181     0.315619720
   27     1.132764949    13.050743178    22.709464554    -0.059781487     0.014099218    -0.496213045
   28     8.125925667    15.489556925    20.978743418    -0.021822220     0.011074396    -0.499400789
   29     8.838555488    18.142369828    25.058258244     0.000834509     0.055263526    -0.496935857
   30     7.608522218    19.056031208    21.755303518    -0.015628468     0.040583041    -0.498105177
   31     6.120891280    20.019781900    28.769694734    -0.021592534     0.055167472    -0.496477907
   32     8.247766168    10.670769137    27.998623236    -0.015855789     0.046916510    -0.497541390
   33     1.310989500    18.045095725    25.400840621    -0.018911332     0.073229817    -0.494246654
   34    10.908293471    13.029861686    28.119073096    -0.048067141     0.428978645    -0.252322953
   35     8.280582682    17.631505952    20.295285595    -0.019431053     0.019854182    -0.499227649
   36     7.794351051    12.618265827    25.629356302    -0.023253351     0.122053492    -0.484316247
   37     8.299910412    15.231145712    27.566067561    -0.012299945     0.042145361    -0.498068750
   38     6.384958602    16.148352483    24.265206308    -0.023952331     0.052885894    -0.496617930
   39     8.571465302    15.843693197    23.690732298    -0.035926841     0.033380916    -0.497589164
   40     3.337875734    18.862448944    26.237697199    -0.017424426     0.055728527    -0.496579018
   41     6.837247778    12.054353508    23.678674312    -0.028463190     0.097470546    -0.489580779
   42     1.121358057    18.495940974    23.127708362    -0.027086715     0.052274884    -0.496521547
   43     4.659168785    17.080631468    25.272099373    -0.021002154     0.053355835    -0.496701182
   44     9.599563993    14.079972857    24.555438207    -0.039937214     0.039008284    -0.496873598
   45     4.938994803    19.596680307    24.731263458    -0.012503263     0.049776554    -0.497358988
   46     8.031021213    11.275183948    22.031004803    -0.036330800     0.079864382    -0.492241560
   47     7.455485243    11.844917687    29.595769533    -0.015344104     0.044554031    -0.497774544
   48    10.660400349    13.501767554    20.516871624    -0.013634895     0.002078176    -0.499809735
   49     3.899866787    15.353926161    21.606766452     0.003654659    -0.028218520     0.499189702
   50     7.054626811    19.428012497    26.727820363    -0.001690019     0.037792447    -0.498566821
   51    10.331596915    15.861624876    20.656205248    -0.009939560     0.012593178    -0.499742551
   52    10.039049485    19.624006633    21.357383877     0.015882032     0.028394517    -0.498940390
   53     9.308276148    14.304168253    29.280396683    -0.018940268     0.037703615    -0.498216523
   54     5.467388380    12.410877541    29.591814422    -0.017367557     0.073708398    -0.494232172
   55     3.913611526    20.079186768    22.493220956    -0.011284285     0.046933405    -0.497664466
   56     7.024753059    14.071808419    29.457273669    -0.018394241     0.040760100    -0.497996251
   57     5.914419578    15.997976123    27.087042325    -0.014515369     0.044700389    -0.497786279
   58     4.787379923    10.286107938    26.877371996    -0.014690413     0.044223183    -0.497823766
   59     6.439109964    11.765137712    27.592485708    -0.017384439     0.053276343    -0.496849487
   60     9.544415883    16.444452872    28.838106957    -0.015170530     0.038443834    -0.498288999
   61     9.709293187    11.817949206    29.741516783    -0.017308645     0.071587227    -0.494545933
   62     9.541062383    17.333859668    22.175678851    -0.017955022     0.022601102    -0.499166112
   63     2.803641686    17.867491186    29.369514809    -0.012068247     0.064876238    -0.495626302
   64     4.143601170    19.189183340    20.436333648    -0.010772243     0.041274895    -0.498177019
   65     5.270546880    13.915807255    23.283286219     0.004153781    -0.006301103    -0.499943039
   66     1.668856456    16.797554706    27.876642166    -0.007447485     0.067841134    -0.495320215
   67     8.499839922    12.826458765    27.988438271    -0.029228867     0.044430743    -0.497163537
   68     1.662880728    12.356944875    25.087806203    -0.040464681     0.273843910    -0.416379781
   21    12.556743129    16.570254933    24.154308948    -0.000179404    -0.008923661     0.499920330
   22    19.889048799    11.953877388    26.194235668     0.026180002     0.149076300    -0.476540517
   23    19.773122381    19.481203099    27.059075299     0.008334945     0.022737866    -0.499413174
   24    14.719912955    14.368916747    27.887186720    -0.001130362    -0.005715608    -0.499966053
   25    15.998571765    10.612767030    21.172202791     0.004933818     0.000655069    -0.499975228
   26    12.557797722    11.195144913    27.709347998    -0.095778532     0.397541657     0.287727482
   27    11.222420899    13.195403390    22.997551424    -0.051506133    -0.018197808    -0.497007000
   28    18.215581617    15.634217137    21.266830288    -0.017533583     0.001218858    -0.499690992
   29    18.928211438    18.287030040    25.346345114     0.011142666     0.024782466    -0.499261124
   30    17.698178168    19.200691420    22.043390388    -0.003853128     0.019670163    -0.499598077
   31    16.210547229    20.164442112    29.057781603    -0.018948841     0.013158934    -0.499467500
   32    18.337422118    10.815429349    28.286710106    -0.003400289     0.005067732    -0.499962755
   33    11.400645449    18.189755937    25.688927490    -0.011679493     0.038041983    -0.498413881
   34    20.997949421    13.174521897    28.407159965     0.026753366     0.426699074    -0.259253076
   35    18.370238632    17.776166163    20.583372465    -0.012269580     0.006153317    -0.499811559
   36    17.884007001    12.762926039    25.917443172     0.003985074     0.102641481    -0.489335106
   37    18.389566362    15.375805924    27.854154431     0.000688432     0.002052952    -0.499995311
   38    16.474614552    16.293012695    24.553293177    -0.013869295     0.020657014    -0.499380547
   39    18.661121252    15.988353408    23.978819168    -0.028146291     0.009271328    -0.499121056
   40    13.427531684    19.007109156    26.525784069    -0.014764210     0.014367234    -0.499575420
   41    16.926903728    12.199013720    23.966761181    -0.008906121     0.081862028    -0.493172677
   42    11.211014007    18.640601186    23.415795232    -0.015804385     0.020385787    -0.499334198
   43    14.748824734    17.225291680    25.560186243    -0.012416876     0.017566564    -0.499537023
   44    19.689219943    14.224633069    24.843525076    -0.031163963     0.017688960    -0.498714255
   45    15.028650752    19.741340519    25.019350328    -0.008025120     0.007083542    -0.499885408
   46    18.120677163    11.419844159    22.319091673    -0.019167423     0.067217193    -0.495090354
   47    17.545141193    11.989577899    29.883856402    -0.001184745     0.003580501    -0.499985776
   48    20.750056299    13.646427766    20.804958494    -0.012347649    -0.000079758    -0.499847506
   49    13.989522737    15.498586373    21.894853321    -0.018772658     0.000174322     0.499647433
   50    17.144282761    19.572672709    27.015907233     0.001483570    -0.003706056    -0.499984064
   51    20.421252864    16.006285087    20.944292118    -0.005776732    -0.004279254    -0.499948315
   52    20.128705434    19.768666845    21.645470746     0.021443106     0.008625135    -0.499465515
   53    19.397932098    14.448828464    29.568483553    -0.007764707    -0.004167703    -0.499922334
   54    15.557044330    12.555537752    29.879901291     0.002554925     0.031215767    -0.499018084
   55    14.003267476    20.223846979    22.781307825     0.001476144     0.007727403    -0.499938104
   56    17.114409009    14.216468630    29.745360538    -0.002222909    -0.002345298    -0.499989558
   57    16.004075527    16.142636334    27.375129194    -0.001302670     0.006178073    -0.499960133
   58    14.877035873    10.430768150    27.165458866    -0.001827851    -0.000166419    -0.499996631
   59    16.528765914    11.909797924    27.880572578    -0.004074751     0.010700834    -0.499868871
   60    19.634071833    16.589113083    29.126193827    -0.004863826    -0.001161638    -0.499974993
   61    19.798949137    11.962609418    30.029603653    -0.001569908     0.033025136    -0.498905678
   62    19.630718332    17.478519880    22.463765721    -0.011696127     0.000492499    -0.499862939
   63    12.893297636    18.012151397    29.657601678    -0.007869045     0.031680671    -0.498933275
   64    14.233257120    19.333843551    20.724420518     0.004746389     0.002207003    -0.499972600
   65    15.360202830    14.060467467    23.571373089     0.072601625     0.037437635    -0.493282300
   66    11.758512405    16.942214918    28.164729036    -0.000923638     0.037595470    -0.498583722
   67    18.589495872    12.971118977    28.276525140    -0.016234366     0.005437586    -0.499706792
   68    11.752536678    12.501605087    25.375893073    -0.002393009     0.245741198    -0.435437180
   21    22.646399079    16.714915145    24.442395818    -0.000378831     0.008434835     0.499928705
   22    29.978704749    12.098537599    26.482322538     0.043174111     0.158711406    -0.472172305
   23    29.862778331    19.625863311    27.347162169    -0.011682376     0.044816470    -0.497850385
   24    24.809568905    14.513576959    28.175273589    -0.012750207    -0.002169611    -0.499832697
   25    26.088227715    10.757427241    21.460289660     0.007818874     0.008227824    -0.499871152
   26    22.647453672    11.339805124    27.997434868     0.022610031     0.391426278     0.310280929
   27    21.312076849    13.340063602    23.285638293    -0.054734087    -0.035452473    -0.495729061
   28    28.305237567    15.778877348    21.554917157    -0.034545129     0.021974047    -0.498320956
   29    29.017867388    18.431690251    25.634431983    -0.016849462     0.043012305    -0.497861464
   30    27.787834118    19.345351631    22.331477258    -0.018756127     0.046074703    -0.497519175
   31    26.300203179    20.309102324    29.345868473    -0.021626859     0.024134483    -0.498948700
   32    28.427078068    10.960089561    28.574796975    -0.006251929     0.016317703    -0.499694553
   33    21.490301399    18.334416148    25.977014360    -0.008047003     0.020554599    -0.499512517
   34    31.087605370    13.319182109    28.695246835     0.124920394     0.418534659    -0.243359065
   35    28.459894582    17.920826375    20.871459334    -0.028531184     0.031294923    -0.498203371
   36    27.973662950    12.907586251    26.205530042     0.008955787     0.114570152    -0.486614297
   37    28.479222312    15.520466135    28.142241300    -0.014932381     0.016738802    -0.499496583
   38    26.564270501    16.437672906    24.841380047    -0.023124047     0.026778312    -0.498746629
   39    28.750777202    16.133013620    24.266906037    -0.041900731     0.024339322    -0.497646387
   40    23.517187634    19.151769367    26.813870938    -0.007853857     0.008962058    -0.499857978
   41    27.016559677    12.343673931    24.254848051    -0.001846823     0.095641781    -0.490763934
   42    21.300669957    18.785261398    23.703882101    -0.008722500    -0.002444772    -0.499917934
   43    24.838480684    17.369951892    25.848273112    -0.015589434     0.022088002    -0.499268555
   44    29.778875892    14.369293280    25.131611946    -0.046037944     0.029360056    -0.497009552
   45    25.118306702    19.886000730    25.307437197     0.001314054     0.000854372    -0.499997543
   46    28.210333113    11.564504371    22.607178542    -0.014546576     0.082328192    -0.492960917
   47    27.634797143    12.134238110    30.171943272    -0.011010646     0.003278341    -0.499868001
   48    30.839712249    13.791087977    21.093045363    -0.020431933     0.020866708    -0.499146388
   49    24.079178686    15.643246585    22.182940191    -0.002129639     0.027006934     0.499265551
   50    27.233938711    19.717332920    27.303994102    -0.001211743     0.006541712    -0.499955736
   51    30.510908814    16.150945299    21.232378987    -0.023262641     0.019140601    -0.499091662
   52    30.218361384    19.913327057    21.933557616     0.004871999     0.036951657    -0.498608904
   53    29.487588048    14.593488676    29.856570422    -0.025674825     0.006681511    -0.499295665
   54    25.646700280    12.700197964    30.167988161    -0.013545459     0.032702624    -0.498745485
   55    24.092923426    20.368507191    23.069394695     0.002636944     0.006536400    -0.499950320
   56    27.204064959    14.361128842    30.033447408    -0.015697203    -0.001352931    -0.499751706
   57    26.093731477    16.287296546    27.663216064    -0.012861452     0.012752811    -0.499671841
   58    24.966691823    10.575428361    27.453545735    -0.004973896    -0.000033565    -0.499975259
   59    26.618421863    12.054458135    28.168659447    -0.005978360     0.016491123    -0.499692207
   60    29.723727783    16.733773295    29.414280696    -0.020661425     0.019401708    -0.499196033
   61    29.888605087    12.107269629    30.317690523    -0.010669979     0.037966194    -0.498442293
   62    29.720374282    17.623180091    22.751852590    -0.027870676     0.025208957    -0.498585734
   63    22.982953586    18.156811609    29.945688548    -0.003667888     0.010444985    -0.499877434
   64    24.322913070    19.478503763    21.012507387     0.000327745    -0.000284423    -0.499999812
   65    25.449858780    14.205127679    23.859459958     0.086888770     0.021634014    -0.491916976
   66    21.848168355    17.086875129    28.452815906     0.004368658     0.010599906    -0.499868540
   67    28.679151822    13.115779188    28.564612010    -0.027350030     0.016432215    -0.498980920
   68    21.842192628    12.646265298    25.663979942     0.044029650     0.226843099    -0.443400043
   21    32.736055029    16.859575356    24.730482687     0.023799500    -0.021099628     0.498987364
   22    40.068360699    12.243197811    26.770409407    -0.040011321     0.199734300    -0.456623810
   23    39.952434281    19.770523523    27.635249039    -0.021351968     0.072943224    -0.494189619
   24    34.899224854    14.658237170    28.463360459    -0.025610615     0.052211717    -0.496606517
   25    36.177883664    10.902087453    21.748376530    -0.013342924     0.051056667    -0.497207384
   26    32.737109622    11.484465336    28.285521738     0.150892616     0.354382747     0.318817012
   27    31.401732799    13.484723813    23.573725163    -0.079744027    -0.018280305    -0.493261311
   28    38.394893516    15.923537560    21.843004027    -0.032254478     0.054980922    -0.495920101
   29    39.107523338    18.576350463    25.922518853    -0.017225651     0.075715129    -0.493933696
   30    37.877490067    19.490011843    22.619564127    -0.019429460     0.072311657    -0.494361730
   31    36.389859129    20.453762535    29.633955342    -0.035452651     0.062390756    -0.494823709
   32    38.516734018    11.104749772    28.862883845    -0.021492183     0.068750979    -0.494784184
   33    31.579957349    18.479076360    26.265101230    -0.019879196     0.057220884    -0.496317024
   34    41.177261320    13.463842321    28.983333704    -0.128875331     0.432401659    -0.215452905
   35    38.549550532    18.065486586    21.159546204    -0.027165455     0.060087696    -0.495632431
   36    38.063318900    13.052246462    26.493616911    -0.046190859     0.153265919    -0.473683399
   37    38.568878261    15.665126347    28.430328170    -0.022690266     0.063776745    -0.495396486
   38    36.653926451    16.582333118    25.129466916    -0.033918191     0.070627441    -0.493823168
   39    38.840433152    16.277673831    24.554992907    -0.050537563     0.059554897    -0.493861488
   40    33.606843584    19.296429579    27.101957808    -0.023154059     0.052769461    -0.496668172
   41    37.106215627    12.488334143    24.542934921    -0.050249224     0.132340112    -0.479542605
   42    31.390325907    18.929921609    23.991968971    -0.029863825     0.023633145    -0.498547517
   43    34.928136634    17.514612103    26.136359982    -0.030175592     0.066471425    -0.494642278
   44    39.868531842    14.513953492    25.419698815    -0.055342769     0.066294250    -0.492485787
   45    35.207962652    20.030660942    25.595524067    -0.017238589     0.053551961    -0.496824938
   46    38.299989062    11.709164583    22.895265412    -0.056094273     0.118367199    -0.482537707
   47    37.724453093    12.278898322    30.460030141    -0.024088181     0.065353318    -0.495124937
   48    40.929368199    13.935748189    21.381132233    -0.030145039     0.052936502    -0.496275129
   49    34.168834636    15.787906796    22.471027061     0.004020520    -0.009210391     0.499898994
   50    37.323594660    19.861993132    27.592080972    -0.013950988     0.046114446    -0.497673415
   51    40.600564764    16.295605511    21.520465857    -0.022070988     0.049515008    -0.497052447
   52    40.308017334    20.057987268    22.221644485     0.003846461     0.061543092    -0.496183084
   53    39.577243998    14.738148888    30.144657292    -0.026003581     0.060355896    -0.495662163
   54    35.736356229    12.844858176    30.456075030    -0.023417854     0.094536262    -0.490422776
   55    34.182579375    20.513167403    23.357481564    -0.007561587     0.053208050    -0.497103335
   56    37.293720908    14.505789054    30.321534277    -0.026585754     0.061300946    -0.495515279
   57    36.183387427    16.431956758    27.951302933    -0.025273157     0.062634295    -0.495417211
   58    35.056347772    10.720088573    27.741632605    -0.027723430     0.057086439    -0.495956198
   59    36.708077813    12.199118347    28.456746317    -0.027773497     0.070719660    -0.494193649
   60    39.813383732    16.878433507    29.702367566    -0.024639105     0.061557218    -0.495584123
   61    39.978261037    12.251929841    30.605777392    -0.031057091     0.093095558    -0.490274081
   62    39.810030232    17.767840303    23.039939460    -0.029968275     0.054581970    -0.496107560
   63    33.072609536    18.301471821    30.233775418    -0.016049073     0.045414211    -0.497674569
   64    34.412569020    19.623163974    21.300594257    -0.007133379     0.045745735    -0.497851828
   65    35.539514729    14.349787890    24.147546828    -0.017601403     0.013984562    -0.499494367
   66    31.937824305    17.231535341    28.740902775    -0.009395973     0.040793545    -0.498244521
   67    38.768807772    13.260439400    28.852698879    -0.036141676     0.068144551    -0.494014271
   68    31.931848578    12.790925510    25.952066812     0.079369117     0.230800340    -0.436384860
   21     2.602162650    26.450688242    23.896847502     0.030600043    -0.049306490     0.496621090
   22     9.934468321    21.834310697    25.936774222    -0.015248177     0.187417238    -0.463295016
   23     9.818541902    29.361636409    26.801613853    -0.012853241     0.071068418    -0.494756581
   24     4.765332476    24.249350057    27.629725274    -0.024790711     0.046720166    -0.497194777
   25     6.043991286    20.493200339    20.914741345    -0.008918464     0.033663799    -0.498785735
   26     2.603217243    21.075578222    27.451886552    -0.160864487     0.349925112     0.318865226
   27     1.267840420    23.075836699    22.740089977    -0.056576180     0.027593389    -0.496021916
   28     8.261001138    25.514650446    21.009368842    -0.039817534     0.042547058    -0.496592702
   29     8.973630959    28.167463349    25.088883668    -0.009680175     0.073953439    -0.494405889
   30     7.743597689    29.081124729    21.785928942    -0.025795125     0.066632851    -0.494868341
   31     6.255966751    30.044875421    28.800320157    -0.028409423     0.066983063    -0.494677849
   32     8.382841639    20.695862658    28.029248660    -0.012797692     0.057671574    -0.496497944
   33     1.446064971    28.070189246    25.431466044    -0.025303863     0.084084263    -0.492229165
   34    11.043368942    23.054955207    28.149698519    -0.058530293     0.437820851    -0.234279977
   35     8.415658154    27.656599473    20.325911019    -0.033618039     0.049956707    -0.496360912
   36     7.929426522    22.643359348    25.659981726    -0.029332118     0.141777593    -0.478579921
   37     8.434985883    25.256239233    27.596692985    -0.017273146     0.057890673    -0.496336890
   38     6.520034073    26.173446004    24.295831731    -0.036502267     0.068874499    -0.493886513
   39     8.706540773    25.868786718    23.721357722    -0.052281866     0.052857670    -0.494441779
   40     3.472951205    28.887542465    26.268322623    -0.025715111     0.067644630    -0.494735219
   41     6.972323249    22.079447029    23.709299735    -0.035173495     0.119330093    -0.484275907
   42     1.256433528    28.521034495    23.158333786    -0.031511241     0.063153526    -0.494993610
   43     4.794244256    27.105724989    25.302724797    -0.032930678     0.067932354    -0.494267909
   44     9.734639464    24.105066378    24.586063630    -0.056612569     0.057643590    -0.493429056
   45     5.074070274    29.621773828    24.761888882    -0.020840443     0.063343232    -0.495533360
   46     8.166096684    21.300277469    22.061630227    -0.042989781     0.103554998    -0.487266089
   47     7.590560714    21.870011208    29.626394956    -0.014897400     0.056530184    -0.496570645
   48    10.795475820    23.526861075    20.547497048    -0.031573183     0.036710618    -0.497649942
   49     4.034942258    25.379019682    21.637391875    -0.004858238    -0.030466959     0.499047254
   50     7.189702282    29.453106018    26.758445787    -0.010027228     0.049573278    -0.497435367
   51    10.466672386    25.886718397    20.686830672    -0.026742306     0.039372925    -0.497729466
   52    10.174124956    29.649100154    21.388009300     0.004714567     0.054161143    -0.497035555
   53     9.443351619    24.329261774    29.311022107    -0.022603785     0.052412187    -0.496731347
   54     5.602463851    22.435971062    29.622439845    -0.017657240     0.087504145    -0.491966713
   55     4.048686997    30.104280289    22.523846379    -0.014460423     0.064721980    -0.495582447
   56     7.159828530    24.096901940    29.487899092    -0.020593360     0.053663872    -0.496685114
   57     6.049495049    26.023069644    27.117667748    -0.024296957     0.058326087    -0.495991659
   58     4.922455394    20.311201459    26.907997420    -0.011375912     0.054226958    -0.496920543
   59     6.574185435    21.790231233    27.623111132    -0.015569847     0.064673418    -0.495555172
   60     9.679491354    26.469546393    28.868732381    -0.019326032     0.055727952    -0.496508711
   61     9.844368658    21.843042727    29.772142207    -0.021839659     0.083186578    -0.492547482
   62     9.676137854    27.358953189    22.206304275    -0.032514750     0.046326753    -0.496786295
   63     2.938717157    27.892584707    29.400140232    -0.020168111     0.073689619    -0.494128614
   64     4.278676641    29.214276861    20.466959072    -0.012712027     0.059553469    -0.496277935
   65     5.405622351    23.940900776    23.313911642     0.047646369     0.057377513    -0.494406356
   66     1.803931927    26.822648227    27.907267590    -0.013602506     0.076741376    -0.493888381
   67     8.634915393    22.851552286    28.019063694    -0.029964028     0.058741744    -0.495632489
   68     1.797956199    22.382038396    25.118431627    -0.042976567     0.274219713    -0.415880468
   21    12.691818600    26.595348454    24.184934372     0.015492804    -0.032280170     0.498716316
   22    20.024124270    21.978970909    26.224861092     0.028387476     0.156763288    -0.473940316
   23    19.908197852    29.506296620    27.089700723    -0.007449965     0.036786200    -0.498589283
   24    14.854988426    24.394010268    27.917812143    -0.016157580     0.014099643    -0.499539921
   25    16.133647236    20.637860551    21.202828214     0.004909427     0.000620669    -0.499975512
   26    12.692873193    21.220238434    27.739973422    -0.067276289     0.396722565     0.296791354
   27    11.357496370    23.220496911    23.028176847    -0.070339176     0.003572237    -0.495014787
   28    18.350657088    25.659310658    21.297455711    -0.024726720     0.015144689    -0.499158520
   29    19.063286909    28.312123561    25.376970537     0.011818483     0.031336651    -0.498877077
   30    17.833253639    29.225784941    22.074015812    -0.015492758     0.030404895    -0.498834158
   31    16.345622700    30.189535633    29.088407027    -0.018454056     0.038228813    -0.498194747
   32    18.472497589    20.840522870    28.317335529    -0.003251489     0.021535275    -0.499525435
   33    11.535720921    28.214849458    25.719552914    -0.015301399     0.063276681    -0.495743814
   34    21.133024892    23.199615419    28.437785389     0.067696100     0.424143354    -0.255968071
   35    18.505314103    27.801259684    20.613997888    -0.021946213     0.018800308    -0.499164214
   36    18.019082472    22.788019560    25.948068596     0.002913731     0.111733454    -0.487347048
   37    18.524641833    25.400899445    27.884779854    -0.013789402     0.029631808    -0.498930665
   38    16.609690023    26.318106216    24.583918601    -0.022523478     0.041319499    -0.497780466
   39    18.796196723    26.013446929    24.009444591    -0.035992126     0.026188916    -0.498014766
   40    13.562607155    29.032202677    26.556409492    -0.012358984     0.042676918    -0.498022024
   41    17.061979199    22.224107241    23.997386605    -0.005824823     0.089222636    -0.491940436
   42    11.346089478    28.665694707    23.446420655    -0.026085505     0.044290811    -0.497350853
   43    14.883900205    27.250385201    25.590811666    -0.019155192     0.040639813    -0.497977393
   44    19.824295414    24.249726590    24.874150500    -0.038563835     0.031063159    -0.497541868
   45    15.163726223    29.766434040    25.049975751    -0.007486162     0.035736610    -0.498665070
   46    18.255752634    21.444937680    22.349717096    -0.017277518     0.072914228    -0.494353115
   47    17.680216664    22.014671420    29.914481826    -0.008934239     0.018970277    -0.499560114
   48    20.885131770    23.671521287    20.835583917    -0.019262695     0.001493422    -0.499626579
   49    14.124598208    25.523679894    21.925478745    -0.003728309    -0.013350569     0.499807825
   50    17.279358232    29.597766230    27.046532656    -0.008357561     0.016092342    -0.499671080
   51    20.556328336    26.031378608    20.974917541    -0.014851372     0.008841783    -0.499701170
   52    20.263780905    29.793760366    21.676096170     0.018611311     0.011760724    -0.499515069
   53    19.533007569    24.473921985    29.599108976    -0.020420155     0.022147678    -0.499091673
   54    15.692119801    22.580631273    29.910526715    -0.013949460     0.048920530    -0.497405463
   55    14.138342947    30.248940500    22.811933249    -0.003208615     0.033479146    -0.498867569
   56    17.249484480    24.241562151    29.775985962    -0.013068617     0.019420202    -0.499451766
   57    16.139150998    26.167729855    27.405754618    -0.015001742     0.027962816    -0.498992013
   58    15.012111344    20.455861671    27.196084289    -0.011120321     0.009486059    -0.499786307
   59    16.663841385    21.934891445    27.911198001    -0.008339313     0.024932592    -0.499308343
   60    19.769147304    26.614206605    29.156819250    -0.016932671     0.031904598    -0.498693675
   61    19.934024608    21.987702939    30.060229077    -0.004826282     0.048613409    -0.497607720
   62    19.765793803    27.503613401    22.494391144    -0.018726330     0.017191528    -0.499353358
   63    13.028373107    28.037244918    29.688227102    -0.005465939     0.056648122    -0.496750555
   64    14.368332591    29.358937072    20.755045941    -0.002680281     0.028614731    -0.499173330
   65    15.495278301    24.085560988    23.601998512     0.083732142     0.012249890    -0.492786839
   66    11.893587876    26.967308439    28.195354460    -0.001127225     0.060106194    -0.496372818
   67    18.724571343    22.996212498    28.307150564    -0.023530102     0.025977929    -0.498769969
   68    11.887612149    22.526698608    25.406518496    -0.005454330     0.262491354    -0.425521491
   21    22.781474550    26.740008666    24.473021241     0.015888389    -0.006312542     0.499707625
   22    30.113780220    22.123631120    26.512947961    -0.020577025     0.186435620    -0.463485001
   23    29.997853802    29.650956832    27.377787592    -0.016474306     0.073884280    -0.494236492
   24    24.944644376    24.538670480    28.205899013    -0.026083212     0.025604980    -0.498662261
   25    26.223303186    20.782520762    21.490915084    -0.001398026     0.025693007    -0.499337476
   26    22.782529143    21.364898645    28.028060291     0.069700597     0.387945644     0.307636155
   27    21.447152320    23.365157123    23.316263717    -0.064135359    -0.026484249    -0.495161832
   28    28.440313038    25.803970869    21.585542581    -0.036830648     0.052232802    -0.495898415
   29    29.152942859    28.456783772    25.665057407    -0.011019031     0.076998349    -0.493912781
   30    27.922909589    29.370445152    22.362102681    -0.021691599     0.074844079    -0.493890513
   31    26.435278650    30.334195845    29.376493896    -0.033068043     0.056779934    -0.495663740
   32    28.562153539    20.985183082    28.605422399    -0.012570118     0.037041053    -0.498467604
   33    21.625376870    28.359509669    26.007639784    -0.014618413     0.053779257    -0.496884386
   34    31.222680841    23.344275630    28.725872258    -0.092279272     0.436395587    -0.225927925
   35    28.594970053    27.945919896    20.902084758    -0.031483274     0.060007564    -0.495386612
   36    28.108738421    22.932679772    26.236155465    -0.028465057     0.140947169    -0.478877475
   37    28.614297783    25.545559656    28.172866724    -0.012967994     0.048695938    -0.497454055
   38    26.699345972    26.462766427    24.872005470    -0.034661181     0.058683015    -0.495333127
   39    28.885852673    26.158107141    24.297531461    -0.051295866     0.052998911    -0.494529928
   40    23.652263105    29.176862888    26.844496362    -0.016969503     0.049322921    -0.497271843
   41    27.151635148    22.368767453    24.285473475    -0.036372525     0.119783346    -0.484075397
   42    21.435745428    28.810354919    23.734507525    -0.013665935     0.021291348    -0.499359511
   43    24.973556155    27.395045413    25.878898536    -0.029583473     0.054904941    -0.496095017
   44    29.913951363    24.394386801    25.162237369    -0.053098380     0.059155159    -0.493640790
   45    25.253382173    29.911094251    25.338062621    -0.015016465     0.048500531    -0.497415525
   46    28.345408584    21.589597892    22.637803966    -0.046048675     0.104762323    -0.486728235
   47    27.769872614    22.159331631    30.202568695    -0.012419017     0.034602433    -0.498646608
   48    30.974787720    23.816181498    21.123670787    -0.024267022     0.045504452    -0.497333345
   49    24.214254157    25.668340106    22.213565615    -0.015100005     0.003898079     0.499756736
   50    27.369014182    29.742426441    27.334619526    -0.018499850     0.037613903    -0.498239852
   51    30.645984285    26.176038820    21.263004411    -0.025604245     0.048962883    -0.496937681
   52    30.353436855    29.938420578    21.964183039     0.002865973     0.063348203    -0.495962490
   53    29.622663519    24.618582197    29.887195846    -0.014083380     0.042638585    -0.497979527
   54    25.781775751    22.725291485    30.198613584    -0.012855068     0.064569607    -0.495646561
   55    24.227998897    30.393600712    23.100020118    -0.008091898     0.050735477    -0.497353428
   56    27.339140430    24.386222363    30.064072831    -0.013059881     0.034878645    -0.498610990
   57    26.228806948    26.312390067    27.693841487    -0.023997171     0.041381360    -0.497706459
   58    25.101767294    20.600521882    27.484171159    -0.015111805     0.015244159    -0.499539036
   59    26.753497335    22.079551656    28.199284871    -0.016881548     0.035230295    -0.498471503
   60    29.858803254    26.758866816    29.444906120    -0.018619976     0.050933738    -0.497050350
   61    30.023680558    22.132363150    30.348315946    -0.015552126     0.065993949    -0.495381600
   62    29.855449753    27.648273612    22.782478014    -0.034323270     0.052307514    -0.496070395
   63    23.118029057    28.181905130    29.976313972    -0.011813055     0.048579724    -0.497494183
   64    24.457988541    29.503597284    21.043132811    -0.006832083     0.042699443    -0.498126570
   65    25.584934251    24.230221200    23.890085382     0.061373253     0.049051378    -0.493788706
   66    21.983243826    27.111968650    28.483441329    -0.004474312     0.046614810    -0.497802210
   67    28.814227293    23.140872709    28.595237433    -0.025506185     0.044611540    -0.497352234
   68    21.977268099    22.671358819    25.694605366     0.054457557     0.231694908    -0.439717914
   21    32.871130500    26.884668877    24.761108111     0.029221069    -0.047030081     0.496924844
   22    40.203436170    22.268291332    26.801034831    -0.041420167     0.201398853    -0.455766247
   23    40.087509752    29.795617044    27.665874462    -0.020630384     0.085014711    -0.492287402
   24    35.034300325    24.683330692    28.493985883    -0.031907258     0.058681158    -0.495518364
   25    36.312959135    20.927180974    21.779001954    -0.005510037     0.050523304    -0.497410329
   26    32.872185093    21.509558857    28.316147161    -0.074160925     0.374081862     0.323361899
   27    31.536808270    23.509817334    23.604350586    -0.061449592     0.006918541    -0.496161346
   28    38.529968987    25.948631081    21.873629450    -0.033960453     0.065521402    -0.494523643
   29    39.242598809    28.601443984    25.953144276    -0.013362015     0.087770213    -0.492054719
   30    38.012565538    29.515105364    22.650189551    -0.023386725     0.086728361    -0.491865075
   31    36.524934600    30.478856056    29.664580766    -0.034991000     0.076170867    -0.492923553
   32    38.651809489    21.129843293    28.893509268    -0.027561279     0.069965207    -0.494312903
   33    31.715032820    28.504169881    26.295726653    -0.022896122     0.081685963    -0.492750618
   34    41.312336791    23.488935842    29.013959128    -0.135184971     0.429657278    -0.217070603
   35    38.684626003    28.090580107    21.190171627    -0.028817350     0.072233597    -0.493914839
   36    38.198394371    23.077339983    26.524242335    -0.045580111     0.157023108    -0.472510526
   37    38.703953732    25.690219868    28.460953594    -0.027445508     0.070954174    -0.494178358
   38    36.789001922    26.607426639    25.160092340    -0.039940738     0.082327213    -0.491555661
   39    38.975508623    26.302767353    24.585618331    -0.051450195     0.072468123    -0.492037853
   40    33.741919055    29.321523100    27.132583231    -0.025144810     0.072611452    -0.494060032
   41    37.241291098    22.513427664    24.573560344    -0.047431568     0.136101010    -0.478776317
   42    31.525401378    28.955015130    24.022594394    -0.031185545     0.054381135    -0.496054588
   43    35.063212105    27.539705624    26.166985405    -0.036495552     0.079314526    -0.492318272
   44    40.003607313    24.539047013    25.450324239    -0.056003855     0.077244114    -0.490812505
   45    35.343038123    30.055754463    25.626149490    -0.023563186     0.070831569    -0.494396263
   46    38.435064533    21.734258104    22.925890835    -0.051369072     0.122154839    -0.482119709
   47    37.859528564    22.303991843    30.490655565    -0.031589138     0.067181247    -0.494458094
   48    41.064443670    23.960841710    21.411757656    -0.021464134     0.061510080    -0.495737633
   49    34.303910107    25.813000317    22.501652484     0.008673308     0.001055730     0.499923653
   50    37.458670131    29.887086653    27.622706395    -0.015094137     0.059844229    -0.496176214
   51    40.735640235    26.320699032    21.551091281    -0.022840007     0.061582831    -0.495667115
   52    40.443092805    30.083080789    22.252269909     0.005558051     0.074838271    -0.494336263
   53    39.712319469    24.763242409    30.175282715    -0.031941734     0.065951246    -0.494601010
   54    35.871431700    22.869951697    30.486700454    -0.031435668     0.096836973    -0.489524667
   55    34.317654846    30.538260924    23.388106988    -0.018040219     0.073114264    -0.494296323
   56    37.428796380    24.530882575    30.352159701    -0.033498910     0.064455959    -0.494695110
   57    36.318462898    26.457050279    27.981928357    -0.030533816     0.070763359    -0.494024527
   58    35.191423243    20.745182094    27.772258028    -0.025271359     0.057740061    -0.496011536
   59    36.843153284    22.224211868    28.487371740    -0.028985557     0.072392864    -0.493881677
   60    39.948459204    26.903527028    29.732992989    -0.029388684     0.069271074    -0.494305395
   61    40.113336508    22.277023362    30.636402816    -0.038733003     0.095779557    -0.489209598
   62    39.945105703    27.792933824    23.070564883    -0.031592640     0.066657329    -0.494528771
   63    33.207685007    28.326565342    30.264400841    -0.013940722     0.068860093    -0.495039336
   64    34.547644491    29.648257496    21.331219680    -0.017406891     0.066568533    -0.495243002
   65    35.674590200    24.374881411    24.178172251     0.061571434     0.027936799    -0.495407402
   66    32.072899776    27.256628862    28.771528199    -0.006234531     0.067394381    -0.495397949
   67    38.903883243    23.285532921    28.883324303    -0.041993068     0.071849317    -0.493025616
   68    32.066924049    22.816019031    25.982692236    -0.017743714     0.262571881    -0.425136646
   21     2.737238121    36.475781763    23.927472926     0.019543395    -0.056141352     0.496453628
   22    10.069543792    31.859404218    25.967399646    -0.033205028     0.201314570    -0.456475487
   23     9.953617373    39.386729930    26.832239277    -0.006708185     0.063272230    -0.495935102
   24     4.900407947    34.274443578    27.660350697    -0.022318401     0.052845722    -0.496698318
   25     6.179066757    30.518293860    20.945366768    -0.012389849     0.055110529    -0.496799075
   26     2.738292714    31.100671743    27.482511976    -0.186904129     0.325108617     0.330713220
   27     1.402915891    33.100930220    22.770715401    -0.061270656     0.030332188    -0.495303811
   28     8.396076609    35.539743967    21.039994265    -0.033589030     0.045995941    -0.496745559
   29     9.108706430    38.192556870    25.119509091    -0.003343376     0.067006620    -0.495478491
   30     7.878673160    39.106218250    21.816554366    -0.019872617     0.063318821    -0.495576236
   31     6.391042222    40.069968942    28.830945581    -0.022074426     0.061326813    -0.495733539
   32     8.517917110    30.720956179    28.059874083    -0.019668316     0.070262655    -0.494647669
   33     1.581140442    38.095282767    25.462091468    -0.019578250     0.085429707    -0.492258527
   34    11.178444413    33.080048728    28.180323943    -0.116422551     0.437231462    -0.212777909
   35     8.550733625    37.681692994    20.356536442    -0.027853540     0.050344435    -0.496678586
   36     8.064501993    32.668452869    25.690607150    -0.039782894     0.154149481    -0.473978121
   37     8.570061354    35.281332754    27.627318408    -0.015749876     0.061416892    -0.495963614
   38     6.655109544    36.198539525    24.326457155    -0.032190991     0.071521797    -0.493810057
   39     8.841616244    35.893880239    23.751983145    -0.047563314     0.055879307    -0.494585922
   40     3.608026677    38.912635986    26.298948046    -0.019834815     0.066539027    -0.495155670
   41     7.107398720    32.104540550    23.739925159    -0.043920179     0.133209026    -0.479923299
   42     1.391508999    38.546128016    23.188959209    -0.030083738     0.066275639    -0.494674144
   43     4.929319727    37.130818510    25.333350220    -0.027760157     0.070318645    -0.494251618
   44     9.869714935    34.130159899    24.616689054    -0.052687979     0.062064313    -0.493327475
   45     5.209145745    39.646867349    24.792514305    -0.014838479     0.061847528    -0.495938205
   46     8.301172155    31.325370990    22.092255650    -0.050187928     0.118685981    -0.483109522
   47     7.725636185    31.895104729    29.657020380    -0.021625706     0.066319776    -0.495110105
   48    10.930551291    33.551954596    20.578122471    -0.025457896     0.050024867    -0.496839419
   49     4.170017729    35.404113203    21.668017299     0.015557082    -0.035879487     0.498468294
   50     7.324777753    39.478199539    26.789071210    -0.002578340     0.044238653    -0.498032422
   51    10.601747857    35.911811918    20.717456095    -0.022001903     0.039557536    -0.497946902
   52    10.309200427    39.674193675    21.418634724     0.010922822     0.049005747    -0.497472742
   53     9.578427090    34.354355295    29.341647530    -0.021240038     0.058089580    -0.496159714
   54     5.737539322    32.461064583    29.653065269    -0.022924626     0.095783787    -0.490203965
   55     4.183762468    40.129373810    22.554471803    -0.009300038     0.061983411    -0.496056011
   56     7.294904001    34.121995461    29.518524516    -0.023698057     0.062044122    -0.495569298
   57     6.184570520    36.048163165    27.148293172    -0.021357467     0.063133268    -0.495538141
   58     5.057530865    30.336294980    26.938622843    -0.017755334     0.066537334    -0.495234824
   59     6.709260906    31.815324754    27.653736555    -0.022431064     0.075956104    -0.493687672
   60     9.814566825    36.494639914    28.899357804    -0.016072351     0.056649641    -0.496520390
   61     9.979444129    31.868136248    29.802767630    -0.026966724     0.093092046    -0.490516734
   62     9.811213325    37.384046710    22.236929698    -0.027844334     0.045267434    -0.497167530
   63     3.073792628    37.917678228    29.430765656    -0.009413517     0.075974454    -0.494104511
   64     4.413752112    39.239370382    20.497584495    -0.008480619     0.057322982    -0.496630803
   65     5.540697822    33.965994297    23.344537066     0.050995164     0.073538300    -0.491926429
   66     1.939007398    36.847741748    27.937893014    -0.004650495     0.080025449    -0.493532472
   67     8.769990864    32.876645807    28.049689118    -0.032633874     0.067591294    -0.494334348
   68     1.933031670    32.407131917    25.149057050    -0.056591503     0.284898252    -0.406977134
   21    12.826894071    36.620441975    24.215559795     0.009957507    -0.027494123     0.499144189
   22    20.159199741    32.004064430    26.255486515    -0.011023490     0.163121373    -0.472514445
   23    20.043273323    39.531390141    27.120326146     0.000758687     0.029227144    -0.499144467
   24    14.990063897    34.419103789    27.948437567    -0.015951698     0.023718253    -0.499182319
   25    16.268722707    30.662954072    21.233453638     0.006143361     0.017121488    -0.499669004
   26    12.827948664    31.245331955    27.770598845    -0.144267229     0.362261218     0.312975680
   27    11.492571841    33.245590432    23.058802271    -0.057960344     0.005059340    -0.496603465
   28    18.485732559    35.684404179    21.328081135    -0.015356297     0.027296040    -0.499018146
   29    19.198362380    38.337217082    25.407595961     0.011159010     0.027706888    -0.499107007
   30    17.968329110    39.250878462    22.104641235    -0.004982687     0.033767193    -0.498833589
   31    16.480698171    40.214629154    29.119032450    -0.008020501     0.022703448    -0.499419888
   32    18.607573060    30.865616391    28.347960953    -0.017131929     0.037719091    -0.498280812
   33    11.670796392    38.239942979    25.750178338    -0.011783543     0.055312482    -0.496791382
   34    21.268100363    33.224708940    28.468410812    -0.020772566     0.425290386    -0.262100340
   35    18.640389574    37.826353205    20.644623312    -0.013233724     0.028345514    -0.499020441
   36    18.154157943    32.813113081    25.978694019    -0.026506165     0.119774767    -0.484717885
   37    18.659717304    35.425992966    27.915405278    -0.016288681     0.032044392    -0.498706162
   38    16.744765494    36.343199737    24.614544024    -0.025739237     0.042252403    -0.497546205
   39    18.931272194    36.038540450    24.040070015    -0.034924710     0.035530978    -0.497511622
   40    13.697682626    39.057296198    26.587034916    -0.009124825     0.031433578    -0.498927518
   41    17.197054670    32.249200762    24.028012029    -0.035094578     0.097249081    -0.489194222
   42    11.481164949    38.690788228    23.477046079    -0.021816421     0.039719828    -0.497942144
   43    15.018975677    37.275478722    25.621437090    -0.021548824     0.038580617    -0.498043356
   44    19.959370885    34.274820111    24.904775923    -0.037365565     0.046880588    -0.496393015
   45    15.298801694    39.791527561    25.080601175    -0.003748905     0.023026412    -0.499455434
   46    18.390828105    31.470031201    22.380342520    -0.043056896     0.082343800    -0.491289734
   47    17.815292135    32.039764941    29.945107249    -0.013428877     0.038054662    -0.498368847
   48    21.020207241    33.696614808    20.866209341    -0.013239511     0.031491874    -0.498831612
   49    14.259673679    35.548773415    21.956104168     0.008558663    -0.005293563     0.499898717
   50    17.414433703    39.622859751    27.077158080     0.002922772    -0.001894911    -0.499987867
   51    20.691403807    36.056472129    21.005542965    -0.006868682     0.019015757    -0.499591055
   52    20.398856377    39.818853887    21.706721593     0.021499606     0.018632394    -0.499189945
   53    19.668083040    34.499015506    29.629734400    -0.022926281     0.027037718    -0.498741764
   54    15.827195272    32.605724794    29.941152138    -0.019655430     0.065365671    -0.495319082
   55    14.273418418    40.274034022    22.842558672    -0.002606187     0.013324274    -0.499815638
   56    17.384559951    34.266655672    29.806611385    -0.021826242     0.030295914    -0.498603823
   57    16.274226469    36.192823376    27.436380041    -0.014321759     0.034642041    -0.498592836
   58    15.147186815    30.480955192    27.226709713    -0.004792247     0.037795274    -0.498546439
   59    16.798916856    31.959984966    27.941823425    -0.015633225     0.045044298    -0.497721422
   60    19.904222775    36.639300126    29.187444674    -0.019254654     0.028972876    -0.498788363
   61    20.069100079    32.012796460    30.090854500    -0.018030183     0.065337010    -0.495384686
   62    19.900869274    37.528706922    22.525016568    -0.019218081     0.018488045    -0.499288351
   63    13.163448578    38.062338439    29.718852526    -0.002081219     0.049620051    -0.497527405
   64    14.503408062    39.384030593    20.785671365    -0.005712996     0.003821728    -0.499952754
   65    15.630353772    34.110654509    23.632623936    -0.021969763     0.010272928    -0.499411450
   66    12.028663347    36.992401960    28.225979883     0.001757584     0.055546783    -0.496901867
   67    18.859646814    33.021306019    28.337775987    -0.029395633     0.037977107    -0.497688292
   68    12.022687620    32.551792129    25.437143920    -0.032163085     0.276297203    -0.415482119
   21    22.916550021    36.765102187    24.503646665     0.015189211    -0.009840229     0.499672350
   22    30.248855691    32.148724641    26.543573385    -0.029632536     0.207469630    -0.453958440
   23    30.132929273    39.676050353    27.408413016    -0.004413131     0.068350487    -0.495286518
   24    25.079719847    34.563764001    28.236524437    -0.025005523     0.051457117    -0.496716105
   25    26.358378657    30.807614283    21.521540508    -0.007245123     0.057261619    -0.496657443
   26    22.917604614    31.389992166    28.058685715    -0.003102934     0.397676015     0.303058012
   27    21.582227791    33.390250644    23.346889140    -0.043815848     0.016918064    -0.497789062
   28    28.575388509    35.829064391    21.616168004    -0.035348861     0.060812837    -0.495027531
   29    29.288018330    38.481877293    25.695682830     0.002775761     0.072429544    -0.494718361
   30    28.057985060    39.395538673    22.392728105    -0.021478168     0.074549153    -0.493944442
   31    26.570354121    40.359289366    29.407119320    -0.023227239     0.049739001    -0.496977391
   32    28.697229010    31.010276603    28.636047822    -0.024674984     0.065546892    -0.495070450
   33    21.760452341    38.384603190    26.038265207    -0.012755191     0.051356410    -0.497191939
   34    31.357756312    33.369369151    28.756497682    -0.091049341     0.446592559    -0.205584785
   35    28.730045524    37.971013417    20.932710181    -0.030055354     0.065919829    -0.494723409
   36    28.243813893    32.957773293    26.266780889    -0.038541501     0.160846369    -0.471850610
   37    28.749373254    35.570653177    28.203492148    -0.022050055     0.063045194    -0.495519019
   38    26.834421443    36.487859948    24.902630894    -0.034454642     0.071548117    -0.493653466
   39    29.020928144    36.183200662    24.328156885    -0.049053750     0.067118795    -0.493040360
   40    23.787338576    39.201956410    26.875121785    -0.015255506     0.046499604    -0.497599293
   41    27.286710619    32.393860974    24.316098898    -0.043831438     0.140436097    -0.477866621
   42    21.570820899    38.835448440    23.765132948    -0.009537611     0.022207965    -0.499415499
   43    25.108631626    37.420138934    25.909523959    -0.028208464     0.065987923    -0.494823076
   44    30.049026835    34.419480322    25.192862793    -0.053652416     0.073788561    -0.491606211
   45    25.388457644    39.936187772    25.368688044    -0.012195131     0.047785818    -0.497561850
   46    28.480484055    31.614691413    22.668429389    -0.050958200     0.126293042    -0.481095967
   47    27.904948085    32.184425152    30.233194119    -0.024382193     0.061514304    -0.495602158
   48    31.109863191    33.841275019    21.154296210    -0.024716425     0.062549756    -0.495455978
   49    24.349329628    35.693433627    22.244191038    -0.002089024     0.001528045     0.499993301
   50    27.504089653    39.767519962    27.365244949     0.001054277     0.034376876    -0.498815716
   51    30.781059756    36.201132341    21.293629834    -0.024716869     0.056130516    -0.496224185
   52    30.488512326    39.963514099    21.994808463     0.004620389     0.062662884    -0.496036304
   53    29.757738990    34.643675718    29.917821269    -0.024564252     0.058515799    -0.495956146
   54    25.916851222    32.750385006    30.229239008    -0.024292501     0.091832019    -0.490893832
   55    24.363074368    40.418694233    23.130645542    -0.004126739     0.049989500    -0.497477658
   56    27.474215901    34.411315884    30.094698255    -0.028542393     0.057719106    -0.495836502
   57    26.363882419    36.337483588    27.724466911    -0.023913617     0.062535008    -0.495497237
   58    25.236842765    30.625615403    27.514796582    -0.022580737     0.052987580    -0.496671347
   59    26.888572806    32.104645177    28.229910294    -0.026900856     0.067370455    -0.494709577
   60    29.993878725    36.783960337    29.475531543    -0.024801471     0.060951033    -0.495650944
   61    30.158756029    32.157456671    30.378941370    -0.029907636     0.089378831    -0.491036616
   62    29.990525224    37.673367133    22.813103437    -0.031508139     0.059550773    -0.495440150
   63    23.253104528    38.206998651    30.006939395    -0.003332611     0.047161829    -0.497759636
   64    24.593064012    39.528690805    21.073758234    -0.002384493     0.043173874    -0.498126822
   65    25.720009722    34.255314721    23.920710805     0.058532367     0.072736072    -0.491206093
   66    22.118319297    37.137062171    28.514066753    -0.000088296     0.044624890    -0.498004630
   67    28.949302764    33.165966230    28.625862857    -0.037153537     0.066010095    -0.494228977
   68    22.112343570    32.696452340    25.725230790     0.002808009     0.236645970    -0.440443867
   21    33.006205971    36.909762398    24.791733534     0.024265616    -0.051803466     0.496716801
   22    40.338511641    32.293384853    26.831660255    -0.052267925     0.212874469    -0.449391282
   23    40.222585223    39.820710565    27.696499886    -0.014788391     0.085932318    -0.492338238
   24    35.169375796    34.708424213    28.524611306    -0.029511555     0.066119200    -0.494729542
   25    36.448034606    30.952274495    21.809627377    -0.013618208     0.071008192    -0.494744764
   26    33.007260564    31.534652378    28.346772585    -0.112293308     0.367193429     0.320248652
   27    31.671883741    33.534910855    23.634976010    -0.058990383     0.022523616    -0.495996796
   28    38.665044458    35.973724602    21.904254874    -0.040401891     0.070738160    -0.493319166
   29    39.377674280    38.626537505    25.983769700    -0.012288519     0.089731316    -0.491728872
   30    38.147641010    39.540198885    22.680814974    -0.028447273     0.087783348    -0.491411067
   31    36.660010071    40.503949577    29.695206190    -0.029873513     0.076513078    -0.493207180
   32    38.786884960    31.154936814    28.924134692    -0.025223551     0.082548712    -0.492493130
   33    31.850108291    38.529263402    26.326352077    -0.021103239     0.083829432    -0.492470588
   34    41.447412262    33.514029363    29.044584552    -0.162830658     0.427702778    -0.201386471
   35    38.819701474    38.115673629    21.220797051    -0.034682827     0.076145385    -0.492949269
   36    38.333469842    33.102433504    26.554867758    -0.054969182     0.168010884    -0.467707956
   37    38.839029203    35.715313389    28.491579017    -0.021140656     0.078488866    -0.493348326
   38    36.924077393    36.632520160    25.190717763    -0.039930714     0.087052866    -0.490741619
   39    39.110584094    36.327860874    24.616243754    -0.055705799     0.076670835    -0.490936296
   40    33.876994526    39.346616621    27.163208655    -0.023465392     0.074188785    -0.493908291
   41    37.376366569    32.538521185    24.604185768    -0.057875627     0.148044103    -0.474060498
   42    31.660476849    38.980108651    24.053219818    -0.027623290     0.058248024    -0.495826705
   43    35.198287576    37.564799145    26.197610829    -0.035517153     0.083718261    -0.491660233
   44    40.138682784    34.564140534    25.480949662    -0.060834849     0.082520986    -0.489376550
   45    35.478113594    40.080847984    25.656774914    -0.021021509     0.072822785    -0.494221548
   46    38.570140004    31.759351625    22.956516259    -0.062347366     0.134776653    -0.477439064
   47    37.994604035    32.329085364    30.521280988    -0.029525443     0.078350324    -0.492939626
   48    41.199519141    33.985935231    21.442383080    -0.029700695     0.072675679    -0.493797645
   49    34.438985578    35.838093838    22.532277908    -0.016730275    -0.011424502     0.499589410
   50    37.593745603    39.912180174    27.653331819    -0.009109245     0.060048613    -0.496297477
   51    40.870715706    36.345792553    21.581716704    -0.029640299     0.065106532    -0.494856133
   52    40.578168276    40.108174310    22.282895332    -0.001940932     0.075252504    -0.494300813
   53    39.847394940    34.788335930    30.205908139    -0.024998492     0.075045746    -0.493703566
   54    36.006507172    32.895045218    30.517325877    -0.029020342     0.108318804    -0.487262615
   55    34.452730317    40.563354445    23.418732412    -0.015253706     0.074571878    -0.494172399
   56    37.563871851    34.555976096    30.382785124    -0.030043732     0.075142036    -0.493407589
   57    36.453538369    36.482143800    28.012553781    -0.027470369     0.077487850    -0.493194700
   58    35.326498714    30.770275615    27.802883452    -0.025569271     0.073318187    -0.493933858
   59    36.978228755    32.249305389    28.517997164    -0.028997404     0.085721949    -0.491742715
   60    40.083534675    36.928620549    29.763618413    -0.021440622     0.073965344    -0.494033832
   61    40.248411979    32.302116883    30.667028239    -0.036380236     0.105942194    -0.487291217
   62    40.080181174    37.818027345    23.101190307    -0.035501400     0.069970446    -0.493805414
   63    33.342760478    38.351658863    30.295026265    -0.015783399     0.075404807    -0.494029351
   64    34.682719962    39.673351017    21.361845104    -0.013350483     0.068617492    -0.495089289
   65    35.809665671    34.399974932    24.208797675     0.034335961     0.099154381    -0.488865473
   66    32.207975247    37.281722383    28.802153622    -0.009213895     0.074833761    -0.494282321
   67    39.038958714    33.310626442    28.913949727    -0.037367909     0.082669335    -0.491700539
   68    32.201999520    32.841112552    26.013317659    -0.023604926     0.282281740    -0.412019207
   21     2.618882879     6.432636937    33.847582017     0.020192712    -0.041524002     0.497863447
   22     9.951188550     1.816259391    35.887508737    -0.016937309     0.197565862    -0.458999845
   23     9.835262131     9.343585103    36.752348368    -0.002922653     0.044951291    -0.497966705
   24     4.782052705     4.231298751    37.580459788    -0.015430890     0.038485615    -0.498277779
   25     6.060711515     0.475149034    30.865475860    -0.008143550     0.058283093    -0.496524686
   26     2.619937472     1.057526916    37.402621067    -0.160966269     0.346017926     0.323050236
   27     1.284560649     3.057785394    32.690824492    -0.060608933     0.024175974    -0.495723794
   28     8.277721367     5.496599141    30.960103356    -0.031910497     0.041054639    -0.497288887
   29     8.990351188     8.149412043    35.039618182     0.000734613     0.051647043    -0.497324887
   30     7.760317918     9.063073424    31.736663457    -0.019467457     0.058348830    -0.496202007
   31     6.272686979    10.026824116    38.751054672    -0.021827666     0.036106463    -0.498216696
   32     8.399561868     0.677811353    37.979983174    -0.010556700     0.061137662    -0.496135810
   33     1.462785200     8.052137940    35.382200559    -0.020183622     0.069959391    -0.494669895
   34    11.060089171     3.036903901    38.100433034    -0.073349268     0.444880259    -0.216105159
   35     8.432378382     7.638548167    30.276645533    -0.026604205     0.045267935    -0.497235387
   36     7.946146751     2.625308043    35.610716241    -0.028526584     0.149793501    -0.476180786
   37     8.451706112     5.238187928    37.547427500    -0.012013210     0.040507043    -0.498211664
   38     6.536754302     6.155394698    34.246566246    -0.027419419     0.059575291    -0.495680300
   39     8.723261002     5.850735412    33.672092237    -0.042450576     0.048858117    -0.495793135
   40     3.489671434     8.869491160    36.219057137    -0.017708351     0.049251959    -0.497253113
   41     6.989043478     2.061395724    33.660034250    -0.034374792     0.129972808    -0.481586381
   42     1.273153757     8.502983190    33.109068300    -0.030185835     0.053947531    -0.496163763
   43     4.810964485     7.087673684    35.253459311    -0.024206095     0.056454036    -0.496212663
   44     9.751359693     4.087015073    34.536798145    -0.047103371     0.056685692    -0.494538173
   45     5.090790502     9.603722522    34.712623396    -0.013751824     0.044209234    -0.497851816
   46     8.182816913     1.282226163    32.012364741    -0.041632394     0.116540122    -0.484443127
   47     7.607280943     1.851959902    39.577129471    -0.011054885     0.051966957    -0.497169212
   48    10.812196049     3.508809770    30.498231562    -0.021851046     0.048544025    -0.497157932
   49     4.051662487     5.360968377    31.588126390    -0.006539307    -0.004832114     0.499933884
   50     7.206422511     9.435054713    36.709180301    -0.008468883     0.004294562    -0.499909827
   51    10.483392615     5.868667091    30.637565186    -0.019564097     0.033499029    -0.498492790
   52    10.190845185     9.631048849    31.338743815     0.010762260     0.045028785    -0.497851968
   53     9.460071848     4.311210468    39.261756621    -0.010677170     0.038826602    -0.498375855
   54     5.619184080     2.417919756    39.573174360    -0.012786017     0.082641005    -0.492957384
   55     4.065407226    10.086228983    32.474580894    -0.012172398     0.049790085    -0.497365841
   56     7.176548759     4.078850634    39.438633607    -0.014021391     0.047696583    -0.497522297
   57     6.066215277     6.005018338    37.068402263    -0.014578777     0.048220404    -0.497455779
   58     4.939175623     0.293150153    36.858731934    -0.010725347     0.060797231    -0.496174026
   59     6.590905664     1.772179927    37.573845646    -0.013997568     0.068251498    -0.495122006
   60     9.696211583     6.451495087    38.819466895    -0.010037509     0.032995839    -0.498809105
   61     9.861088887     1.824991422    39.722876722    -0.015156119     0.076215151    -0.493924633
   62     9.692858082     7.340901883    32.157038789    -0.023626321     0.037687459    -0.498017522
   63     2.955437386     7.874533401    39.350874747    -0.009181538     0.055661640    -0.496807288
   64     4.295396870     9.196225555    30.417693586    -0.011161850     0.046378530    -0.497719243
   65     5.422342580     3.922849471    33.264646157     0.045549706     0.073329034    -0.492491703
   66     1.820652155     6.804596922    37.858002105    -0.004633604     0.062404058    -0.496068809
   67     8.651635622     2.833500981    37.969798209    -0.024908701     0.052378841    -0.496624620
   68     1.814676428     2.363987091    35.069166142    -0.041509471     0.287808099    -0.406747418
   21    12.708538829     6.577297148    34.135668886    -0.002719862    -0.003144434     0.499982715
   22    20.040844499     1.960919603    36.175595606     0.009388561     0.171005628    -0.469754117
   23    19.924918081     9.488245315    37.040435238     0.011274830     0.019415995    -0.499495643
   24    14.871708655     4.375958963    37.868546658    -0.014090815     0.011837751    -0.499661202
   25    16.150367465     0.619809245    31.153562729     0.005388291     0.022027204    -0.499485504
   26    12.709593422     1.202187128    37.690707937    -0.087136331     0.376735155     0.316982464
   27    11.374216599     3.202445605    32.978911362    -0.056655975     0.003664032    -0.496766218
   28    18.367377317     5.641259352    31.248190226    -0.020078777     0.003037283    -0.499587447
   29    19.080007138     8.294072255    35.327705052     0.014716108     0.020809464    -0.499349980
   30    17.849973868     9.207733635    32.024750326    -0.008292927     0.019727550    -0.499541841
   31    16.362342929    10.171484328    39.039141541    -0.007756723     0.004789353    -0.499916888
   32    18.489217818     0.822471564    38.268070044    -0.011673823     0.038557677    -0.498374385
   33    11.552441149     8.196798152    35.670287429    -0.011735861     0.037944548    -0.498419984
   34    21.149745120     3.181564113    38.388519904     0.002272274     0.439197122    -0.238957579
   35    18.522034332     7.783208379    30.564732403    -0.014534951     0.007521695    -0.499732088
   36    18.035802701     2.769968254    35.898803110    -0.009124516     0.121602121    -0.484901709
   37    18.541362062     5.382848139    37.835514369    -0.008236041     0.021631268    -0.499463969
   38    16.626410251     6.300054910    34.534653115    -0.018600609     0.030141011    -0.498743959
   39    18.812916952     5.995395624    33.960179106    -0.031783809     0.019253073    -0.498617197
   40    13.579327384     9.014151371    36.507144007    -0.007483776     0.015943613    -0.499689698
   41    17.078699427     2.206055935    33.948121120    -0.016302744     0.099449732    -0.489738677
   42    11.362809707     8.647643401    33.397155170    -0.016468740     0.027550437    -0.498968690
   43    14.900620434     7.232333895    35.541546181    -0.015360338     0.026259780    -0.499073626
   44    19.841015643     4.231675284    34.824885014    -0.036785076     0.027489994    -0.497886692
   45    15.180446452     9.748382734    35.000710266    -0.004067296     0.010981338    -0.499862849
   46    18.272472863     1.426886375    32.300451611    -0.026089158     0.083636728    -0.492264414
   47    17.696936893     1.996620114    39.865216340    -0.009383850     0.031444982    -0.498921994
   48    20.901851999     3.653469981    30.786318432    -0.015224417     0.006162158    -0.499730172
   49    14.141318436     5.505628588    31.876213260    -0.000153886     0.003628110     0.499986813
   50    17.296078461     9.579714924    36.997267171     0.012789679    -0.009081306    -0.499753893
   51    20.573048564     6.013327303    30.925652056    -0.007485478    -0.002282396    -0.499938755
   52    20.280501134     9.775709060    31.626830684     0.018917693     0.009369377    -0.499554137
   53    19.549727798     4.455870680    39.549843491    -0.016131046     0.017360145    -0.499438099
   54    15.708840030     2.562579968    39.861261229    -0.011874867     0.061918899    -0.496009110
   55    14.155063176    10.230889195    32.762667764    -0.002270196     0.014700223    -0.499778701
   56    17.266204709     4.223510846    39.726720476    -0.013954851     0.025850035    -0.499136292
   57    16.155871227     6.149678550    37.356489133    -0.012107717     0.022208471    -0.499359777
   58    15.028831573     0.437810365    37.146818804    -0.009724660     0.036338253    -0.498582954
   59    16.680561614     1.916840139    37.861932516    -0.014084551     0.043804475    -0.497878292
   60    19.785867533     6.596155299    39.107553765    -0.011022591     0.016533038    -0.499605005
   61    19.950744837     1.969651633    40.010963591    -0.013106945     0.057261486    -0.496537340
   62    19.782514032     7.485562095    32.445125659    -0.014027800     0.005481183    -0.499773126
   63    13.045093336     8.019193613    39.638961617    -0.005587304     0.025900795    -0.499297437
   64    14.385052820     9.340885767    30.705780456     0.000093219     0.012019492    -0.499855502
   65    15.511998530     4.067509683    33.552733027     0.001242877    -0.002011885    -0.499994408
   66    11.910308105     6.949257133    38.146088974    -0.000128864     0.032671703    -0.498931401
   67    18.741291572     2.978161192    38.257885079    -0.024938624     0.030610422    -0.498438629
   68    11.904332378     2.508647302    35.357253011    -0.010343902     0.273173952    -0.418651401
   21    22.798194779     6.721957360    34.423755756    -0.000253507    -0.000525511     0.499999660
   22    30.130500449     2.105579815    36.463682476    -0.031359281     0.192666250    -0.460321965
   23    30.014574031     9.632905526    37.328522107    -0.011875044     0.043705362    -0.497944600
   24    24.961364604     4.520619174    38.156633528    -0.018567297     0.036948101    -0.498287160
   25    26.240023414     0.764469457    31.441649599    -0.007383027     0.047325490    -0.497700501
   26    22.799249372     1.346847340    37.978794806    -0.018349402     0.385963823     0.317325112
   27    21.463872549     3.347105817    33.266998231    -0.056513146    -0.027361565    -0.496041943
   28    28.457033266     5.785919564    31.536277096    -0.029899732     0.030887160    -0.498148562
   29    29.169663088     8.438732467    35.615791922    -0.014173575     0.043523358    -0.497900419
   30    27.939629818     9.352393847    32.312837196    -0.019411260     0.036554970    -0.498283992
   31    26.451998879    10.316144539    39.327228411    -0.025903712     0.027186713    -0.498587886
   32    28.578873768     0.967131776    38.556156913    -0.012841797     0.064929206    -0.495599926
   33    21.642097099     8.341458364    35.958374298    -0.008445339     0.031303633    -0.498947651
   34    31.239401070     3.326224325    38.676606773    -0.127378159     0.426585451    -0.227595381
   35    28.611690282     7.927868590    30.852819272    -0.026113057     0.034534409    -0.498121956
   36    28.125458650     2.914628466    36.186889980    -0.038286629     0.143116083    -0.477547821
   37    28.631018011     5.527508351    38.123601239    -0.018161838     0.050249205    -0.497136968
   38    26.716066201     6.444715122    34.822739985    -0.021671846     0.048524797    -0.497167653
   39    28.902572902     6.140055835    34.248265976    -0.045149318     0.035729451    -0.496673882
   40    23.668983334     9.158811583    36.795230876    -0.013541317     0.020329490    -0.499402988
   41    27.168355377     2.350716147    34.236207989    -0.040685718     0.122850891    -0.482962039
   42    21.452465657     8.792303613    33.685242040    -0.010279773     0.005526475    -0.499863766
   43    24.990276384     7.376994107    35.829633050    -0.016103555     0.042979844    -0.497888952
   44    29.930671592     4.376335496    35.112971884    -0.052267993     0.041658426    -0.495512495
   45    25.270102402     9.893042946    35.288797136    -0.009390704     0.015588611    -0.499668700
   46    28.362128812     1.571546586    32.588538481    -0.047280900     0.108682562    -0.485749542
   47    27.786592843     2.141280326    40.153303210    -0.018367651     0.059843942    -0.496065855
   48    30.991507949     3.798130193    31.074405302    -0.022700722     0.037898712    -0.498044541
   49    24.230974386     5.650288800    32.164300129    -0.003258910     0.002086853     0.499985024
   50    27.385734411     9.724375136    37.285354040    -0.001914157    -0.000517058    -0.499996069
   51    30.662704514     6.157987514    31.213738926    -0.018753465     0.028397655    -0.498840536
   52    30.370157084     9.920369272    31.914917554     0.013784243     0.023689396    -0.499248242
   53    29.639383748     4.600530891    39.837930360    -0.022875069     0.048511444    -0.497115048
   54    25.798495980     2.707240179    40.149348099    -0.022690769     0.086362051    -0.491962118
   55    24.244719125    10.375549407    33.050754633     0.003123667     0.004813245    -0.499967074
   56    27.355860659     4.368171057    40.014807346    -0.023683747     0.051855254    -0.496739482
   57    26.245527177     6.294338761    37.644576002    -0.017861179     0.045813187    -0.497576256
   58    25.118487522     0.582470577    37.434905673    -0.011866555     0.055020011    -0.496821883
   59    26.770217563     2.061500351    38.150019386    -0.020579635     0.065074995    -0.495319820
   60    29.875523483     6.740815511    39.395640635    -0.022613069     0.047082520    -0.497264402
   61    30.040400787     2.114311845    40.299050461    -0.027023570     0.087275705    -0.491581812
   62    29.872169982     7.630222307    32.733212529    -0.027867732     0.030327812    -0.498300726
   63    23.134749286     8.163853824    39.927048486    -0.006656273     0.027846780    -0.499179578
   64    24.474708770     9.485545978    30.993867325     0.003651280    -0.001824375    -0.499983340
   65    25.601654479     4.212169894    33.840819896    -0.026251029     0.057170616    -0.496026616
   66    21.999964055     7.093917345    38.434175844     0.000909126     0.027119145    -0.499263183
   67    28.830947522     3.122821404    38.545971948    -0.028905004     0.060666151    -0.495463539
   68    21.993988328     2.653307514    35.645339881     0.026414326     0.248387765    -0.433134854
   21    32.887850729     6.866617572    34.711842625     0.023834810    -0.028129185     0.498638798
   22    40.220156399     2.250240026    36.751769346    -0.040229416     0.214502465    -0.449855851
   23    40.104229981     9.777565738    37.616608977    -0.018355168     0.071701673    -0.494491616
   24    35.051020554     4.665279386    38.444720397    -0.028155063     0.057537206    -0.495879786
   25    36.329679364     0.909129668    31.729736468    -0.015809110     0.072716820    -0.494431326
   26    32.888905321     1.491507551    38.266881676    -0.150499405     0.345242243     0.328873415
   27    31.553528499     3.491766029    33.555085101    -0.055588913    -0.011446644    -0.496768404
   28    38.546689216     5.930579776    31.824363965    -0.039434424     0.063259056    -0.494411992
   29    39.259319038     8.583392678    35.903878791    -0.015106298     0.076362266    -0.493903436
   30    38.029285767     9.497054058    32.600924065    -0.027533413     0.079330853    -0.492898090
   31    36.541654829    10.460804751    39.615315281    -0.034434676     0.060646496    -0.495112367
   32    38.668529717     1.111791988    38.844243783    -0.023367150     0.079956771    -0.493012060
   33    31.731753049     8.486118575    36.246461168    -0.020701687     0.063324441    -0.495541578
   34    41.329057020     3.470884536    38.964693643    -0.136772302     0.438166669    -0.198250619
   35    38.701346232     8.072528802    31.140906142    -0.033876648     0.068206244    -0.494166248
   36    38.215114600     3.059288678    36.474976850    -0.045981281     0.167794077    -0.468754594
   37    38.720673961     5.672168562    38.411688108    -0.018977897     0.067062529    -0.495118629
   38    36.805722151     6.589375333    35.110826855    -0.038176039     0.076506178    -0.492635154
   39    38.992228851     6.284716047    34.536352845    -0.053853451     0.068283188    -0.492379135
   40    33.758639284     9.303471795    37.083317746    -0.026038636     0.056445183    -0.496120883
   41    37.258011327     2.495376359    34.524294859    -0.049847343     0.148050476    -0.474969787
   42    31.542121607     8.936963825    33.973328909    -0.027228255     0.031643573    -0.498254259
   43    35.079932334     7.521654319    36.117719920    -0.035577170     0.070970009    -0.493657293
   44    40.020327542     4.520995708    35.401058754    -0.058279449     0.075937730    -0.490751431
   45    35.359758352    10.037703157    35.576884005    -0.025359912     0.055179677    -0.496298376
   46    38.451784762     1.716206798    32.876625350    -0.056319321     0.134598278    -0.478237846
   47    37.876248792     2.285940537    40.441390080    -0.023717938     0.074428396    -0.493860176
   48    41.081163898     3.942790405    31.362492171    -0.026578742     0.070125213    -0.494344035
   49    34.320630336     5.794949012    32.452386999     0.000493050    -0.011632416     0.499864425
   50    37.475390360     9.869035348    37.573440910    -0.015500030     0.043517211    -0.497861428
   51    40.752360464     6.302647726    31.501825795    -0.027883869     0.057179236    -0.495936513
   52    40.459813034    10.065029484    32.203004424     0.000644422     0.067695985    -0.495395638
   53    39.729039697     4.745191103    40.126017230    -0.023035995     0.064621775    -0.495271006
   54    35.888151929     2.851900391    40.437434969    -0.021949475     0.103613474    -0.488653731
   55    34.334375075    10.520209618    33.338841503    -0.023619633     0.055099832    -0.496393112
   56    37.445516608     4.512831269    40.302894216    -0.025904541     0.069210674    -0.494508683
   57    36.335183127     6.438998973    37.932662872    -0.027131860     0.067557594    -0.494671440
   58    35.208143472     0.727130788    37.722992543    -0.022688873     0.073573118    -0.494036650
   59    36.859873513     2.206160562    38.438106255    -0.027084750     0.083866303    -0.492171575
   60    39.965179432     6.885475722    39.683727504    -0.021042782     0.061266864    -0.495785813
   61    40.130056736     2.258972057    40.587137330    -0.030210506     0.100890645    -0.488782572
   62    39.961825932     7.774882518    33.021299398    -0.034817332     0.060497610    -0.495103820
   63    33.224405235     8.308514036    40.215135356    -0.014049548     0.058265035    -0.496394798
   64    34.564364719     9.630206190    31.281954195    -0.022132547     0.047672827    -0.497229778
   65    35.691310429     4.356830106    34.128906766    -0.035412118     0.060778458    -0.495027233
   66    32.089620005     7.238577557    38.722262713    -0.008719311     0.058198316    -0.496524853
   67    38.920603471     3.267481616    38.834058818    -0.035165648     0.075914842    -0.492950620
   68    32.083644278     2.797967725    35.933426750    -0.031946909     0.267759717    -0.421051219
   21     2.753958350    16.457730458    33.878207440     0.022178086    -0.043642718     0.497597675
   22    10.086264021    11.841352912    35.918134160    -0.023715846     0.183715457    -0.464420272
   23     9.970337602    19.368678624    36.782973792    -0.000629377     0.056963812    -0.496744127
   24     4.917128176    14.256392272    37.611085212    -0.019629274     0.024198892    -0.499028161
   25     6.195786986    10.500242555    30.896101283    -0.011649636     0.041616876    -0.498128820
   26     2.755012943    11.082620437    37.433246491    -0.147109918     0.360757250     0.313389340
   27     1.419636120    13.082878915    32.721449916    -0.065038189     0.018565049    -0.495404252
   28     8.412796838    15.521692662    30.990728780    -0.030696850     0.039863212    -0.497462187
   29     9.125426659    18.174505564    35.070243606     0.002359383     0.060734010    -0.496292065
   30     7.895393389    19.088166945    31.767288880    -0.016445293     0.062813029    -0.495766150
   31     6.407762451    20.051917637    38.781680095    -0.020221374     0.051577919    -0.496921336
   32     8.534637339    10.702904874    38.010608598    -0.010171194     0.038756178    -0.498391920
   33     1.597860671    18.077231461    35.412825983    -0.021692523     0.074251280    -0.493979941
   34    11.195164642    13.061997422    38.131058457    -0.086363596     0.434662065    -0.231538806
   35     8.567453853    17.663641688    30.307270957    -0.025406916     0.045555956    -0.497271700
   36     8.081222222    12.650401564    35.641341664    -0.033962386     0.137083625    -0.479640111
   37     8.586781583    15.263281449    37.578052923    -0.005001600     0.030875514    -0.499020728
   38     6.671829773    16.180488219    34.277191669    -0.031261640     0.055726539    -0.495900456
   39     8.858336473    15.875828933    33.702717660    -0.043153749     0.046916902    -0.495919911
   40     3.624746905    18.894584681    36.249682561    -0.019262380     0.056582726    -0.496414500
   41     7.124118949    12.086489245    33.690659674    -0.040268318     0.116774087    -0.484502090
   42     1.408229228    18.528076711    33.139693724    -0.033266567     0.054735201    -0.495880422
   43     4.946039956    17.112767205    35.284084735    -0.027917597     0.054181975    -0.496271016
   44     9.886435164    14.112108594    34.567423568    -0.049179574     0.051835219    -0.494868144
   45     5.225865974    19.628816043    34.743248820    -0.013499695     0.052783806    -0.497022764
   46     8.317892384    11.307319684    32.042990165    -0.045763937     0.103688413    -0.486984985
   47     7.742356414    11.877053423    39.607754894    -0.007686980     0.034578875    -0.498743633
   48    10.947271520    13.533903291    30.528856986    -0.026834774     0.036706204    -0.497928257
   49     4.186737958    15.386061898    31.618751814     0.011897564     0.000924444     0.499857573
   50     7.341497982    19.460148234    36.739805725     0.004207406     0.035537116    -0.498717767
   51    10.618468086    15.893760612    30.668190610    -0.020340422     0.032238115    -0.498544854
   52    10.325920656    19.656142370    31.369369238     0.009415274     0.049318198    -0.497472681
   53     9.595147319    14.336303989    39.292382045    -0.013271282     0.023557505    -0.499268382
   54     5.754259551    12.443013277    39.603799783    -0.017274186     0.063428593    -0.495659577
   55     4.200482697    20.111322504    32.505206318    -0.009472685     0.058152566    -0.496516412
   56     7.311624230    14.103944155    39.469259030    -0.017878351     0.028676660    -0.498856707
   57     6.201290749    16.030111859    37.099027686    -0.015925697     0.037800968    -0.498314618
   58     5.074251094    10.318243674    36.889357358    -0.012107324     0.039140099    -0.498318638
   59     6.725981135    11.797273448    37.604471070    -0.017605922     0.046466896    -0.497524732
   60     9.831287054    16.476588608    38.850092319     0.000008465     0.025189880    -0.499365067
   61     9.996164358    11.850084943    39.753502145    -0.009165648     0.060957847    -0.496185582
   62     9.827933554    17.365995404    32.187664213    -0.025488244     0.037131643    -0.497967459
   63     3.090512857    17.899626922    39.381500171    -0.015084525     0.055782717    -0.496649520
   64     4.430472341    19.221319076    30.448319010    -0.008929044     0.053874265    -0.497008889
   65     5.557418051    13.947942992    33.295271581    -0.019812398     0.009990214    -0.499507422
   66     1.955727626    16.829690443    37.888627528    -0.009014636     0.061394067    -0.496134563
   67     8.786711093    12.858594502    38.000423632    -0.017770886     0.038907936    -0.498167008
   68     1.949751899    12.389080612    35.099791565    -0.041097700     0.276175873    -0.414774477
   21    12.843614300    16.602390669    34.166294310     0.001723981     0.000524572     0.499996753
   22    20.175919970    11.986013124    36.206221030     0.026859821     0.153011022    -0.475253803
   23    20.059993552    19.513338836    37.071060661    -0.004621157     0.028719914    -0.499153094
   24    15.006784126    14.401052484    37.899172082     0.000115091    -0.001105568    -0.499998764
   25    16.285442936    10.644902766    31.184188153     0.000231537    -0.000121459    -0.499999932
   26    12.844668893    11.227280649    37.721333360    -0.130759013     0.386908199     0.288451255
   27    11.509292070    13.227539126    33.009536785    -0.058544333    -0.002218090    -0.496555779
   28    18.502452788    15.666352873    31.278815650    -0.021117839    -0.000408851    -0.499553670
   29    19.215082609    18.319165776    35.358330476    -0.001289431     0.028759744    -0.499170526
   30    17.985049339    19.232827156    32.055375750    -0.011277257     0.022965922    -0.499344961
   31    16.497418400    20.196577849    39.069766965    -0.020384984     0.020444089    -0.499165796
   32    18.624293289    10.847565085    38.298695467     0.002911352     0.013115755    -0.499819468
   33    11.687516620    18.221891673    35.700912852    -0.006589587     0.044478545    -0.497974132
   34    21.284820591    13.206657634    38.419145327     0.038551916     0.428667336    -0.254476060
   35    18.657109803    17.808301900    30.595357826    -0.017492571     0.005591505    -0.499662631
   36    18.170878172    12.795061775    35.929428534     0.003557909     0.106061758    -0.488608478
   37    18.676437533    15.407941660    37.866139793     0.006713972     0.005291591    -0.499926916
   38    16.761485722    16.325148431    34.565278539    -0.014135309     0.025008570    -0.499174082
   39    18.947992423    16.020489145    33.990804530    -0.030104066     0.012387048    -0.498939181
   40    13.714402855    19.039244892    36.537769430    -0.010194694     0.024647518    -0.499288061
   41    17.213774899    12.231149456    33.978746543    -0.006710989     0.084781868    -0.492713910
   42    11.497885178    18.672736922    33.427780593    -0.016757097     0.029802620    -0.498829634
   43    15.035695905    17.257427416    35.572171604    -0.011794183     0.023112143    -0.499326272
   44    19.976091114    14.256768805    34.855510438    -0.033816291     0.020136097    -0.498448589
   45    15.315521923    19.773476255    35.031335690    -0.005247420     0.019654905    -0.499585978
   46    18.407548334    11.451979896    32.331077034    -0.017200694     0.069424538    -0.494857929
   47    17.832012364    12.021713635    39.895841764     0.003267276     0.009371113    -0.499901497
   48    21.036927470    13.678563502    30.816943855    -0.013604009    -0.000107493    -0.499814885
   49    14.276393908    15.530722109    31.906838683     0.000784370     0.003509981     0.499987065
   50    17.431153932    19.604808445    37.027892594    -0.002230176     0.003001500    -0.499986017
   51    20.708124035    16.038420824    30.956277480    -0.008660514    -0.005712243    -0.499892354
   52    20.415576605    19.800802581    31.657456108     0.018304331     0.010645831    -0.499551417
   53    19.684803269    14.480964201    39.580468914    -0.001497994     0.002423045    -0.499991885
   54    15.843915501    12.587673489    39.891886653     0.006324932     0.036645381    -0.498615194
   55    14.290138647    20.255982716    32.793293187    -0.009771406     0.019605284    -0.499519922
   56    17.401280180    14.248604367    39.757345900     0.001955510     0.004481723    -0.499976090
   57    16.290946698    16.174772071    37.387114556     0.000850422     0.010185715    -0.499895517
   58    15.163907044    10.462903886    37.177444227     0.005320195     0.002860767    -0.499963510
   59    16.815637085    11.941933660    37.892557939     0.004305347     0.015475076    -0.499741919
   60    19.920943004    16.621248820    39.138179189     0.002899281     0.002421474    -0.499985730
   61    20.085820308    11.994745154    40.041589015     0.001099307     0.036308121    -0.498678766
   62    19.917589503    17.510655616    32.475751082    -0.015815101     0.002654726    -0.499742769
   63    13.180168807    18.044287134    39.669587040    -0.000398195     0.022595685    -0.499489015
   64    14.520128291    19.365979288    30.736405879    -0.008757748     0.015723028    -0.499675983
   65    15.647074001    14.092603204    33.583358450     0.061491031     0.038692912    -0.494693553
   66    12.045383576    16.974350654    38.176714398     0.009257011     0.028534792    -0.499099262
   67    18.876367043    13.003254713    38.288510502    -0.011496917     0.011270086    -0.499740739
   68    12.039407849    12.533740823    35.387878435    -0.019206945     0.260001520    -0.426650094
   21    22.933270250    16.747050881    34.454381179     0.000543771     0.001243689     0.499998158
   22    30.265575920    12.130673336    36.494307900    -0.000598922     0.169722050    -0.470312733
   23    30.149649502    19.657999047    37.359147531     0.005768547     0.040942061    -0.498287539
   24    25.096440076    14.545712695    38.187258951    -0.020006221     0.022619688    -0.499087268
   25    26.375098886    10.789562978    31.472275022    -0.003986625     0.002086220    -0.499979754
   26    22.934324843    11.371940861    38.009420230     0.040994414     0.399873188     0.297356506
   27    21.598948020    13.372199338    33.297623655    -0.058655871    -0.029963262    -0.495642706
   28    28.592108738    15.811013085    31.566902519    -0.037298013     0.016143673    -0.498345503
   29    29.304738559    18.463825988    35.646417345     0.021111757     0.034439322    -0.498365555
   30    28.074705289    19.377487368    32.343462619    -0.020645036     0.038474401    -0.498089854
   31    26.587074350    20.341238060    39.357853835    -0.026083586     0.032691988    -0.498247810
   32    28.713949239    10.992225297    38.586782337    -0.017962029     0.035242447    -0.498432880
   33    21.777172570    18.366551885    35.988999722    -0.010938521     0.032395481    -0.498829512
   34    31.374476541    13.351317846    38.707232197    -0.008201365     0.435378177    -0.245720533
   35    28.746765753    17.952962111    30.883444696    -0.031837009     0.023559567    -0.498428883
   36    28.260534121    12.939721987    36.217515403    -0.017877794     0.120884146    -0.484837507
   37    28.766093482    15.552601872    38.154226662    -0.015449349     0.038314003    -0.498290432
   38    26.851141672    16.469808643    34.853365409    -0.028027887     0.039723577    -0.497630862
   39    29.037648373    16.165149356    34.278891399    -0.045329815     0.028452242    -0.497127426
   40    23.804058805    19.183905104    36.825856300    -0.016575406     0.022086196    -0.499236874
   41    27.303430848    12.375809668    34.266833413    -0.024634699     0.096976933    -0.489886320
   42    21.587541128    18.817397134    33.715867463    -0.013671717     0.005879999    -0.499778461
   43    25.125351855    17.402087628    35.860258474    -0.023563782     0.035521055    -0.498179689
   44    30.065747063    14.401429017    35.143597308    -0.049068920     0.032567494    -0.496519485
   45    25.405177873    19.918136467    35.319422559    -0.015255946     0.017754700    -0.499451726
   46    28.497204284    11.596640107    32.619163904    -0.033689576     0.079826941    -0.492435450
   47    27.921668314    12.166373847    40.183928634    -0.018548803     0.035440350    -0.498397355
   48    31.126583420    13.823223714    31.105030725    -0.031059365     0.007565860    -0.498977027
   49    24.366049857    15.675382321    32.194925553    -0.000087673    -0.000188973     0.499999957
   50    27.520809882    19.749468657    37.315979464    -0.009089230     0.011872386    -0.499776382
   51    30.797779985    16.183081035    31.244364349    -0.023864858     0.014661533    -0.499214892
   52    30.505232555    19.945462793    31.945542978    -0.005542013     0.027721389    -0.499200171
   53    29.774459219    14.625624412    39.868555784    -0.025208347     0.031101947    -0.498394631
   54    25.933571451    12.732333700    40.179973523    -0.018652726     0.064227704    -0.495506688
   55    24.379794596    20.400642928    33.081380057    -0.012549390     0.010146995    -0.499739483
   56    27.490936130    14.393264578    40.045432770    -0.021281665     0.031271825    -0.498567111
   57    26.380602648    16.319432282    37.675201426    -0.020942495     0.032505434    -0.498502566
   58    25.253562993    10.607564098    37.465531097    -0.017291684     0.021798215    -0.499225235
   59    26.905293034    12.086593872    38.180644809    -0.018581995     0.037119056    -0.498273906
   60    30.010598954    16.765909032    39.426266058    -0.020071074     0.038525266    -0.498109381
   61    30.175476258    12.139405366    40.329675884    -0.025857464     0.063202629    -0.495314869
   62    30.007245453    17.655315828    32.763837952    -0.027326921     0.021850982    -0.498774272
   63    23.269824757    18.188947345    39.957673910    -0.003613786     0.021842027    -0.499509626
   64    24.609784241    19.510639499    31.024492749    -0.008417147     0.003184562    -0.499919004
   65    25.736729950    14.237263415    33.871445320     0.054356141     0.007210203    -0.496984329
   66    22.135039526    17.119010866    38.464801267     0.007614247     0.018864774    -0.499585972
   67    28.966022993    13.147914925    38.576597372    -0.031251571     0.038384233    -0.497543958
   68    22.129063799    12.678401035    35.675965304     0.047932904     0.229875201    -0.441429302
   21    33.022926200    16.891711093    34.742468049     0.017610908    -0.027601075     0.498926885
   22    40.355231870    12.275333547    36.782394769    -0.041699275     0.202258000    -0.455360156
   23    40.239305452    19.802659259    37.647234400    -0.025710334     0.074346198    -0.493772844
   24    35.186096025    14.690372907    38.475345821    -0.029242102     0.050468975    -0.496586128
   25    36.464754835    10.934223190    31.760361892    -0.018383833     0.057917904    -0.496293815
   26    33.023980792    11.516601072    38.297507099    -0.002185789     0.392742721     0.309432347
   27    31.688603970    13.516859550    33.585710525    -0.066712547    -0.028981697    -0.494681208
   28    38.681764687    15.955673297    31.854989389    -0.042011962     0.059954740    -0.494611387
   29    39.394394509    18.608486199    35.934504215    -0.022560607     0.077760534    -0.493400769
   30    38.164361238    19.522147580    32.631549489    -0.032680938     0.077759413    -0.492834079
   31    36.676730300    20.485898272    39.645940704    -0.042739779     0.061966092    -0.494301036
   32    38.803605188    11.136885509    38.874869207    -0.024520996     0.067115332    -0.494867915
   33    31.866828520    18.511212096    36.277086591    -0.020731522     0.060212022    -0.495928136
   34    41.464132491    13.495978057    38.995319066    -0.126122211     0.434646701    -0.212545131
   35    38.836421703    18.097622323    31.171531566    -0.037555853     0.065551260    -0.494259638
   36    38.350190071    13.084382199    36.505602273    -0.047920531     0.156736554    -0.472374084
   37    38.855749432    15.697262083    38.442313532    -0.021098106     0.060621135    -0.495862832
   38    36.940797622    16.614468854    35.141452278    -0.041580441     0.071270883    -0.493144531
   39    39.127304322    16.309809568    34.566978269    -0.056192575     0.064044311    -0.492687244
   40    33.893714755    19.328565316    37.113943170    -0.027567548     0.054343340    -0.496272941
   41    37.393086798    12.520469880    34.554920282    -0.051394539     0.137270818    -0.478032764
   42    31.677197078    18.962057346    34.003954333    -0.020383956     0.027642040    -0.498819017
   43    35.215007805    17.546747840    36.148345344    -0.038177256     0.066427473    -0.494095019
   44    40.155403013    14.546089229    35.431684177    -0.060605964     0.070415652    -0.491292737
   45    35.494833823    20.062796678    35.607509429    -0.027821173     0.053481342    -0.496352424
   46    38.586860233    11.741300319    32.907250774    -0.056951528     0.124301326    -0.480942516
   47    38.011324263    12.311034058    40.472015503    -0.025642384     0.062481393    -0.495417545
   48    41.216239369    13.967883926    31.393117595    -0.030485624     0.061633744    -0.495249340
   49    34.455705807    15.820042533    32.483012422    -0.007775891    -0.012255097     0.499789304
   50    37.610465831    19.894128869    37.604066334    -0.026236276     0.042603159    -0.497490330
   51    40.887435935    16.327741247    31.532451219    -0.031128538     0.054498915    -0.496045242
   52    40.594888505    20.090123005    32.233629847    -0.006563993     0.066264412    -0.495546105
   53    39.864115169    14.770284624    40.156642654    -0.024727097     0.056750555    -0.496153147
   54    36.023227400    12.876993912    40.468060392    -0.027374679     0.093033091    -0.490505322
   55    34.469450546    20.545303139    33.369466926    -0.022373650     0.054062279    -0.496564890
   56    37.580592079    14.537924790    40.333519639    -0.028528826     0.058783511    -0.495712220
   57    36.470258598    16.464092494    37.963288295    -0.028620206     0.061255906    -0.495407507
   58    35.343218943    10.752224309    37.753617967    -0.026596482     0.057665180    -0.495950959
   59    36.994948984    12.231254083    38.468731679    -0.029595513     0.070012284    -0.494188613
   60    40.100254903    16.910569243    39.714352928    -0.020923483     0.057123846    -0.496285275
   61    40.265132207    12.284065578    40.617762754    -0.031743062     0.089355249    -0.490925674
   62    40.096901403    17.799976039    33.051924822    -0.037993039     0.058632858    -0.495094655
   63    33.359480706    18.333607557    40.245760779    -0.015568993     0.054187045    -0.496811202
   64    34.699440191    19.655299711    31.312579619    -0.019701596     0.046261286    -0.497465316
   65    35.826385900    14.381923627    34.159532189     0.042779500     0.074128543    -0.492620415
   66    32.224695476    17.263671078    38.752888137    -0.008120876     0.052793541    -0.497138706
   67    39.055678942    13.292575137    38.864684241    -0.036874210     0.065927965    -0.494260858
   68    32.218719749    12.823061247    35.964052174     0.015863604     0.247029085    -0.434424881
   21     2.889033821    26.482823979    33.908832864     0.026445259    -0.054662244     0.496298990
   22    10.221339492    21.866446433    35.948759584    -0.010432139     0.196171625    -0.459791109
   23    10.105413073    29.393772145    36.813599215    -0.010451453     0.072976298    -0.494535365
   24     5.052203647    24.281485793    37.641710636    -0.020662599     0.046929863    -0.497363695
   25     6.330862457    20.525336076    30.926726707    -0.007691302     0.051225199    -0.497309585
   26     2.890088414    21.107713958    37.463871914    -0.179794659     0.343593250     0.315622494
   27     1.554711591    23.107972436    32.752075339    -0.068859126     0.023338261    -0.494685502
   28     8.547872309    25.546786183    31.021354203    -0.038090858     0.054252044    -0.495586322
   29     9.260502130    28.199599085    35.100869030    -0.007089134     0.076556093    -0.494053549
   30     8.030468860    29.113260466    31.797914304    -0.025643468     0.076201423    -0.493493420
   31     6.542837922    30.077011158    38.812305519    -0.025767217     0.065581085    -0.495010274
   32     8.669712810    20.727998395    38.041234021    -0.009923245     0.055836302    -0.496773426
   33     1.732936142    28.102324982    35.443451406    -0.023756552     0.086287792    -0.491924835
   34    11.330240113    23.087090943    38.161683881    -0.046600389     0.447073521    -0.218983265
   35     8.702529324    27.688735209    30.337896380    -0.032032525     0.061078114    -0.495220538
   36     8.216297693    22.675495085    35.671967088    -0.026600537     0.150723027    -0.475998929
   37     8.721857054    25.288374970    37.608678347    -0.015092800     0.054742083    -0.496765047
   38     6.806905244    26.205581740    34.307817093    -0.033751861     0.073793462    -0.493371398
   39     8.993411944    25.900922454    33.733343084    -0.049479155     0.062055528    -0.493660738
   40     3.759822376    28.919678202    36.280307984    -0.023631729     0.069561734    -0.494573257
   41     7.259194420    22.111582766    33.721285097    -0.032799559     0.130203594    -0.481633899
   42     1.543304699    28.553170232    33.170319147    -0.035480790     0.065331569    -0.494442008
   43     5.081115427    27.137860726    35.314710158    -0.030011800     0.071959806    -0.493883669
   44    10.021510635    24.137202115    34.598048992    -0.053072475     0.067725838    -0.492540885
   45     5.360941445    29.653909564    34.773874244    -0.020732721     0.065399470    -0.495270697
   46     8.452967855    21.332413205    32.073615588    -0.040892831     0.116027528    -0.484629125
   47     7.877431885    21.902146944    39.638380318    -0.011605329     0.050062530    -0.497352048
   48    11.082346991    23.558996812    30.559482409    -0.027346510     0.052831294    -0.496448409
   49     4.321813429    25.411155419    31.649377237     0.006207762    -0.000878988     0.499960690
   50     7.476573453    29.485241755    36.770431148    -0.006819839     0.048947728    -0.497551615
   51    10.753543557    25.918854133    30.698816034    -0.025760236     0.049663253    -0.496860113
   52    10.460996127    29.681235891    31.399994662     0.002787457     0.063691093    -0.495919020
   53     9.730222790    24.361397510    39.323007468    -0.020012688     0.047577273    -0.497328760
   54     5.889335022    22.468106798    39.634425207    -0.013028700     0.081972641    -0.493062612
   55     4.335558168    30.136416025    32.535831741    -0.019015972     0.068512461    -0.494918615
   56     7.446699701    24.129037676    39.499884454    -0.017277623     0.049369006    -0.497256659
   57     6.336366220    26.055205380    37.129653110    -0.020623726     0.058863763    -0.496094466
   58     5.209326565    20.343337195    36.919982781    -0.010594561     0.053236352    -0.497044914
   59     6.861056606    21.822366969    37.635096493    -0.014557682     0.063115070    -0.495786811
   60     9.966362525    26.501682129    38.880717742    -0.017911038     0.051560797    -0.497011749
   61    10.131239829    21.875178464    39.784127569    -0.015653435     0.075962047    -0.493948112
   62     9.963009025    27.391088925    32.218289636    -0.030905522     0.055421288    -0.495956984
   63     3.225588328    27.924720443    39.412125594    -0.011833207     0.073972414    -0.494356205
   64     4.565547812    29.246412597    30.478944433    -0.019310471     0.063332397    -0.495596724
   65     5.692493522    23.973036513    33.325897004    -0.004357865     0.069433813    -0.495136299
   66     2.090803098    26.854783964    37.919252952    -0.007571009     0.077242057    -0.493939616
   67     8.921786564    22.883688023    38.031049056    -0.027308794     0.055559540    -0.496152564
   68     2.084827370    22.414174133    35.130416989    -0.055862318     0.278849152    -0.411245124
   21    12.978689771    26.627484190    34.196919733     0.017125056    -0.039805268     0.498118734
   22    20.310995441    22.011106645    36.236846454     0.017556313     0.162630954    -0.472485924
   23    20.195069023    29.538432357    37.101686085    -0.005863607     0.057982842    -0.496591994
   24    15.141859597    24.426146005    37.929797505    -0.014615299     0.025062406    -0.499157559
   25    16.420518407    20.669996287    31.214813576    -0.007753371     0.009518857    -0.499849254
   26    12.979744364    21.252374170    37.751958784    -0.062639683     0.386263255     0.311250651
   27    11.644367541    23.252632647    33.040162209    -0.067837141     0.013303106    -0.495198091
   28    18.637528259    25.691446394    31.309441073    -0.034752950     0.028019250    -0.498003167
   29    19.350158080    28.344259297    35.388955899    -0.002534393     0.058969240    -0.496503983
   30    18.120124810    29.257920677    32.086001173    -0.018677962     0.051093430    -0.497031785
   31    16.632493871    30.221671370    39.100392389    -0.022546497     0.048591519    -0.497122238
   32    18.759368760    20.872658606    38.329320891    -0.011716434     0.027229877    -0.499120485
   33    11.822592091    28.246985194    35.731538276    -0.016477642     0.070072675    -0.494791176
   34    21.419896063    23.231751155    38.449770751     0.048985550     0.425402055    -0.258134670
   35    18.792185274    27.833395421    30.625983250    -0.028510556     0.036188795    -0.497872995
   36    18.305953643    22.820155296    35.960053957    -0.007227694     0.120120796    -0.485302745
   37    18.811513004    25.433035181    37.896765216    -0.015089074     0.034528961    -0.498578049
   38    16.896561194    26.350241952    34.595903963    -0.025464359     0.053700256    -0.496455284
   39    19.083067894    26.045582666    34.021429953    -0.043272178     0.039611168    -0.496546548
   40    13.849478326    29.064338413    36.568394854    -0.016237824     0.052077276    -0.497015382
   41    17.348850370    22.256242977    34.009371967    -0.013301094     0.099012125    -0.489918034
   42    11.632960649    28.697830443    33.458406017    -0.026417283     0.051313772    -0.496657854
   43    15.170771376    27.282520937    35.602797028    -0.021735560     0.052417693    -0.496769515
   44    20.111166585    24.281862326    34.886135862    -0.045956576     0.045485060    -0.495801475
   45    15.450597394    29.798569776    35.061961113    -0.010362018     0.047750515    -0.497606789
   46    18.542623805    21.477073417    32.361702458    -0.021638976     0.084162472    -0.492390529
   47    17.967087835    22.046807156    39.926467187    -0.009407688     0.022395755    -0.499409577
   48    21.172002941    23.703657023    30.847569279    -0.024818824     0.020714627    -0.498953836
   49    14.411469379    25.555815631    31.937464107     0.003742917    -0.016661663     0.499708294
   50    17.566229403    29.629901966    37.058518018    -0.001579179     0.032861122    -0.498916479
   51    20.843199506    26.063514345    30.986902903    -0.022338772     0.026244239    -0.498810805
   52    20.550652076    29.825896102    31.688081532     0.015738839     0.035981922    -0.498455204
   53    19.819878740    24.506057722    39.611094338    -0.022670968     0.024940892    -0.498862686
   54    15.978990972    22.612767010    39.922512077    -0.011110245     0.055353671    -0.496802308
   55    14.425214118    30.281076237    32.823918611    -0.005180254     0.049065467    -0.497559790
   56    17.536355651    24.273697888    39.787971324    -0.016371738     0.023145183    -0.499195620
   57    16.426022169    26.199865592    37.417739980    -0.012817234     0.038616427    -0.498341740
   58    15.298982515    20.487997407    37.208069651    -0.008978991     0.021688242    -0.499448694
   59    16.950712556    21.967027181    37.923183363    -0.012240162     0.033364199    -0.498735409
   60    20.056018475    26.646342341    39.168804612    -0.017818097     0.035213748    -0.498440074
   61    20.220895779    22.019838675    40.072214438    -0.008417284     0.050154662    -0.497406935
   62    20.052664974    27.535749137    32.506376506    -0.026305272     0.034081944    -0.498143005
   63    13.315244278    28.069380655    39.700212464    -0.008851128     0.054611650    -0.496929799
   64    14.655203762    29.391072809    30.767031303    -0.004605167     0.044415248    -0.498002087
   65    15.782149472    24.117696725    33.613983874     0.046363989    -0.025881076    -0.497172556
   66    12.180459047    26.999444175    38.207339821    -0.003426419     0.058295003    -0.496578244
   67    19.011442514    23.028348234    38.319135926    -0.027612423     0.030271087    -0.498318388
   68    12.174483320    22.558834344    35.418503858     0.001589186     0.271402175    -0.419926582
   21    23.068345721    26.772144402    34.485006603     0.015234629    -0.032693336     0.498697355
   22    30.400651391    22.155766857    36.524933323     0.036532409     0.171133354    -0.468378862
   23    30.284724973    29.683092568    37.389772954    -0.015898640     0.073429118    -0.494323172
   24    25.231515547    24.570806216    38.217884375    -0.022862100     0.038370458    -0.498001037
   25    26.510174357    20.814656499    31.502900446    -0.002835600     0.020239866    -0.499582133
   26    23.069400314    21.397034382    38.040045653     0.046554955     0.381471768     0.319862355
   27    21.734023491    23.397292859    33.328249078    -0.072096609    -0.004777262    -0.494751712
   28    28.727184209    25.836106606    31.597527943    -0.033503318     0.048808986    -0.496482840
   29    29.439814030    28.488919509    35.677042769    -0.011386634     0.074366490    -0.494307566
   30    28.209780760    29.402580889    32.374088043    -0.024059155     0.070588086    -0.494407200
   31    26.722149821    30.366331581    39.388479258    -0.030461851     0.061238205    -0.495299867
   32    28.849024710    21.017318818    38.617407761    -0.014842109     0.039326135    -0.498230034
   33    21.912248041    28.391645406    36.019625145    -0.014863116     0.064787522    -0.495561969
   34    31.509552012    23.376411367    38.737857620     0.127839669     0.412586253    -0.251852343
   35    28.881841224    27.978055632    30.914070120    -0.030844785     0.055847415    -0.495912962
   36    28.395609592    22.964815508    36.248140827     0.000803489     0.131961661    -0.482271163
   37    28.901168954    25.577695393    38.184852086    -0.028587776     0.048190074    -0.496850537
   38    26.986217143    26.494902164    34.883990832    -0.040656289     0.060375388    -0.494673507
   39    29.172723844    26.190242877    34.309516823    -0.052021129     0.053460307    -0.494404488
   40    23.939134276    29.208998625    36.856481724    -0.020164140     0.055033176    -0.496552874
   41    27.438506319    22.400903189    34.297458836    -0.009886831     0.111830724    -0.487233147
   42    21.722616599    28.842490655    33.746492887    -0.021756309     0.037059778    -0.498149813
   43    25.260427326    27.427181149    35.890883898    -0.036458019     0.057368067    -0.495358171
   44    30.200822534    24.426522538    35.174222731    -0.052435406     0.060380881    -0.493563246
   45    25.540253344    29.943229988    35.350047983    -0.018674364     0.052600144    -0.496874726
   46    28.632279755    21.621733629    32.649789328    -0.021893614     0.097676461    -0.489877514
   47    28.056743785    22.191467368    40.214554057    -0.021979499     0.038619877    -0.498021492
   48    31.261658891    23.848317235    31.135656149    -0.021499364     0.040112214    -0.497924480
   49    24.501125328    25.700475842    32.225550976     0.002145171    -0.000688555     0.499994924
   50    27.655885353    29.774562178    37.346604888    -0.011033458     0.044655776    -0.497879628
   51    30.932855456    26.208174556    31.274989773    -0.028412022     0.043297215    -0.497310877
   52    30.640308026    29.970556314    31.976168401    -0.000499518     0.059087831    -0.496496101
   53    29.909534690    24.650717933    39.899181208    -0.039044795     0.039070812    -0.496939610
   54    26.068646922    22.757427221    40.210598946    -0.023093597     0.068124573    -0.494798675
   55    24.514870068    30.425736449    33.112005480    -0.012818095     0.053736062    -0.496938761
   56    27.626011601    24.418358099    40.076058193    -0.028152826     0.036861914    -0.497843969
   57    26.515678119    26.344525803    37.705826849    -0.026485210     0.049273569    -0.496860794
   58    25.388638464    20.632657619    37.496156521    -0.017997988     0.027623278    -0.498911843
   59    27.040368505    22.111687393    38.211270233    -0.017395984     0.043461649    -0.497803641
   60    30.145674425    26.791002553    39.456891482    -0.032564116     0.050343037    -0.496392140
   61    30.310551729    22.164498887    40.360301308    -0.024727294     0.067122794    -0.494856637
   62    30.142320924    27.680409349    32.794463376    -0.035643163     0.049312499    -0.496284034
   63    23.404900228    28.214040866    39.988299333    -0.008766255     0.052409364    -0.497168393
   64    24.744859712    29.535733020    31.055118173    -0.011570251     0.046554900    -0.497693450
   65    25.871805421    24.262356936    33.902070743     0.000122115    -0.004465791    -0.499980041
   66    22.270114997    27.144104387    38.495426691    -0.002539394     0.050883904    -0.497397607
   67    29.101098464    23.173008446    38.607222795    -0.040459146     0.043025417    -0.496499618
   68    22.264139270    22.703494556    35.706590728     0.043217266     0.235714471    -0.438829074
   21    33.158001671    26.916804614    34.773093473     0.020830597    -0.048911817     0.497165687
   22    40.490307341    22.300427068    36.813020193    -0.053186999     0.206160051    -0.452403776
   23    40.374380923    29.827752780    37.677859824    -0.018652717     0.087496939    -0.491931257
   24    35.321171496    24.715466428    38.505971244    -0.035000098     0.058211497    -0.495364931
   25    36.599830306    20.959316711    31.790987315    -0.022050593     0.057717659    -0.496167757
   26    33.159056263    21.541694593    38.328132523     0.174591821     0.368140047     0.289811321
   27    31.823679441    23.541953071    33.616335948    -0.083659816     0.014845677    -0.492727756
   28    38.816840158    25.980766818    31.885614812    -0.048221207     0.066568166    -0.493197115
   29    39.529469980    28.633579720    35.965129638    -0.015372116     0.091015037    -0.491406106
   30    38.299436709    29.547241101    32.662174913    -0.034302888     0.087893655    -0.491017329
   31    36.811805771    30.510991793    39.676566128    -0.030042971     0.077508045    -0.493041502
   32    38.938680660    21.161979030    38.905494630    -0.031841160     0.069826262    -0.494075332
   33    32.001903991    28.536305617    36.307712015    -0.026526135     0.079784181    -0.492880156
   34    41.599207962    23.521071578    39.025944490    -0.152997726     0.426899714    -0.210590432
   35    38.971497174    28.122715844    31.202156989    -0.042119107     0.073864496    -0.492716975
   36    38.485265542    23.109475720    36.536227697    -0.057311714     0.161286565    -0.469789326
   37    38.990824903    25.722355604    38.472938955    -0.025447520     0.071281476    -0.494238176
   38    37.075873093    26.639562375    35.172077702    -0.043134569     0.082643760    -0.491232550
   39    39.262379794    26.334903089    34.597603692    -0.061225817     0.072034389    -0.490981106
   40    34.028790226    29.353658837    37.144568593    -0.028109684     0.071278307    -0.494094372
   41    37.528162269    22.545563401    34.585545706    -0.060739296     0.141410729    -0.475724441
   42    31.812272549    28.987150867    34.034579756    -0.032968897     0.051577060    -0.496238711
   43    35.350083276    27.571841361    36.178970767    -0.038129698     0.079622322    -0.492144706
   44    40.290478484    24.571182750    35.462309601    -0.066796873     0.076540563    -0.489570955
   45    35.629909294    30.087890199    35.638134852    -0.023431007     0.070533101    -0.494445214
   46    38.721935704    21.766393840    32.937876197    -0.066244195     0.127826388    -0.478823685
   47    38.146399734    22.336127579    40.502640927    -0.028742688     0.067093662    -0.494643607
   48    41.351314841    23.992977447    31.423743018    -0.035463041     0.067120999    -0.494203545
   49    34.590781278    25.845136054    32.513637846     0.006854248    -0.000310931     0.499952920
   50    37.745541302    29.919222390    37.634691757    -0.010451654     0.060854288    -0.496172872
   51    41.022511406    26.352834768    31.563076642    -0.036025504     0.062597265    -0.494756249
   52    40.729963976    30.115216526    32.264255271    -0.008255845     0.075934823    -0.494131302
   53    39.999190640    24.795378145    40.187268077    -0.029615953     0.066430549    -0.494681592
   54    36.158302871    22.902087433    40.498685816    -0.035218887     0.095733379    -0.489484167
   55    34.604526017    30.570396660    33.400092350    -0.019545928     0.072042453    -0.494396442
   56    37.715667550    24.563018311    40.364145063    -0.035055598     0.063704759    -0.494684555
   57    36.605334069    26.489186015    37.993913719    -0.033540815     0.070231134    -0.493905458
   58    35.478294414    20.777317830    37.784243390    -0.038743388     0.057184832    -0.495205861
   59    37.130024455    22.256347604    38.499357102    -0.039186554     0.071477205    -0.493310676
   60    40.235330374    26.935662764    39.744978351    -0.025210901     0.070162836    -0.494410343
   61    40.400207679    22.309159099    40.648388178    -0.033378536     0.095261385    -0.489705158
   62    40.231976874    27.825069560    33.082550245    -0.041176180     0.067673442    -0.493684948
   63    33.494556177    28.358701078    40.276386203    -0.020299595     0.068270256    -0.494901100
   64    34.834515662    29.680393232    31.343205042    -0.017392204     0.065394943    -0.495399851
   65    35.961461371    24.407017148    34.190157613     0.011295805     0.100591080    -0.489646647
   66    32.359770947    27.288764599    38.783513561    -0.015996821     0.066453838    -0.495305955
   67    39.190754413    23.317668658    38.895309665    -0.040925089     0.073064107    -0.492936886
   68    32.353795220    22.848154768    35.994677597     0.074084240     0.238736298    -0.433031760
   21     3.024109292    36.507917500    33.939458287     0.018593977    -0.056756825     0.496420111
   22    10.356414963    31.891539954    35.979385008    -0.028450810     0.206201834    -0.454611213
   23    10.240488544    39.418865666    36.844224639    -0.002793374     0.065997235    -0.495617354
   24     5.187279118    34.306579314    37.672336059    -0.020812134     0.051616840    -0.496892903
   25     6.465937928    30.550429597    30.957352130    -0.015651829     0.062440055    -0.495838945
   26     3.025163885    31.132807479    37.494497338    -0.158652997     0.346161611     0.324039142
   27     1.689787062    33.133065957    32.782700763    -0.060734411     0.034660367    -0.495085841
   28     8.682947780    35.571879704    31.051979627    -0.035071205     0.056131813    -0.495599869
   29     9.395577601    38.224692606    35.131494453    -0.000059587     0.071596642    -0.494847368
   30     8.165544331    39.138353987    31.828539727    -0.020127896     0.074325945    -0.494034940
   31     6.677913393    40.102104679    38.842930943    -0.020212163     0.058583206    -0.496144612
   32     8.804788281    30.753091916    38.071859445    -0.016611605     0.069198615    -0.494909695
   33     1.868011613    38.127418504    35.474076830    -0.020468995     0.085318578    -0.492241567
   34    11.465315584    33.112184464    38.192309305    -0.098185241     0.443969917    -0.207967235
   35     8.837604795    37.713828730    30.368521804    -0.028224741     0.061427416    -0.495408959
   36     8.351373164    32.700588606    35.702592511    -0.037719420     0.159456619    -0.472388433
   37     8.856932525    35.313468491    37.639303770    -0.014310782     0.055923402    -0.496656596
   38     6.941980715    36.230675261    34.338442517    -0.032316457     0.074942699    -0.493294272
   39     9.128487415    35.926015975    33.763968507    -0.048128326     0.063461325    -0.493615563
   40     3.894897847    38.944771723    36.310933408    -0.018647103     0.067186740    -0.495114358
   41     7.394269891    32.136676287    33.751910521    -0.042900450     0.139430261    -0.478245495
   42     1.678380170    38.578263753    33.200944571    -0.031003655     0.066967511    -0.494524141
   43     5.216190898    37.162954247    35.345335582    -0.027944792     0.072660172    -0.493902407
   44    10.156586106    34.162295636    34.628674415    -0.052782432     0.070199634    -0.492225585
   45     5.496016916    39.679003085    34.804499667    -0.013097071     0.063967975    -0.495718231
   46     8.588043326    31.357506726    32.104241012    -0.050530660     0.125436477    -0.481365082
   47     8.012507356    31.927240465    39.669005741    -0.016867650     0.062517812    -0.495789275
   48    11.217422462    33.584090333    30.590107833    -0.026257203     0.060034706    -0.495687798
   49     4.456888900    35.436248940    31.680002661     0.017679450    -0.009040092     0.499605558
   50     7.611648924    39.510335276    36.801056572    -0.002627818     0.042706601    -0.498165877
   51    10.888619028    35.943947654    30.729441457    -0.022306593     0.050179207    -0.496975314
   52    10.596071598    39.706329412    31.430620086     0.006688548     0.061181156    -0.496197672
   53     9.865298261    34.386491031    39.353632892    -0.020379063     0.051216667    -0.496952258
   54     6.024410493    32.493200319    39.665050631    -0.019375588     0.092561584    -0.490975498
   55     4.470633639    40.161509546    32.566457165    -0.009693016     0.067738628    -0.495295390
   56     7.581775172    34.154131197    39.530509877    -0.020697806     0.058435787    -0.496141975
   57     6.471441691    36.080298901    37.160278534    -0.020368637     0.061977990    -0.495725577
   58     5.344402036    30.368430716    36.950608205    -0.016598682     0.066039632    -0.495341550
   59     6.996132077    31.847460490    37.665721917    -0.020070611     0.075382955    -0.493877091
   60    10.101437996    36.526775650    38.911343166    -0.014771710     0.049045679    -0.497369398
   61    10.266315300    31.900271985    39.814752992    -0.023351152     0.087517001    -0.491727057
   62    10.098084496    37.416182446    32.248915060    -0.027612139     0.054722989    -0.496228742
   63     3.360663799    37.949813964    39.442751018    -0.010707713     0.069715981    -0.495000027
   64     4.700623283    39.271506118    30.509569857    -0.009743353     0.063411478    -0.495866970
   65     5.827568993    33.998130034    33.356522428     0.029979175     0.090347269    -0.490854989
   66     2.225878569    36.879877485    37.949878375    -0.005673246     0.075624163    -0.494215338
   67     9.056862035    32.908781544    38.061674480    -0.030646210     0.063950300    -0.494945622
   68     2.219902841    32.439267654    35.161042412    -0.045694379     0.288853714    -0.405555860
   21    13.113765242    36.652577711    34.227545157     0.012823837    -0.034278678     0.498658722
   22    20.446070912    32.036200166    36.267471877    -0.015275424     0.187248418    -0.463362376
   23    20.330144494    39.563525878    37.132311508    -0.002380563     0.044559080    -0.498004841
   24    15.276935068    34.451239526    37.960422929    -0.018835743     0.033757424    -0.498503411
   25    16.555593878    30.695089808    31.245439000    -0.005070861     0.036804753    -0.498617786
   26    13.114819835    31.277467691    37.782584207    -0.114079446     0.364540653     0.322639105
   27    11.779443012    33.277726168    33.070787632    -0.060960308     0.015182349    -0.496037637
   28    18.772603730    35.716539915    31.340066497    -0.036784994     0.023108199    -0.498109301
   29    19.485233551    38.369352818    35.419581323    -0.001245014     0.044615273    -0.498003943
   30    18.255200281    39.283014198    32.116626597    -0.013653090     0.041919448    -0.498052560
   31    16.767569342    40.246764891    39.131017812    -0.018301056     0.035724242    -0.498386246
   32    18.894444231    30.897752128    38.359946314    -0.013904366     0.053489230    -0.496936184
   33    11.957667562    38.272078715    35.762163699    -0.013327601     0.063128593    -0.495819681
   34    21.554971534    33.256844676    38.480396174    -0.054303659     0.442066473    -0.227218719
   35    18.927260745    37.858488942    30.656608674    -0.029244297     0.030615340    -0.498204247
   36    18.441029114    32.845248818    35.990679381    -0.027914147     0.138687629    -0.479569121
   37    18.946588475    35.458128702    37.927390640    -0.014722874     0.043664333    -0.497872135
   38    17.031636665    36.375335473    34.626529386    -0.028628251     0.051907607    -0.496473588
   39    19.218143365    36.070676187    34.052055377    -0.046081716     0.037962417    -0.496422532
   40    13.984553797    39.089431934    36.599020277    -0.015148243     0.042724391    -0.497940917
   41    17.483925841    32.281336498    34.039997390    -0.032358057     0.117520510    -0.484914308
   42    11.768036120    38.722923965    33.489031441    -0.021457834     0.048275494    -0.497201205
   43    15.305846847    37.307614458    35.633422452    -0.023667176     0.049778542    -0.496952675
   44    20.246242056    34.306955847    34.916761285    -0.050449913     0.045337905    -0.495377917
   45    15.585672865    39.823663297    35.092586537    -0.009384089     0.038179176    -0.498451893
   46    18.677699276    31.502166938    32.392327882    -0.040264921     0.102265115    -0.487771035
   47    18.102163306    32.071900677    39.957092611    -0.015091930     0.046721942    -0.497583454
   48    21.307078412    33.728750544    30.878194703    -0.024211537     0.032983142    -0.498323102
   49    14.546544850    35.580909152    31.968089530    -0.014935399    -0.002251818     0.499771811
   50    17.701304874    39.654995487    37.089143442     0.002407396     0.019080731    -0.499629993
   51    20.978274977    36.088607866    31.017528327    -0.026185152     0.018912158    -0.498955577
   52    20.685727547    39.850989623    31.718706955     0.014950348     0.025711140    -0.499114641
   53    19.954954211    34.531151243    39.641719762    -0.021349707     0.038093782    -0.498089403
   54    16.114066443    32.637860531    39.953137500    -0.019354027     0.075657311    -0.493863739
   55    14.560289589    40.306169758    32.854544034     0.000125540     0.038148685    -0.498542538
   56    17.671431122    34.298791409    39.818596747    -0.020497045     0.042164737    -0.497797154
   57    16.561097640    36.224959113    37.448365403    -0.017789163     0.044285899    -0.497717093
   58    15.434057986    30.513090928    37.238695074    -0.012848781     0.048494988    -0.497476778
   59    17.085788027    31.992120702    37.953808787    -0.016364828     0.058271105    -0.496323151
   60    20.191093946    36.671435862    39.199430036    -0.017306237     0.040330662    -0.498070208
   61    20.355971250    32.044932196    40.102839862    -0.020801181     0.072741617    -0.494242823
   62    20.187740445    37.560842658    32.537001930    -0.029359806     0.026847591    -0.498414695
   63    13.450319749    38.094474176    39.730837887    -0.002241685     0.046268048    -0.497849618
   64    14.790279233    39.416166330    30.797656726     0.002179108     0.034117322    -0.498829891
   65    15.917224943    34.142790246    33.644609297     0.002925968     0.085986336    -0.492542169
   66    12.315534518    37.024537696    38.237965245     0.001543144     0.052008525    -0.497285363
   67    19.146517985    33.053441755    38.349761349    -0.029933803     0.048808174    -0.496710911
   68    12.309558791    32.583927865    35.449129282    -0.023969212     0.280927184    -0.412922988
   21    23.203421192    36.797237923    34.515632027     0.011491363    -0.030089087     0.498961517
   22    30.535726862    32.180860378    36.555558747    -0.039305932     0.201553365    -0.455885166
   23    30.419800444    39.708186089    37.420398378    -0.006304554     0.071768639    -0.494782291
   24    25.366591018    34.595899737    38.248509798    -0.025626078     0.053524390    -0.496465954
   25    26.645249828    30.839750020    31.533525869    -0.014727041     0.053322719    -0.496930379
   26    23.204475785    31.422127903    38.070671077    -0.071904934     0.376534495     0.321016284
   27    21.869098962    33.422386380    33.358874502    -0.062458855    -0.009753519    -0.495987661
   28    28.862259680    35.861200127    31.628153366    -0.042258444     0.056678007    -0.494976593
   29    29.574889501    38.514013030    35.707668192     0.003924766     0.074330706    -0.494428501
   30    28.344856231    39.427674410    32.404713467    -0.032326295     0.068181774    -0.494273463
   31    26.857225292    40.391425102    39.419104682    -0.025163490     0.057227819    -0.496076381
   32    28.984100181    31.042412339    38.648033184    -0.021841358     0.068920997    -0.494745239
   33    22.047323512    38.416738927    36.050250569    -0.014339331     0.060242285    -0.496150431
   34    31.644627483    33.401504888    38.768483044    -0.132417719     0.432670368    -0.212748445
   35    29.016916695    38.003149153    30.944695543    -0.038322508     0.061518564    -0.494718962
   36    28.530685063    32.989909029    36.278766251    -0.046520277     0.155616865    -0.472883976
   37    29.036244425    35.602788914    38.215477509    -0.021206178     0.066812200    -0.495062045
   38    27.121292614    36.519995685    34.914616256    -0.034451029     0.073693195    -0.493338058
   39    29.307799315    36.215336398    34.340142246    -0.054497678     0.064362746    -0.492836119
   40    24.074209747    39.234092146    36.887107147    -0.015425324     0.053365945    -0.496904553
   41    27.573581790    32.425996710    34.328084260    -0.050621202     0.134867215    -0.478798839
   42    21.857692070    38.867584176    33.777118310    -0.024313888     0.028494046    -0.498594950
   43    25.395502797    37.452274670    35.921509321    -0.029363672     0.068775378    -0.494376094
   44    30.335898005    34.451616059    35.204848155    -0.058860567     0.070841206    -0.491443748
   45    25.675328815    39.968323509    35.380673406    -0.010730021     0.053211879    -0.497044628
   46    28.767355226    31.646827150    32.680414751    -0.057221974     0.120749627    -0.481814459
   47    28.191819256    32.216560889    40.245179481    -0.025378971     0.064570385    -0.495163178
   48    31.396734362    33.873410756    31.166281572    -0.031253580     0.057893502    -0.495652657
   49    24.636200799    35.725569363    32.256176400     0.006997134    -0.006766042     0.499905252
   50    27.790960824    39.799655699    37.377230311     0.004694507     0.041533904    -0.498249833
   51    31.067930927    36.233268077    31.305615196    -0.030453945     0.053350971    -0.496211881
   52    30.775383497    39.995649835    32.006793825    -0.003191179     0.058356939    -0.496572537
   53    30.044610161    34.675811454    39.929806631    -0.026263877     0.061787857    -0.495471966
   54    26.203722393    32.782520742    40.241224370    -0.026386804     0.093454746    -0.490479303
   55    24.649945539    40.450829970    33.142630904    -0.003950547     0.052015830    -0.497271301
   56    27.761087072    34.443451620    40.106683617    -0.028182125     0.061043684    -0.495458814
   57    26.650753590    36.369619324    37.736452273    -0.024492283     0.064747927    -0.495184646
   58    25.523713935    30.657751140    37.526781944    -0.020497282     0.057849503    -0.496219000
   59    27.175443976    32.136780914    38.241895656    -0.024049715     0.071321756    -0.494302355
   60    30.280749896    36.816096074    39.487516905    -0.024399732     0.065135091    -0.495138438
   61    30.445627200    32.189592408    40.390926731    -0.034032150     0.091995944    -0.490284162
   62    30.277396395    37.705502870    32.825088799    -0.035395961     0.057896037    -0.495373773
   63    23.539975699    38.239134387    40.018924757    -0.015240302     0.053272361    -0.496920304
   64    24.879935183    39.560826541    31.085743596    -0.003490445     0.044749490    -0.497981224
   65    26.006880893    34.287450457    33.932696167    -0.029822095     0.059556858    -0.495543765
   66    22.405190468    37.169197908    38.526052115    -0.006327633     0.052762366    -0.497168074
   67    29.236173935    33.198101967    38.637848219    -0.035922272     0.069478116    -0.493844492
   68    22.399214741    32.728588077    35.737216151    -0.005123201     0.263878540    -0.424666774
   21    33.293077142    36.941898135    34.803718896     0.028355123    -0.052013494     0.496478180
   22    40.625382812    32.325520589    36.843645616    -0.045588550     0.216359402    -0.448453223
   23    40.509456394    39.852846301    37.708485247    -0.016416253     0.085480197    -0.492365355
   24    35.456246967    34.740559949    38.536596668    -0.027298751     0.066962360    -0.494743186
   25    36.734905777    30.984410232    31.821612739    -0.020922079     0.071322492    -0.494444505
   26    33.294131734    31.566788114    38.358757946    -0.170409837     0.344912217     0.319368205
   27    31.958754912    33.567046592    33.646961372    -0.062410630     0.020833507    -0.495651973
   28    38.951915629    36.005860339    31.916240236    -0.039698860     0.073144978    -0.493025164
   29    39.664545451    38.658673241    35.995755062    -0.014205650     0.089671074    -0.491688212
   30    38.434512180    39.572334622    32.692800336    -0.028375755     0.090293068    -0.490960262
   31    36.946881242    40.536085314    39.707191551    -0.033086374     0.074640331    -0.493289076
   32    39.073756131    31.187072551    38.936120054    -0.022329102     0.083558093    -0.492462645
   33    32.136979462    38.561399138    36.338337439    -0.022960075     0.084649212    -0.492247241
   34    41.734283433    33.546165099    39.056569913    -0.138477191     0.437472531    -0.198599729
   35    39.106572645    38.147809365    31.232782413    -0.035304091     0.079603335    -0.492358538
   36    38.620341013    33.134569241    36.566853120    -0.052198034     0.170849710    -0.466996512
   37    39.125900374    35.747449126    38.503564379    -0.020830387     0.076613007    -0.493656300
   38    37.210948564    36.664655896    35.202703125    -0.036407491     0.089337489    -0.490605042
   39    39.397455265    36.359996610    34.628229116    -0.055013528     0.078826106    -0.490672963
   40    34.163865697    39.378752358    37.175194017    -0.027127118     0.073901792    -0.493763754
   41    37.663237740    32.570656922    34.616171130    -0.056692955     0.150883988    -0.473307438
   42    31.947348020    39.012244388    34.065205180    -0.030388372     0.057893181    -0.495706492
   43    35.485158747    37.596934882    36.209596191    -0.032339897     0.085807075    -0.491519356
   44    40.425553955    34.596276271    35.492935024    -0.059233370     0.085303675    -0.489095789
   45    35.764984765    40.112983720    35.668760276    -0.022630536     0.073149727    -0.494102192
   46    38.857011175    31.791487361    32.968501621    -0.063302085     0.137164765    -0.476632640
   47    38.281475205    32.361221100    40.533266350    -0.024714631     0.078973802    -0.493104782
   48    41.486390312    34.018070968    31.454368442    -0.028634127     0.076839739    -0.493229907
   49    34.725856749    35.870229575    32.544263269     0.027479692    -0.024173721     0.498658699
   50    37.880616773    39.944315911    37.665317181    -0.012234745     0.058541482    -0.496410320
   51    41.157586877    36.377928289    31.593702066    -0.029452236     0.068163915    -0.494455505
   52    40.865039447    40.140310047    32.294880694     0.001696522     0.077966431    -0.493880914
   53    40.134266111    34.820471666    40.217893501    -0.024642274     0.072885762    -0.494044962
   54    36.293378342    32.927180954    40.529311239    -0.022435082     0.108730034    -0.487518663
   55    34.739601488    40.595490181    33.430717773    -0.018005672     0.075937978    -0.493871663
   56    37.850743021    34.588111832    40.394770486    -0.026530923     0.075180684    -0.493603054
   57    36.740409540    36.514279536    38.024539142    -0.025968736     0.078070363    -0.493184188
   58    35.613369885    30.802411351    37.814868814    -0.020989931     0.074715556    -0.493940288
   59    37.265099926    32.281441125    38.529982526    -0.025226184     0.086977627    -0.491730141
   60    40.370405845    36.960756285    39.775603775    -0.022020787     0.072488212    -0.494227219
   61    40.535283150    32.334252620    40.679013601    -0.031424529     0.106189482    -0.487582088
   62    40.367052345    37.850163081    33.113175669    -0.035344582     0.070958081    -0.493675715
   63    33.629631649    38.383794599    40.307011627    -0.016082661     0.076048502    -0.493921019
   64    34.969591133    39.705486753    31.373830466    -0.016946052     0.069847580    -0.494807182
   65    36.096536842    34.432110669    34.220783037     0.031829792     0.103413867    -0.488152063
   66    32.494846418    37.313858120    38.814138984    -0.010184786     0.076554682    -0.493999647
   67    39.325829884    33.342762179    38.925935088    -0.035668050     0.082389049    -0.491873800
   68    32.488870691    32.873248289    36.025303021    -0.039013888     0.275445778    -0.415460636
