CRYSTAL
PRIMVEC
    40.358642790     0.578641119     1.152348021
     0.540302138    40.100392953     0.122501752
     1.147485224     0.128543006    40.047960291
PRIMCOORD
 3072    1
   21     1.758269367     6.336229727     3.811625931    -0.490657102     0.066816258    -0.069218466
   22     9.090575037     1.719852182     5.851552651     0.491315944    -0.021116086     0.090347962
   23     8.974648619     9.247177894     6.716392283     0.488035793    -0.077051272     0.076708322
   24     3.921439192     4.134891542     7.544503703     0.491525778    -0.066525787     0.063061315
   25     5.200098002     0.378741824     0.829519774     0.482991236    -0.098138048     0.084192573
   26     1.759323959     0.961119707     7.366664982    -0.162591734     0.354165410    -0.313258344
   27     0.423947137     2.961378184     2.654868407     0.493177667    -0.073088457     0.037866420
   28     7.417107854     5.400191931     0.924147271     0.492679634    -0.065176103     0.054944099
   29     8.129737675     8.053004834     5.003662097     0.484507088    -0.087459185     0.087199616
   30     6.899704405     8.966666214     1.700707371     0.489191897    -0.081217317     0.063992462
   31     5.412073467     9.930416906     8.715098586     0.488397744    -0.085824882     0.064044773
   32     7.538948355     0.581404143     7.944027089     0.484884140    -0.097988417     0.072702411
   33     0.602171687     7.955730731     5.346244474     0.489312463    -0.081894560     0.062181945
   34    10.199475658     2.940496692     8.064476948     0.420462773     0.227336767     0.146727812
   35     7.571764870     7.542140958     0.240689448     0.490023048    -0.080356799     0.058482450
   36     7.085533238     2.528900833     5.574760155     0.493541051    -0.030680789     0.073999459
   37     7.591092599     5.141780718     7.511471414     0.489237735    -0.077356189     0.068282201
   38     5.676140789     6.058987489     4.210610160     0.494254580    -0.052715462     0.054161708
   39     7.862647489     5.754328203     3.636136151     0.495764930    -0.044511079     0.047285282
   40     2.629057922     8.773083950     6.183101052     0.488469595    -0.084977932     0.064623569
   41     6.128429965     1.964988514     3.624078165     0.494590091    -0.032142368     0.065935648
   42     0.412540245     8.406575980     3.073112215     0.492632480    -0.059097174     0.061812324
   43     3.950350972     6.991266474     5.217503226     0.493482435    -0.056082513     0.057704749
   44     8.890746180     3.990607863     4.500842059     0.496129724    -0.043391408     0.044412640
   45     4.230176990     9.507315313     4.676667311     0.490076802    -0.069814012     0.070361435
   46     7.322203400     1.185818954     1.976408656     0.495349247    -0.040939061     0.054342588
   47     6.746667430     1.755552693     9.541173385     0.488305546    -0.081200426     0.070456971
   48     9.951582536     3.412402560     0.462275477     0.486169092    -0.100125311     0.060121010
   49     3.191048974     5.264561167     1.552170305    -0.495339612     0.023856787    -0.063792807
   50     6.345808998     9.338647503     6.673224216     0.486478441    -0.079970073     0.083327752
   51     9.622779102     5.772259882     0.601609101     0.490864705    -0.063982676     0.070413481
   52     9.330231672     9.534641639     1.302787729     0.484271807    -0.082280993     0.093330892
   53     8.599458335     4.214803259     9.225800536     0.488748127    -0.088560883     0.057290823
   54     4.758570567     2.321512547     9.537218274     0.484463573    -0.109316142     0.057836217
   55     3.204793713     9.989821774     2.438624809     0.486340091    -0.085535524     0.078466490
   56     6.315935246     3.982443425     9.402677521     0.489569527    -0.079544776     0.063200527
   57     5.205601765     5.908611129     7.032446177     0.491276647    -0.069391784     0.061903442
   58     4.078562110     0.196742944     6.822775849     0.485270853    -0.092506054     0.077167536
   59     5.730292151     1.675772718     7.537889561     0.487385796    -0.084161261     0.073293713
   60     8.835598070     6.355087878     8.783510810     0.488401910    -0.082922755     0.067730283
   61     9.000475374     1.728584212     9.686920636     0.490501259    -0.073478226     0.063320336
   62     8.832244570     7.244494674     2.121082704     0.491639929    -0.063866790     0.064893861
   63     2.094823873     7.778126192     9.314918662     0.486477352    -0.083546335     0.079748328
   64     3.434783357     9.099818346     0.381737501     0.487282660    -0.076434878     0.081934842
   65     4.561729067     3.826442261     3.228690072     0.445615430    -0.137221029     0.180547163
   66     0.960038643     6.708189712     7.822046019     0.485328530    -0.088452636     0.081439234
   67     7.791022109     2.737093771     7.933842124     0.489333732    -0.088035026     0.052937067
   68     0.954062916     2.267579881     5.033210056     0.498997047     0.031073774    -0.006030534
   21    11.847925316     6.480889939     4.099712801    -0.488533119     0.075459762    -0.075108026
   22    19.180230987     1.864512394     6.139639521     0.498835045    -0.025935898     0.022156871
   23    19.064304568     9.391838105     7.004479152     0.486123174    -0.086466263     0.078789880
   24    14.011095142     4.279551753     7.832590573     0.491231706    -0.068442822     0.063300797
   25    15.289753952     0.523402036     1.117606644     0.483584760    -0.099674181     0.078808869
   26    11.848979909     1.105779919     7.654751851     0.049350964     0.456290317     0.198402694
   27    10.513603086     3.106038396     2.942955276     0.493577884    -0.078202580     0.016285867
   28    17.506763804     5.544852143     1.212234141     0.492438087    -0.063711877     0.058698610
   29    18.219393625     8.197665046     5.291748967     0.482496187    -0.096033556     0.089302774
   30    16.989360355     9.111326426     1.988794241     0.488527173    -0.084140339     0.065280965
   31    15.501729417    10.075077118     9.003185456     0.486393375    -0.095933397     0.064948198
   32    17.628604305     0.726064355     8.232113958     0.485602648    -0.098902723     0.066395177
   33    10.691827637     8.100390943     5.634331343     0.487287189    -0.089150675     0.067848013
   34    20.289131608     3.085156904     8.352563818     0.424080617     0.239932293    -0.112196813
   35    17.661420819     7.686801169     0.528776317     0.489747097    -0.080013239     0.061201817
   36    17.175189188     2.673561045     5.862847025     0.497768874    -0.032436667     0.034263833
   37    17.680748549     5.286440930     7.799558284     0.488491874    -0.077886876     0.072865105
   38    15.765796739     6.203647701     4.498697030     0.493676863    -0.056300843     0.055797576
   39    17.952303439     5.898988414     3.924223021     0.495498966    -0.046173901     0.048463857
   40    12.718713871     8.917744162     6.471187921     0.486447165    -0.093321070     0.068266633
   41    16.218085915     2.109648726     3.912165034     0.497782512    -0.033642659     0.032874646
   42    10.502196194     8.551236192     3.361199084     0.490701593    -0.066107056     0.069583073
   43    14.040006922     7.135926686     5.505590095     0.492727180    -0.060682897     0.059476988
   44    18.980402130     4.135268075     4.788928929     0.495938220    -0.045778244     0.044154666
   45    14.319832940     9.651975525     4.964754181     0.488535609    -0.077921857     0.072533736
   46    17.411859350     1.330479165     2.264495525     0.497496067    -0.042082856     0.026957306
   47    16.836323380     1.900212905     9.829260255     0.488922426    -0.077949455     0.069848003
   48    20.041238486     3.557062772     0.750362347     0.486419837    -0.094937451     0.066201377
   49    13.280704924     5.409221379     1.840257174    -0.495302789     0.051180632    -0.045339717
   50    16.435464948     9.483307715     6.961311085     0.484437054    -0.090172072     0.084792325
   51    19.712435052     5.916920093     0.889695971     0.490583824    -0.062952668     0.073242562
   52    19.419887622     9.679301851     1.590874599     0.483664490    -0.084131028     0.094818940
   53    18.689114285     4.359463470     9.513887405     0.487378602    -0.088728365     0.067744930
   54    14.848226517     2.466172758     9.825305144     0.484894338    -0.108389052     0.055940097
   55    13.294449663    10.134481985     2.726711678     0.484514032    -0.094075308     0.079974927
   56    16.405591196     4.127103636     9.690764391     0.489549006    -0.079099506     0.063914307
   57    15.295257715     6.053271340     7.320533047     0.490813437    -0.071407245     0.063270649
   58    14.168218060     0.341403156     7.110862718     0.486148659    -0.099915011     0.060633913
   59    15.819948101     1.820432930     7.825976431     0.488245857    -0.088496900     0.061516517
   60    18.925254020     6.499748089     9.071597680     0.487466736    -0.083497422     0.073514368
   61    19.090131324     1.873244424     9.975007506     0.491984285    -0.066005967     0.059955611
   62    18.921900520     7.389154886     2.409169573     0.491250295    -0.064483776     0.067193681
   63    12.184479823     7.922786403     9.603005531     0.484551555    -0.092129809     0.081987129
   64    13.524439307     9.244478557     0.669824370     0.485549288    -0.085030672     0.083735740
   65    14.651385017     3.971102473     3.516776941     0.460685488    -0.171658809     0.091116050
   66    11.049694593     6.852849924     8.110132889     0.483371007    -0.096874389     0.083473480
   67    17.880678059     2.881753983     8.221928993     0.488982455    -0.088121003     0.055953981
   68    11.043718865     2.412240093     5.321296926     0.488309257     0.000019180     0.107489854
   21    21.937581266     6.625550151     4.387799670    -0.488378184     0.070688035    -0.080560230
   22    29.269886936     2.009172605     6.427726391     0.499377361     0.002021172     0.024862944
   23    29.153960518     9.536498317     7.292566022     0.486992652    -0.074354642     0.085495870
   24    24.100751092     4.424211965     8.120677442     0.491299565    -0.059827952     0.071030653
   25    25.379409902     0.668062247     1.405693513     0.486032347    -0.085714033     0.080160226
   26    21.938635859     1.250440130     7.942838721    -0.147372773     0.344230760    -0.331340383
   27    20.603259036     3.250698608     3.231042146     0.491932282    -0.076209163     0.046848626
   28    27.596419754     5.689512354     1.500321010     0.493816215    -0.053194380     0.057583881
   29    28.309049575     8.342325257     5.579835836     0.483716339    -0.082896506     0.095638236
   30    27.079016305     9.255986637     2.276881110     0.490000444    -0.072328328     0.068324061
   31    25.591385366    10.219737330     9.291272326     0.486766134    -0.089250926     0.071365277
   32    27.718260255     0.870724567     8.520200828     0.486224146    -0.088454863     0.075906633
   33    20.781483586     8.245051154     5.922418213     0.487013588    -0.087016319     0.072428761
   34    30.378787558     3.229817115     8.640650688     0.397948249     0.289246343    -0.089295823
   35    27.751076769     7.831461381     0.816863187     0.491417576    -0.069257882     0.060927099
   36    27.264845138     2.818221257     6.150933894     0.498453080    -0.011334788     0.037630435
   37    27.770404499     5.431101141     8.087645153     0.488469675    -0.071557817     0.079226610
   38    25.855452689     6.348307912     4.786783900     0.494105223    -0.047807306     0.059787042
   39    28.041959389     6.043648626     4.212309890     0.496197416    -0.036570930     0.049504455
   40    22.808369821     9.062404373     6.759274791     0.486750021    -0.087394281     0.073733690
   41    26.307741865     2.254308937     4.200251904     0.498524654    -0.013493692     0.035931735
   42    20.591852144     8.695896404     3.649285954     0.490201673    -0.066229829     0.072910421
   43    24.129662871     7.280586898     5.793676965     0.493057950    -0.052609751     0.064234511
   44    29.070058080     4.279928286     5.077015799     0.496668613    -0.035735416     0.045202536
   45    24.409488889     9.796635736     5.252841050     0.488757985    -0.070887123     0.078042601
   46    27.501515300     1.475139377     2.552582395     0.498594026    -0.023004147     0.029577135
   47    26.925979330     2.044873116    10.117347125     0.489008891    -0.068969073     0.078189329
   48    30.130894436     3.701722983     1.038449216     0.488354016    -0.086250339     0.063806227
   49    23.370360874     5.553881591     2.128344044    -0.490173384    -0.010587453    -0.098071196
   50    26.525120898     9.627967926     7.249397955     0.484892005    -0.082122428     0.090197839
   51    29.802091001     6.061580305     1.177782840     0.491884888    -0.053000402     0.072389327
   52    29.509543571     9.823962063     1.878961469     0.485126944    -0.072444190     0.096972614
   53    28.778770235     4.504123682     9.801974275     0.487376194    -0.083284274     0.074351697
   54    24.937882467     2.610832970    10.113392014     0.485570961    -0.098575430     0.067109806
   55    23.384105613    10.279142197     3.014798548     0.485336771    -0.084701995     0.085286524
   56    26.495247146     4.271763848     9.978851261     0.489625528    -0.070241878     0.073026852
   57    25.384913664     6.197931552     7.608619917     0.490964211    -0.063538563     0.070121285
   58    24.257874010     0.486063367     7.398949588     0.486026615    -0.085308131     0.080626625
   59    25.909604051     1.965093141     8.114063300     0.488375092    -0.075833349     0.075756670
   60    29.014909970     6.644408301     9.359684549     0.487566827    -0.078209788     0.078497250
   61    29.179787274     2.017904635    10.263094375     0.491887642    -0.057567128     0.068793701
   62    29.011556469     7.533815097     2.697256443     0.492412936    -0.054479101     0.067539087
   63    22.274135773     8.067446615     9.891092401     0.483812482    -0.090329551     0.088125221
   64    23.614095257     9.389138769     0.957911240     0.486201842    -0.075798865     0.088669619
   65    24.741040967     4.115762685     3.804863811     0.411181715    -0.136971927     0.249335694
   66    21.139350542     6.997510135     8.398219758     0.482550353    -0.095712960     0.089354272
   67    27.970334009     3.026414194     8.510015863     0.489637813    -0.079685797     0.062489889
   68    21.133374815     2.556900304     5.609383795     0.499979788    -0.004488547    -0.000253207
   21    32.027237216     6.770210362     4.675886540    -0.489925276     0.064486094    -0.076254626
   22    39.359542886     2.153832817     6.715813260     0.499724610     0.001601660     0.016515104
   23    39.243616468     9.681158529     7.580652891     0.489515688    -0.079958399     0.063095530
   24    34.190407042     4.568872177     8.408764312     0.493118088    -0.058451476     0.058463464
   25    35.469065852     0.812722459     1.693780383     0.486303330    -0.086290522     0.077865376
   26    32.028291809     1.395100342     8.230925590    -0.006520008     0.456789509    -0.203226066
   27    30.692914986     3.395358819     3.519129016     0.492120368    -0.074582795     0.047486318
   28    37.686075704     5.834172566     1.788407880     0.494579216    -0.054609828     0.049083253
   29    38.398705525     8.486985469     5.867922706     0.486514805    -0.088627280     0.073814293
   30    37.168672255     9.400646849     2.564967980     0.491561267    -0.073850930     0.053977415
   31    35.681041316    10.364397541     9.579359195     0.489341515    -0.087781541     0.053284919
   32    37.807916205     1.015384778     8.808287698     0.487490319    -0.089928826     0.065314589
   33    30.871139536     8.389711366     6.210505082     0.488573316    -0.081067332     0.068732833
   34    40.468443507     3.374477327     8.928737557     0.392985954     0.286745341    -0.115495237
   35    37.840732719     7.976121592     1.104950057     0.492303020    -0.070850333     0.051166067
   36    37.354501087     2.962881468     6.439020764     0.498997340    -0.010970443     0.029686762
   37    37.860060449     5.575761353     8.375732023     0.490643442    -0.069138538     0.066999070
   38    35.945108638     6.492968124     5.074870769     0.495481410    -0.045694050     0.049094059
   39    38.131615339     6.188308837     4.500396760     0.497115098    -0.035891906     0.039854109
   40    32.898025771     9.207064585     7.047361661     0.488592549    -0.084101655     0.064840056
   41    36.397397814     2.398969149     4.488338774     0.498978704    -0.013255900     0.029060875
   42    30.681508094     8.840556615     3.937372824     0.491466589    -0.057176828     0.072051385
   43    34.219318821     7.425247109     6.081763835     0.494613237    -0.050141052     0.053325611
   44    39.159714029     4.424588498     5.365102668     0.497501728    -0.034883843     0.035709218
   45    34.499144839     9.941295948     5.540927920     0.490968590    -0.067968918     0.065803266
   46    37.591171250     1.619799589     2.840669265     0.498905924    -0.023078399     0.023669945
   47    37.015635280     2.189533328    10.405433994     0.490725666    -0.070145160     0.065329756
   48    40.220550386     3.846383195     1.326536086     0.488864135    -0.087013468     0.058655898
   49    33.460016823     5.698541802     2.416430913    -0.492267229    -0.003115941    -0.087540086
   50    36.614776848     9.772628138     7.537484825     0.487820701    -0.081371352     0.073550436
   51    39.891746951     6.206240517     1.465869710     0.492919131    -0.054600320     0.063635960
   52    39.599199521     9.968622274     2.167048338     0.487214927    -0.074599304     0.084003324
   53    38.868426185     4.648783894    10.090061145     0.489514925    -0.080743031     0.062094292
   54    35.027538417     2.755493182    10.401478883     0.487228074    -0.098685871     0.053571472
   55    33.473761563    10.423802409     3.302885417     0.487841594    -0.081833369     0.072896354
   56    36.584903096     4.416424060    10.266938130     0.491381601    -0.070084480     0.060268465
   57    35.474569614     6.342591764     7.896706786     0.492816537    -0.061506325     0.057869101
   58    34.347529959     0.630723579     7.687036458     0.486974442    -0.089306054     0.069859297
   59    35.999260000     2.109753353     8.402150170     0.489646490    -0.077797224     0.064760382
   60    39.104565920     6.789068513     9.647771419     0.489790397    -0.075241089     0.066664426
   61    39.269443224     2.162564847    10.551181245     0.493612827    -0.058028793     0.054580548
   62    39.101212419     7.678475309     2.985343313     0.493552038    -0.055894308     0.057290595
   63    32.363791723     8.212106827    10.179179270     0.485217505    -0.086540239     0.084111591
   64    33.703751207     9.533798980     1.245998110     0.488693781    -0.072258399     0.077182331
   65    34.830696916     4.260422896     4.092950681     0.442741615    -0.146039298     0.180699711
   66    31.229006492     7.142170347     8.686306628     0.483555795    -0.091193189     0.088643077
   67    38.059989959     3.171074406     8.798102732     0.491067001    -0.079108654     0.050941348
   68    31.223030765     2.701560516     5.897470665     0.498960829     0.031966194     0.004031547
   21     1.893344838    16.361323248     3.842251355    -0.490923478     0.067779639    -0.066332941
   22     9.225650508    11.744945703     5.882178075     0.498165758     0.018349263     0.038654649
   23     9.109724090    19.272271415     6.747017706     0.488755711    -0.077275303     0.071738289
   24     4.056514663    14.159985063     7.575129127     0.492886964    -0.057550868     0.061240010
   25     5.335173473    10.403835345     0.860145198     0.485167032    -0.091811622     0.078635727
   26     1.894399430    10.986213228     7.397290405    -0.161028169     0.356592530    -0.311306435
   27     0.559022608    12.986471705     2.685493830     0.492763282    -0.070958133     0.046360448
   28     7.552183325    15.425285452     0.954772694     0.493849672    -0.059769009     0.050400067
   29     8.264813147    18.078098355     5.034287521     0.485589206    -0.086239980     0.082254415
   30     7.034779876    18.991759735     1.731332795     0.490541978    -0.077287647     0.058268235
   31     5.547148938    19.955510427     8.745724010     0.488778073    -0.085820044     0.061081220
   32     7.674023826    10.606497664     7.974652512     0.487786451    -0.085598144     0.068828305
   33     0.737247158    17.980824252     5.376869897     0.489063872    -0.083779270     0.061624372
   34    10.334551129    12.965590213     8.095102372     0.364408119     0.338551645    -0.050887195
   35     7.706840341    17.567234479     0.271314871     0.491139484    -0.075969245     0.054869679
   36     7.220608709    12.553994354     5.605385579     0.498008054    -0.003977610     0.044408973
   37     7.726168070    15.166874239     7.542096838     0.490398252    -0.068773711     0.069135602
   38     5.811216260    16.084081010     4.241235584     0.495137656    -0.047342009     0.050965040
   39     7.997722960    15.779421724     3.666761575     0.496630476    -0.039260329     0.042623905
   40     2.764133393    18.798177471     6.213726475     0.488761309    -0.084666683     0.062800758
   41     6.263505436    11.990082035     3.654703588     0.498164356    -0.009777577     0.041673414
   42     0.547615716    18.431669501     3.103737638     0.492176207    -0.062872259     0.061722443
   43     4.085426443    17.016359995     5.248128649     0.494344395    -0.051175049     0.054815448
   44     9.025821651    14.015701384     4.531467483     0.497058524    -0.038316293     0.038271203
   45     4.365252461    19.532408834     4.707292735     0.490667719    -0.068386755     0.067590243
   46     7.457278871    11.210912475     2.007034079     0.498325838    -0.022277562     0.034279280
   47     6.881742901    11.780646214     9.571798809     0.490854975    -0.065769302     0.068817096
   48    10.086658007    13.437496081     0.492900900     0.487960689    -0.093601791     0.055973837
   49     3.326124445    15.289654688     1.582795728    -0.497583925     0.024025934     0.042813451
   50     6.480884469    19.363741024     6.703849639     0.487044556    -0.079483658     0.080435989
   51     9.757854573    15.797353403     0.632234525     0.491953314    -0.059390231     0.066743818
   52     9.465307143    19.559735160     1.333413153     0.485852526    -0.077804772     0.088846725
   53     8.734533807    14.239896780     9.256425959     0.489494450    -0.080591940     0.062450959
   54     4.893646038    12.346606068     9.567843698     0.487612346    -0.094594683     0.057324041
   55     3.339869184    20.014915295     2.469250232     0.487328501    -0.083775699     0.074111836
   56     6.451010717    14.007536946     9.433302945     0.491431070    -0.067178478     0.063107493
   57     5.340677236    15.933704650     7.063071601     0.492531127    -0.061345661     0.060413562
   58     4.213637581    10.221836465     6.853401272     0.487742154    -0.081988560     0.073385742
   59     5.865367622    11.700866239     7.568514984     0.489934637    -0.072362846     0.068758055
   60     8.970673541    16.380181399     8.814136233     0.489294328    -0.075710340     0.069706561
   61     9.135550845    11.753677733     9.717546060     0.493507235    -0.053238183     0.060135721
   62     8.967320041    17.269588195     2.151708127     0.492771959    -0.059428414     0.060366050
   63     2.229899344    17.803219713     9.345544085     0.486275259    -0.085013144     0.079430084
   64     3.569858828    19.124911867     0.412362924     0.488225959    -0.074945441     0.077579596
   65     4.696804538    13.851535782     3.259315495     0.415525916    -0.135642215     0.242774387
   66     1.095114114    16.733283233     7.852671443     0.485012008    -0.090143511     0.081470851
   67     7.926097580    12.762187292     7.964467547     0.491181110    -0.076958887     0.053089049
   68     1.089138387    12.292673402     5.063835480     0.497857684     0.013117632    -0.044335697
   21    11.983000787    16.505983460     4.130338224    -0.489185449     0.072182707    -0.074075997
   22    19.315306458    11.889605915     6.170264945     0.498645505    -0.010697643     0.035188355
   23    19.199380039    19.416931626     7.035104576     0.486217179    -0.086485657     0.078186227
   24    14.146170613    14.304645274     7.863215996     0.490821743    -0.068581923     0.066261122
   25    15.424829423    10.548495557     1.148232067     0.483725766    -0.099156487     0.078596273
   26    11.984055380    11.130873440     7.685377275    -0.240545879     0.379937583    -0.218598063
   27    10.648678557    13.131131917     2.973580700     0.491421364    -0.086791458     0.031181491
   28    17.641839275    15.569945664     1.242859564     0.491756646    -0.068386955     0.059149178
   29    18.354469096    18.222758567     5.322374390     0.482419288    -0.096540680     0.089171341
   30    17.124435826    19.136419947     2.019419664     0.487792162    -0.087570909     0.066258150
   31    15.636804888    20.100170639     9.033810880     0.486367343    -0.093422486     0.068695320
   32    17.763679776    10.751157876     8.262739382     0.485617460    -0.095815696     0.070675563
   33    10.826903108    18.125484464     5.664956767     0.487891996    -0.086296748     0.067188327
   34    20.424207079    13.110250425     8.383189242     0.411713121     0.277592931    -0.058604358
   35    17.796496290    17.711894690     0.559401741     0.489092578    -0.084256865     0.060739036
   36    17.310264659    12.698654566     5.893472448     0.497603537    -0.024772535     0.042154969
   37    17.815824020    15.311534451     7.830183707     0.488224414    -0.078566437     0.073920474
   38    15.900872210    16.228741222     4.529322454     0.493311431    -0.057811055     0.057460542
   39    18.087378910    15.924081935     3.954848444     0.495103103    -0.049627462     0.049092084
   40    12.853789342    18.942837683     6.501813345     0.486732009    -0.091234924     0.069051718
   41    16.353161386    12.134742247     3.942790458     0.497731271    -0.027908372     0.038531869
   42    10.637271665    18.576329713     3.391824508     0.491546171    -0.062553147     0.066854061
   43    14.175082393    17.161020207     5.536215519     0.492427272    -0.061425447     0.061174306
   44    19.115477601    14.160361596     4.819554353     0.495510283    -0.049465117     0.044975125
   45    14.454908411    19.677069046     4.995379604     0.488434207    -0.076693190     0.074499528
   46    17.546934821    11.355572686     2.295120949     0.497566052    -0.037824901     0.031580061
   47    16.971398851    11.925306426     9.859885678     0.488829411    -0.077909557     0.070540118
   48    20.176313957    13.582156293     0.780987770     0.485497918    -0.099762790     0.065872279
   49    13.415780395    15.434314900     1.870882598    -0.495321054     0.049405511    -0.047075992
   50    16.570540419    19.508401236     6.991936509     0.484264679    -0.087799339     0.088198621
   51    19.847510523    15.942013614     0.920321394     0.490029723    -0.067417201     0.072978018
   52    19.554963093    19.704395372     1.621500023     0.482502133    -0.088364791     0.096867723
   53    18.824189756    14.384556991     9.544512829     0.487208413    -0.089885019     0.067443647
   54    14.983301988    12.491266279     9.855930568     0.484828862    -0.106947132     0.059188557
   55    13.429525134    20.159575507     2.757337102     0.484390432    -0.093319560     0.081592703
   56    16.540666667    14.152197157     9.721389815     0.489349830    -0.078545167     0.066086310
   57    15.430333186    16.078364861     7.351158471     0.490405839    -0.072049290     0.065658304
   58    14.303293531    10.366496677     7.141488142     0.486064752    -0.091954730     0.072700647
   59    15.955023572    11.845526451     7.856601854     0.488138315    -0.083050930     0.069451625
   60    19.060329491    16.524841611     9.102223103     0.487398528    -0.084169708     0.073199285
   61    19.225206795    11.898337945    10.005632929     0.491730915    -0.067206891     0.060695476
   62    19.056975991    17.414248407     2.439794997     0.490648644    -0.068305787     0.067810233
   63    12.319555294    17.947879924     9.633630955     0.485191271    -0.086918469     0.083872587
   64    13.659514778    19.269572078     0.700449794     0.485503909    -0.084110773     0.084919560
   65    14.786460488    13.996195994     3.547402365     0.424956550    -0.262386031    -0.023780266
   66    11.184770064    16.877943445     8.140758312     0.484230439    -0.091159657     0.084916420
   67    18.015753530    12.906847504     8.252554417     0.488944820    -0.087931383     0.056577689
   68    11.178794336    12.437333614     5.351922349     0.495895156     0.058249066     0.026363626
   21    22.072656737    16.650643672     4.418425094    -0.488092443     0.073993944    -0.079313703
   22    29.404962407    12.034266126     6.458351814     0.494239367     0.018492822     0.073385717
   23    29.289035989    19.561591838     7.323191445     0.487755257    -0.081047929     0.074337354
   24    24.235826563    14.449305486     8.151302866     0.491972504    -0.061011921     0.065119894
   25    25.514485373    10.693155768     1.436318937     0.485319602    -0.086090373     0.083984117
   26    22.073711330    11.275533651     7.973464144    -0.073280720     0.437866660    -0.230005921
   27    20.738334507    13.275792129     3.261667569     0.489926245    -0.090420256     0.042384569
   28    27.731495225    15.714605876     1.530946434     0.494177056    -0.057910885     0.049349439
   29    28.444125046    18.367418778     5.610461260     0.484654692    -0.089313147     0.084457041
   30    27.214091776    19.281080158     2.307506534     0.490569459    -0.077308681     0.058008392
   31    25.726460837    20.244830851     9.321897749     0.486992481    -0.094265257     0.062867997
   32    27.853335726    10.895818088     8.550826252     0.486498333    -0.087002828     0.075827960
   33    20.916559057    18.270144675     5.953043636     0.486864412    -0.090424692     0.069183949
   34    30.513863029    13.254910636     8.671276111     0.365467754     0.332159748     0.078123125
   35    27.886152240    17.856554902     0.847488611     0.491619812    -0.074241746     0.052897289
   36    27.399920609    12.843314778     6.181559318     0.495845091    -0.003652852     0.064220734
   37    27.905479970    15.456194662     8.118270577     0.489583246    -0.072989469     0.070574658
   38    25.990528160    16.373401433     4.817409323     0.494619166    -0.049757692     0.053628840
   39    28.177034860    16.068742147     4.242935314     0.496624281    -0.038627054     0.043269779
   40    22.943445292    19.087497894     6.789900215     0.486863617    -0.091495801     0.067766779
   41    26.442817336    12.279402459     4.230877327     0.496639079    -0.008231942     0.057287523
   42    20.726927615    18.720989925     3.679911378     0.489881323    -0.069509707     0.072004792
   43    24.264738342    17.305680419     5.824302389     0.493580020    -0.054914185     0.057993069
   44    29.205133551    14.305021807     5.107641222     0.497106275    -0.036335084     0.039561514
   45    24.544564360    19.821729257     5.283466474     0.489199023    -0.074996208     0.071132863
   46    27.636590771    11.500232898     2.583207819     0.497368674    -0.019421078     0.047404896
   47    27.061054801    12.069966637    10.147972548     0.488927757    -0.069075191     0.078601946
   48    30.265969907    13.726816504     1.069074640     0.488743466    -0.090806162     0.053703493
   49    23.505436345    15.578975112     2.158969467    -0.477528366    -0.024053667    -0.146246642
   50    26.660196369    19.653061447     7.280023379     0.485348247    -0.087707848     0.082124372
   51    29.937166472    16.086673826     1.208408264     0.492338875    -0.057761208     0.065315194
   52    29.644619042    19.849055584     1.909586892     0.486136250    -0.077698508     0.087375560
   53    28.913845706    14.529217203     9.832599699     0.488947358    -0.084302860     0.061834526
   54    25.072957938    12.635926491    10.144017437     0.486028621    -0.098314972     0.064111977
   55    23.519181084    20.304235718     3.045423971     0.485782389    -0.089898921     0.077030220
   56    26.630322617    14.296857369    10.009476684     0.490176668    -0.070682027     0.068781429
   57    25.519989135    16.223025073     7.639245340     0.491673529    -0.064863641     0.063638428
   58    24.392949481    10.511156888     7.429575012     0.485927115    -0.087041877     0.079363406
   59    26.044679522    11.990186662     8.144688724     0.488422891    -0.075700095     0.075581578
   60    29.149985441    16.669501822     9.390309973     0.488525770    -0.080329499     0.069926700
   61    29.314862745    12.042998156    10.293719799     0.491216221    -0.057929050     0.073149502
   62    29.146631940    17.558908618     2.727881867     0.492847499    -0.058752522     0.060410957
   63    22.409211244    18.092540136     9.921717824     0.484048502    -0.092679548     0.084306283
   64    23.749170728    19.414232290     0.988536664     0.486678464    -0.081107238     0.081028940
   65    24.876116438    14.140856206     3.835489234     0.435058795    -0.235331296     0.073096008
   66    21.274426013    17.022603656     8.428845182     0.482598701    -0.097539072     0.087089741
   67    28.105409480    13.051507715     8.540641286     0.490371294    -0.079367063     0.056893437
   68    21.268450286    12.581993825     5.640009219     0.499229104     0.018625120     0.020576841
   21    32.162312687    16.795303883     4.706511964    -0.490296380     0.069001740    -0.069629156
   22    39.494618357    12.178926338     6.746438684     0.499760625    -0.010916670    -0.010961030
   23    39.378691939    19.706252050     7.611278315     0.487359873    -0.087955501     0.068878040
   24    34.325482513    14.593965698     8.439389735     0.493060482    -0.060281771     0.057074244
   25    35.604141323    10.837815980     1.724405806     0.487649189    -0.087136189     0.067864226
   26    32.163367280    11.420193863     8.261551014    -0.245345935     0.435657292    -0.002845387
   27    30.827990457    13.420452340     3.549754439     0.492727922    -0.083274906     0.016866674
   28    37.821151175    15.859266087     1.819033303     0.494340905    -0.057647638     0.047998118
   29    38.533780996    18.512078990     5.898548129     0.484193449    -0.096804603     0.078648415
   30    37.303747726    19.425740370     2.595593404     0.490373167    -0.080185373     0.055717708
   31    35.816116787    20.389491062     9.609984619     0.486927922    -0.095894302     0.060872668
   32    37.942991676    11.040478299     8.838913121     0.488704759    -0.087328359     0.059509804
   33    31.006215007    18.414804887     6.241130506     0.488312805    -0.086259162     0.064108979
   34    40.603518978    13.399570848     8.959362981     0.389214492     0.258044935    -0.178675379
   35    37.975808190    18.001215114     1.135575480     0.491789847    -0.074864243     0.050379475
   36    37.489576558    12.987974989     6.469646188     0.499568241    -0.018052277     0.010280448
   37    37.995135920    15.600854874     8.406357446     0.490442498    -0.070561352     0.066986949
   38    36.080184109    16.518061645     5.105496193     0.495102103    -0.050155330     0.048562855
   39    38.266690810    16.213402359     4.531022183     0.496922207    -0.039910474     0.038411905
   40    33.033101242    19.232158106     7.077987084     0.487553337    -0.090508773     0.064030505
   41    36.532473285    12.424062670     4.518964197     0.499567716    -0.018324495     0.009813747
   42    30.816583565    18.865650136     3.967998247     0.491801798    -0.062197822     0.065287228
   43    34.354394292    17.450340630     6.112389258     0.494167382    -0.054717248     0.052958677
   44    39.294789500    14.449682019     5.395728092     0.497351778    -0.039048627     0.033412777
   45    34.634220310    19.966389469     5.571553343     0.489714232    -0.074992577     0.067498773
   46    37.726246721    11.644893110     2.871294688     0.499183588    -0.027882181     0.006191046
   47    37.150710751    12.214626849    10.436059418     0.491411316    -0.067488637     0.062930139
   48    40.355625857    13.871476716     1.357161509     0.489473154    -0.085913283     0.055090279
   49    33.595092294    15.723635323     2.447056337    -0.499444485    -0.020892643     0.010895147
   50    36.749852319    19.797721659     7.568110248     0.485235495    -0.089675638     0.080652304
   51    40.026822422    16.231334038     1.496495133     0.492705070    -0.058032470     0.062241035
   52    39.734274992    19.993715795     2.197673762     0.485935196    -0.079505180     0.086867205
   53    39.003501656    14.673877415    10.120686568     0.489423892    -0.080561413     0.063040567
   54    35.162613888    12.780586703    10.432104307     0.487966568    -0.096197747     0.051328568
   55    33.608837034    20.448895930     3.333510841     0.486256632    -0.089957333     0.073906469
   56    36.719978567    14.441517581    10.297563554     0.491821894    -0.068815391     0.058100486
   57    35.609645085    16.367685285     7.927332210     0.492613483    -0.063822876     0.057084124
   58    34.482605430    10.655817100     7.717661881     0.489269182    -0.084606978     0.058799040
   59    36.134335471    12.134846874     8.432775593     0.491095437    -0.075064288     0.056485611
   60    39.239641391    16.814162034     9.678396842     0.489383089    -0.077301576     0.067295310
   61    39.404518695    12.187658368    10.581806669     0.494264099    -0.054881646     0.051874902
   62    39.236287890    17.703568830     3.015968736     0.493117591    -0.060026621     0.056849327
   63    32.498867194    18.237200348    10.209804694     0.485070160    -0.090236823     0.081020094
   64    33.838826678    19.558892502     1.276623533     0.487366266    -0.080458003     0.077463750
   65    34.965772388    14.285516417     4.123576104     0.432387215     0.171938234    -0.182971418
   66    31.364081963    17.167263868     8.716932052     0.483920450    -0.094451376     0.083065849
   67    38.195065430    13.196167927     8.828728156     0.491395028    -0.078351049     0.048908476
   68    31.358106236    12.726654037     5.928096088     0.490084838     0.056524181     0.081374862
   21     2.028420309    26.386416769     3.872876778    -0.489235085     0.070706665    -0.075163816
   22     9.360725979    21.770039224     5.912803499     0.499773096     0.005423487     0.014051292
   23     9.244799561    29.297364936     6.777643130     0.487478019    -0.082081011     0.075019253
   24     4.191590134    24.185078584     7.605754550     0.492692480    -0.058554399     0.061850647
   25     5.470248944    20.428928866     0.890770621     0.486649631    -0.089285500     0.072112666
   26     2.029474901    21.011306749     7.427915829    -0.132381296     0.395677343    -0.275526102
   27     0.694098079    23.011565226     2.716119254     0.492284943    -0.078424878     0.038795271
   28     7.687258796    25.450378973     0.985398118     0.493736229    -0.057392171     0.054135710
   29     8.399888618    28.103191876     5.064912944     0.484222561    -0.090428258     0.085739381
   30     7.169855347    29.016853256     1.761958218     0.489779748    -0.077858683     0.063669649
   31     5.682224409    29.980603948     8.776349434     0.487036405    -0.094521131     0.062139324
   32     7.809099297    20.631591185     8.005277936     0.488150162    -0.085678184     0.066095903
   33     0.872322629    28.005917773     5.407495321     0.487753326    -0.087587069     0.066522166
   34    10.469626600    22.990683734     8.125727796     0.386176913     0.292463916    -0.123823461
   35     7.841915812    27.592328000     0.301940295     0.491143584    -0.073939132     0.057541155
   36     7.355684180    22.579087875     5.636011002     0.499154135    -0.009438639     0.027496575
   37     7.861243541    25.191967760     7.572722261     0.489892392    -0.071155111     0.070302164
   38     5.946291731    26.109174531     4.271861008     0.494676185    -0.048881290     0.053908179
   39     8.132798432    25.804515245     3.697386998     0.496490536    -0.038971489     0.044478879
   40     2.899208864    28.823270992     6.244351899     0.487297504    -0.089910646     0.066762400
   41     6.398580907    22.015175556     3.685329012     0.499238722    -0.012720539     0.024472158
   42     0.682691187    28.456763022     3.134363062     0.491221544    -0.065406783     0.066508255
   43     4.220501914    27.041453516     5.278754073     0.493741993    -0.053719855     0.057732326
   44     9.160897122    24.040794905     4.562092906     0.496996451    -0.038050992     0.039327471
   45     4.500327932    29.557502355     4.737918158     0.489412544    -0.073633572     0.071087686
   46     7.592354342    21.236005996     2.037659503     0.499058584    -0.023654341     0.019519279
   47     7.016818372    21.805739735     9.602424232     0.491107251    -0.066580350     0.066187046
   48    10.221733479    23.462589602     0.523526324     0.488478638    -0.088713886     0.059316668
   49     3.461199916    25.314748209     1.613421152    -0.477782855     0.009622628    -0.147074635
   50     6.615959940    29.388834545     6.734475063     0.485387367    -0.088051792     0.081522914
   51     9.892930044    25.822446924     0.662859948     0.491902050    -0.057255441     0.068950615
   52     9.600382614    29.584828681     1.364038577     0.484966899    -0.077971645     0.093421248
   53     8.869609278    24.264990301     9.287051383     0.488984388    -0.081826625     0.064797161
   54     5.028721509    22.371699589     9.598469122     0.487986332    -0.094108655     0.054889895
   55     3.474944655    30.040008816     2.499875656     0.485637488    -0.088623836     0.079385430
   56     6.586086188    24.032630467     9.463928369     0.491510779    -0.067633955     0.061990340
   57     5.475752707    25.958798171     7.093697025     0.492214267    -0.062696055     0.061598055
   58     4.348713052    20.246929986     6.884026696     0.488123601    -0.082797613     0.069856317
   59     6.000443093    21.725959760     7.599140408     0.490344052    -0.072739949     0.065357555
   60     9.105749012    26.405274920     8.844761657     0.488680741    -0.079188485     0.070144975
   61     9.270626317    21.778771254     9.748171483     0.493816847    -0.055099335     0.055758268
   62     9.102395512    27.294681716     2.182333551     0.492520214    -0.058647497     0.063121389
   63     2.364974815    27.828313234     9.376169509     0.483734025    -0.094770531     0.083785078
   64     3.704934300    29.150005388     0.442988348     0.486612210    -0.079619089     0.082881588
   65     4.831880009    23.876629303     3.289940919     0.181669358    -0.071826127    -0.460257810
   66     1.230189585    26.758376754     7.883296866     0.482414522    -0.098707691     0.086792979
   67     8.061173051    22.787280813     7.995092971     0.491126378    -0.077661947     0.052569026
   68     1.224213858    22.317766923     5.094460903     0.499501828    -0.007754212    -0.020923571
   21    12.118076258    26.531076981     4.160963648    -0.489359018     0.069868920    -0.075140439
   22    19.450381929    21.914699436     6.200890368     0.499304350    -0.012548724     0.023188259
   23    19.334455510    29.442025147     7.065729999     0.486556548    -0.083816440     0.078978035
   24    14.281246084    24.329738795     7.893841420     0.491074933    -0.066758423     0.066247435
   25    15.559904894    20.573589078     1.178857491     0.483119599    -0.099855826     0.081389602
   26    12.119130851    21.155966961     7.716002698    -0.154173687     0.337722542    -0.334923811
   27    10.783754028    23.156225438     3.004206123     0.491776277    -0.079334487     0.043152439
   28    17.776914746    25.595039185     1.273484988     0.493087762    -0.066449772     0.049486224
   29    18.489544567    28.247852088     5.352999814     0.483164925    -0.093456023     0.088417344
   30    17.259511297    29.161513468     2.050045088     0.489219097    -0.082727459     0.061812962
   31    15.771880359    30.125264160     9.064436303     0.486566291    -0.092820449     0.068099993
   32    17.898755247    20.776251397     8.293364805     0.485638931    -0.093852765     0.073119679
   33    10.961978579    28.150577985     5.695582190     0.487886477    -0.085713399     0.067970572
   34    20.559282550    23.135343946     8.413814665     0.405335349     0.274884022    -0.100707641
   35    17.931571761    27.736988211     0.590027165     0.490267593    -0.081877681     0.054163943
   36    17.445340130    22.723748087     5.924097872     0.498049473    -0.026086087     0.035584250
   37    17.950899491    25.336627972     7.860809131     0.488204851    -0.077413478     0.075254079
   38    16.035947681    26.253834743     4.559947877     0.493922633    -0.056421015     0.053451859
   39    18.222454381    25.949175456     3.985473868     0.495743898    -0.049015291     0.042842603
   40    12.988864813    28.967931204     6.532438768     0.487082930    -0.089434748     0.068932178
   41    16.488236857    22.159835768     3.973415881     0.497868556    -0.029782031     0.035212662
   42    10.772347136    28.601423234     3.422449932     0.491367111    -0.062037083     0.068627710
   43    14.310157864    27.186113728     5.566840943     0.493007120    -0.059603977     0.058235259
   44    19.250553072    24.185455117     4.850179776     0.496073495    -0.049402075     0.038347396
   45    14.589983882    29.702162567     5.026005028     0.489035287    -0.074155176     0.073112911
   46    17.682010292    21.380666207     2.325746373     0.497499290    -0.040139446     0.029720042
   47    17.106474322    21.950399947     9.890511102     0.489074779    -0.073293113     0.073715536
   48    20.311389428    23.607249814     0.811613194     0.486976685    -0.101915702     0.049667878
   49    13.550855866    25.459408421     1.901508021    -0.493619492     0.020582423    -0.076916583
   50    16.705615890    29.533494757     7.022561933     0.484709420    -0.086704391     0.086828145
   51    19.982585994    25.967107135     0.950946818     0.491187128    -0.066363409     0.065811117
   52    19.690038564    29.729488893     1.652125446     0.484527840    -0.083783908     0.090625762
   53    18.959265227    24.409650512     9.575138253     0.487131134    -0.087850836     0.070607994
   54    15.118377459    22.516359800     9.886555991     0.485089034    -0.104218535     0.061863773
   55    13.564600605    30.184669028     2.787962525     0.485709915    -0.087606369     0.080068739
   56    16.675742138    24.177290678     9.752015238     0.489472855    -0.075428302     0.068752419
   57    15.565408657    26.103458382     7.381783894     0.490716584    -0.070468058     0.065049884
   58    14.438369002    20.391590198     7.172113565     0.485731410    -0.089189311     0.078168177
   59    16.090099043    21.870619972     7.887227278     0.487981990    -0.081011238     0.072874939
   60    19.195404962    26.549935132     9.132848527     0.487144200    -0.083652797     0.075450236
   61    19.360282266    21.923431466    10.036258353     0.492128006    -0.061623119     0.063345224
   62    19.192051462    27.439341928     2.470420421     0.491686355    -0.067137153     0.061132079
   63    12.454630765    27.972973445     9.664256378     0.484798067    -0.087998080     0.085012775
   64    13.794590249    29.294665599     0.731075218     0.486765459    -0.077963354     0.083552998
   65    14.921535959    24.021289515     3.578027788     0.389730422    -0.167184641     0.264876375
   66    11.319845535    26.903036966     8.171383736     0.483714591    -0.092804519     0.086066928
   67    18.150829001    22.931941025     8.283179840     0.489055319    -0.085535123     0.059233752
   68    11.313869807    22.462427135     5.382547773     0.498567757     0.036578548    -0.009602149
   21    22.207732208    26.675737193     4.449050518    -0.489162998     0.077228896    -0.068958385
   22    29.540037878    22.059359647     6.488977238     0.498386261     0.009126193     0.039087686
   23    29.424111460    29.586685359     7.353816869     0.486780226    -0.093897983     0.065024457
   24    24.370902034    24.474399007     8.181928289     0.491947154    -0.068242046     0.057714996
   25    25.649560844    20.718249289     1.466944360     0.486360632    -0.092072184     0.070541110
   26    22.208786801    21.300627172     8.004089568    -0.018705126     0.422279320    -0.267077318
   27    20.873409978    23.300885650     3.292292993     0.490359010    -0.090706175     0.036337742
   28    27.866570696    25.739699397     1.561571857     0.494186857    -0.062979690     0.042578270
   29    28.579200517    28.392512299     5.641086683     0.483710853    -0.102348229     0.074489268
   30    27.349167247    29.306173679     2.338131958     0.490346539    -0.082499147     0.052480119
   31    25.861536308    30.269924372     9.352523173     0.485915527    -0.103023028     0.057204515
   32    27.988411197    20.920911609     8.581451675     0.486696289    -0.093209409     0.066623785
   33    21.051634528    28.295238196     5.983669060     0.487069855    -0.092777072     0.064462173
   34    30.648938500    23.280004157     8.701901535     0.384597022     0.317418589    -0.036476984
   35    28.021227711    27.881648423     0.878114034     0.491550719    -0.079117580     0.046024987
   36    27.534996080    22.868408299     6.212184742     0.498169767    -0.011046210     0.041290011
   37    28.040555441    25.481288183     8.148896000     0.489108500    -0.080127303     0.065973408
   38    26.125603631    26.398494954     4.848034747     0.494719490    -0.056517210     0.045369934
   39    28.312110331    26.093835668     4.273560737     0.496699623    -0.045519338     0.034892319
   40    23.078520763    29.112591416     6.820525638     0.486501133    -0.096664595     0.063028596
   41    26.577892807    22.304495980     4.261502751     0.498359652    -0.015024048     0.037575723
   42    20.862003086    28.746083446     3.710536801     0.490673084    -0.069596490     0.066304247
   43    24.399813813    27.330773940     5.854927812     0.493643803    -0.061580678     0.050235605
   44    29.340209022    24.330115329     5.138266646     0.497159976    -0.043888976     0.030095124
   45    24.679639831    29.846822778     5.314091897     0.489020623    -0.080987294     0.065573533
   46    27.771666242    21.525326419     2.613833242     0.498492990    -0.025804701     0.028963022
   47    27.196130272    22.095060158    10.178597972     0.489679476    -0.076454245     0.066096590
   48    30.401045378    23.751910026     1.099700063     0.488781915    -0.094586230     0.046321530
   49    23.640511816    25.604068633     2.189594891    -0.499804558     0.004533650     0.013223090
   50    26.795271840    29.678154968     7.310648802     0.484448324    -0.096709307     0.077182455
   51    30.072241943    26.111767347     1.239033687     0.492518701    -0.063474579     0.058277846
   52    29.779694513    29.874149105     1.940212316     0.486036126    -0.082703023     0.083241182
   53    29.048921177    24.554310724     9.863225122     0.487966023    -0.091662222     0.059052496
   54    25.208033409    22.661020012    10.174642861     0.485842453    -0.105237710     0.053685522
   55    23.654256555    30.329329239     3.076049395     0.485764933    -0.093272215     0.073025502
   56    26.765398088    24.321950890    10.040102108     0.490266611    -0.077679783     0.060037501
   57    25.655064606    26.248118594     7.669870764     0.491583681    -0.071863111     0.056401933
   58    24.528024952    20.536250409     7.460200435     0.486149954    -0.091632137     0.072538083
   59    26.179754993    22.015280183     8.175314147     0.488831594    -0.080951929     0.067010881
   60    29.285060912    26.694595343     9.420935396     0.487899091    -0.087614503     0.065407770
   61    29.449938216    22.068091677    10.324345223     0.492394508    -0.065721495     0.056818425
   62    29.281707411    27.584002139     2.758507290     0.492773428    -0.065534424     0.053661791
   63    22.544286715    28.117633657     9.952343248     0.483573482    -0.096271703     0.082996667
   64    23.884246199    29.439325811     1.019162087     0.486889758    -0.083739337     0.076981085
   65    25.011191909    24.165949727     3.866114658     0.349763377    -0.194699793     0.299595678
   66    21.409501484    27.047697177     8.459470606     0.482281590    -0.099779139     0.086305224
   67    28.240484951    23.076601236     8.571266710     0.489924815    -0.086558881     0.049812007
   68    21.403525757    22.607087346     5.670634642     0.499715728     0.016786820     0.001547261
   21    32.297388158    26.820397404     4.737137387    -0.489338943     0.076355238    -0.068682429
   22    39.629693828    22.204019859     6.777064107     0.499145966    -0.028388107     0.006886246
   23    39.513767410    29.731345571     7.641903738     0.487636114    -0.080354087     0.075856713
   24    34.460557984    24.619059219     8.470015159     0.491378935    -0.068015257     0.062615228
   25    35.739216794    20.862909501     1.755031230     0.485665779    -0.094922874     0.071542986
   26    32.298442751    21.445287384     8.292176437    -0.148152536     0.424590534    -0.218571966
   27    30.963065928    23.445545861     3.580379863     0.491663288    -0.089446641     0.016325124
   28    37.956226646    25.884359608     1.849658727     0.493675859    -0.064012816     0.046760091
   29    38.668856467    28.537172511     5.929173553     0.484350708    -0.089893213     0.085578045
   30    37.438823197    29.450833891     2.626218827     0.489895756    -0.080849228     0.058868928
   31    35.951192258    30.414584583     9.640610042     0.486974359    -0.092602171     0.065427911
   32    38.078067147    21.065571820     8.869538545     0.486301200    -0.095819175     0.065801432
   33    31.141290478    28.439898408     6.271755930     0.487751887    -0.091649093     0.060815626
   34    40.738594449    23.424664369     8.989988404     0.417232212     0.235411351    -0.143173938
   35    38.110883661    28.026308635     1.166200904     0.490952302    -0.079419542     0.051559421
   36    37.624652029    23.013068510     6.500271611     0.498284752    -0.033929055     0.023688079
   37    38.130211391    25.625948395     8.436982870     0.488283786    -0.078795706     0.073281516
   38    36.215259580    26.543155166     5.136121616     0.494276625    -0.056184827     0.050337691
   39    38.401766281    26.238495880     4.561647607     0.496164290    -0.046852641     0.040321555
   40    33.168176713    29.257251627     7.108612508     0.487263106    -0.092333723     0.063632923
   41    36.667548756    22.449156191     4.549589621     0.498206170    -0.034845717     0.024008083
   42    30.951659036    28.890743657     3.998623671     0.491536568    -0.069523315     0.059651580
   43    34.489469763    27.475434151     6.143014682     0.493343036    -0.060147671     0.054725743
   44    39.429864971    24.474775540     5.426353515     0.496485787    -0.047340480     0.035506929
   45    34.769295781    29.991482990     5.602178767     0.489382309    -0.075905621     0.068871567
   46    37.861322192    21.669986631     2.901920112     0.497818381    -0.042577919     0.019078273
   47    37.285786222    22.239720370    10.466684841     0.489313229    -0.077074748     0.068059143
   48    40.490701328    23.896570237     1.387786933     0.487770119    -0.099481979     0.046729510
   49    33.730167765    25.748728844     2.477681760    -0.483830686     0.008713598    -0.125825040
   50    36.884927790    29.822815180     7.598735672     0.485214259    -0.086436826     0.084236557
   51    40.161897893    26.256427559     1.527120557     0.491862787    -0.063303793     0.063746595
   52    39.869350463    30.018809316     2.228299185     0.485149535    -0.081636911     0.089248772
   53    39.138577127    24.698970936    10.151311992     0.487096093    -0.089112103     0.069256255
   54    35.297689359    22.805680224    10.462729730     0.485274653    -0.106487050     0.056294045
   55    33.743912505    30.473989451     3.364136264     0.486046379    -0.089741893     0.075533503
   56    36.855054038    24.466611102    10.328188977     0.489723435    -0.077900831     0.064050116
   57    35.744720556    26.392778806     7.957957633     0.490989873    -0.071504140     0.061774613
   58    34.617680902    20.680910621     7.748287305     0.486598218    -0.092272922     0.068614008
   59    36.269410942    22.159940395     8.463401017     0.488688007    -0.083662600     0.064688496
   60    39.374716862    26.839255555     9.709022266     0.487190218    -0.085212649     0.073379126
   61    39.539594166    22.212751889    10.612432092     0.492278587    -0.066330555     0.057114362
   62    39.371363361    27.728662351     3.046594160     0.492292304    -0.064080917     0.059514060
   63    32.633942665    28.262293869    10.240430118     0.484211432    -0.095152112     0.080531764
   64    33.973902149    29.583986023     1.307248957     0.487184674    -0.080299991     0.078759160
   65    35.100847859    24.310609938     4.154201528     0.345784210    -0.212417358     0.292082431
   66    31.499157434    27.192357389     8.747557475     0.483052531    -0.100194735     0.081371171
   67    38.330140901    23.221261448     8.859353579     0.489158808    -0.087641081     0.055160692
   68    31.493181707    22.751747558     5.958721512     0.496974339     0.045651549     0.030535915
   21     2.163495780    36.411510290     3.903502202    -0.489039449     0.073959836    -0.073282738
   22     9.495801450    31.795132745     5.943428922     0.498865139     0.006082351     0.033114617
   23     9.379875032    39.322458457     6.808268553     0.483942295    -0.090670735     0.087055573
   24     4.326665605    34.210172105     7.636379974     0.491198177    -0.069177508     0.062760043
   25     5.605324415    30.454022387     0.921396045     0.484806088    -0.092423858     0.080130439
   26     2.164550372    31.036400270     7.458541252    -0.191690453     0.399562447    -0.231526718
   27     0.829173550    33.036658747     2.746744677     0.490561578    -0.089088684     0.037583837
   28     7.822334267    35.475472494     1.016023542     0.491696017    -0.067699727     0.060429911
   29     8.534964089    38.128285397     5.095538368     0.480144714    -0.100141229     0.097122541
   30     7.304930818    39.041946777     1.792583642     0.487315746    -0.086940189     0.070461107
   31     5.817299880    40.005697469     8.806974857     0.485709696    -0.097641222     0.067470611
   32     7.944174769    30.656684706     8.035903359     0.486474708    -0.094139156     0.066934128
   33     1.007398100    38.031011294     5.438120744     0.487478501    -0.089011288     0.066646092
   34    10.604702071    33.015777255     8.156353219     0.378397182     0.320726344    -0.062850494
   35     7.976991283    37.617421521     0.332565719     0.488830068    -0.083852953     0.063354930
   36     7.490759651    32.604181396     5.666636426     0.498111915    -0.014808439     0.040807232
   37     7.996319012    35.217061281     7.603347685     0.488293521    -0.081894809     0.069732900
   38     6.081367202    36.134268052     4.302486431     0.493548219    -0.057441470     0.055773050
   39     8.267873903    35.829608766     3.728012422     0.495244900    -0.048865835     0.048421271
   40     3.034284335    38.848364513     6.274977322     0.486374223    -0.093504715     0.068534544
   41     6.533656378    32.040269077     3.715954435     0.498173087    -0.019957473     0.037752805
   42     0.817766658    38.481856543     3.164988486     0.491230246    -0.064511684     0.067313360
   43     4.355577385    37.066547037     5.309379497     0.492626975    -0.061466671     0.059502202
   44     9.295972593    34.065888426     4.592718330     0.495782392    -0.047920697     0.043628277
   45     4.635403403    39.582595876     4.768543582     0.488256475    -0.078178463     0.074119782
   46     7.727429813    31.261099517     2.068284927     0.498096058    -0.030192679     0.031443912
   47     7.151893843    31.830833256     9.633049656     0.489381147    -0.077986594     0.066514544
   48    10.356808950    33.487683123     0.554151748     0.485831402    -0.098067350     0.065959413
   49     3.596275387    35.339841730     1.644046575    -0.496211614     0.054188670    -0.028941709
   50     6.751035411    39.413928066     6.765100486     0.483912309    -0.091257442     0.086608059
   51    10.028005515    35.847540445     0.693485372     0.489771451    -0.067333159     0.074767450
   52     9.735458085    39.609922202     1.394664000     0.482460648    -0.086636587     0.098619597
   53     9.004684749    34.290083822     9.317676806     0.487133623    -0.093827243     0.062428216
   54     5.163796980    32.396793110     9.629094545     0.485312225    -0.107270939     0.054451721
   55     3.610020126    40.065102337     2.530501079     0.484149800    -0.093214086     0.083127043
   56     6.721161659    34.057723988     9.494553792     0.489791985    -0.079341391     0.061715111
   57     5.610828178    35.983891692     7.124322448     0.490726159    -0.072871781     0.062269897
   58     4.483788523    30.272023507     6.914652119     0.486705514    -0.090086338     0.070726193
   59     6.135518564    31.751053281     7.629765832     0.488851055    -0.081179706     0.066592053
   60     9.240824483    36.430368441     8.875387081     0.487038746    -0.089191284     0.069556986
   61     9.405701788    31.803864775     9.778796907     0.492209237    -0.067113781     0.056796196
   62     9.237470983    37.319775237     2.212958975     0.490399198    -0.068571089     0.069329884
   63     2.500050287    37.853406755     9.406794932     0.484223674    -0.094100640     0.081685389
   64     3.840009771    39.175098909     0.473613771     0.485201083    -0.083871890     0.086864348
   65     4.966955480    33.901722824     3.320566342     0.079102673    -0.487695214    -0.076786364
   66     1.365265056    36.783470275     7.913922290     0.483129454    -0.097532256     0.084103445
   67     8.196248522    32.812374334     8.025718394     0.489349928    -0.088543889     0.051929065
   68     1.359289329    32.342860444     5.125086327     0.497054969     0.052316880     0.014117417
   21    12.253151729    36.556170502     4.191589072    -0.487416053     0.078460051    -0.079180880
   22    19.585457400    31.939792957     6.231515792     0.497806786     0.005636814     0.046439531
   23    19.469530981    39.467118668     7.096355423     0.486138027    -0.090218865     0.074366490
   24    14.416321555    34.354832316     7.924466843     0.491046988    -0.065554904     0.067641776
   25    15.694980365    30.598682599     1.209482914     0.484961988    -0.092291325     0.079335880
   26    12.254206322    31.181060482     7.746628122    -0.156002910     0.408828719    -0.241913560
   27    10.918829499    33.181318959     3.034831547     0.489224266    -0.094652441     0.041237522
   28    17.911990217    35.620132706     1.304110411     0.492728164    -0.062232189     0.057845579
   29    18.624620038    38.272945609     5.383625237     0.482584103    -0.099100872     0.085390871
   30    17.394586768    39.186606989     2.080670512     0.488657563    -0.083986513     0.064498462
   31    15.906955830    40.150357681     9.095061727     0.486261144    -0.100904258     0.058038179
   32    18.033830718    30.801344918     8.323990229     0.485895946    -0.092727382     0.072847526
   33    11.097054050    38.175671506     5.726207614     0.485588998    -0.094995783     0.071966144
   34    20.694358021    33.160437467     8.444440089     0.386907862     0.316116357    -0.019306873
   35    18.066647233    37.762081732     0.620652588     0.490161803    -0.078809860     0.059417275
   36    17.580415601    32.748841608     5.954723296     0.497373404    -0.013044024     0.049492933
   37    18.085974962    35.361721493     7.891434554     0.488453674    -0.076084834     0.074994043
   38    16.171023152    36.278928264     4.590573301     0.493513208    -0.056150318     0.057374692
   39    18.357529852    35.974268977     4.016099291     0.495606666    -0.044896742     0.048562489
   40    13.123940284    38.993024725     6.563064192     0.485117798    -0.097667869     0.071566119
   41    16.623312328    32.184929289     4.004041305     0.497675931    -0.016914587     0.045083970
   42    10.907422607    38.626516755     3.453075355     0.489144676    -0.071959682     0.074560647
   43    14.445233335    37.211207249     5.597466366     0.492439649    -0.061306291     0.061194203
   44    19.385628543    34.210548638     4.880805200     0.496084693    -0.043655487     0.044656201
   45    14.725059353    39.727256088     5.056630451     0.487925991    -0.081704297     0.072475069
   46    17.817085763    31.405759728     2.356371796     0.497870827    -0.027791107     0.036773556
   47    17.241549793    31.975493468     9.921136526     0.488637999    -0.073080306     0.076760500
   48    20.446464899    33.632343335     0.842238617     0.486911367    -0.093981229     0.063912828
   49    13.685931337    35.484501942     1.932133445    -0.499044628     0.013200029    -0.027932394
   50    16.840691361    39.558588278     7.053187356     0.484544739    -0.094439597     0.079357157
   51    20.117661465    35.992200656     0.981572241     0.490912472    -0.062031065     0.071812898
   52    19.825114035    39.754582414     1.682750870     0.483960035    -0.083298335     0.094042924
   53    19.094340698    34.434744033     9.605763676     0.487645359    -0.087476757     0.067452358
   54    15.253452930    32.541453321     9.917181415     0.485232762    -0.103153637     0.062517950
   55    13.699676076    40.209762549     2.818587949     0.483898377    -0.096045814     0.081348398
   56    16.810817609    34.202384199     9.782640662     0.489529370    -0.074680945     0.069164677
   57    15.700484128    36.128551903     7.412409318     0.490640798    -0.069540778     0.066600958
   58    14.573444473    30.416683719     7.202738989     0.486106584    -0.089388131     0.075565541
   59    16.225174514    31.895713493     7.917852701     0.488276369    -0.079813116     0.072222251
   60    19.330480433    36.575028653     9.163473950     0.487624516    -0.082393567     0.073713172
   61    19.495357737    31.948524987    10.066883776     0.491346906    -0.061207573     0.069511518
   62    19.327126933    37.464435449     2.501045844     0.491362842    -0.064048235     0.066786087
   63    12.589706236    37.998066966     9.694881802     0.483504915    -0.096791418     0.082791416
   64    13.929665720    39.319759120     0.761700641     0.484906714    -0.086715763     0.085707965
   65    15.056611430    34.046383036     3.608653212     0.466105071    -0.153756001     0.095420936
   66    11.454921006    36.928130487     8.202009160     0.481987886    -0.102243253     0.085052894
   67    18.285904472    32.957034546     8.313805264     0.489396144    -0.084115373     0.058446712
   68    11.448945278    32.487520656     5.413173196     0.497759717     0.043621686     0.018232185
   21    22.342807679    36.700830714     4.479675941    -0.488597390     0.072911015    -0.077178849
   22    29.675113349    32.084453168     6.519602661     0.499263219    -0.026827365    -0.004065753
   23    29.559186931    39.611778880     7.384442292     0.487243905    -0.079210852     0.079492250
   24    24.505977505    34.499492528     8.212553713     0.491025145    -0.070373256     0.062784643
   25    25.784636315    30.743342810     1.497569784     0.485744433    -0.094720806     0.071276328
   26    22.343862272    31.325720693     8.034714991    -0.112995531     0.459183884    -0.162425893
   27    21.008485449    33.325979171     3.322918417     0.490747383    -0.088243002     0.037150750
   28    28.001646167    35.764792918     1.592197281     0.493735532    -0.059282678     0.052065230
   29    28.714275988    38.417605820     5.671712107     0.484006273    -0.087540877     0.089858347
   30    27.484242718    39.331267200     2.368757381     0.490242317    -0.075620033     0.062801918
   31    25.996611779    40.295017893     9.383148596     0.486727242    -0.089250891     0.071630096
   32    28.123486668    30.946005130     8.612077099     0.485479828    -0.102099714     0.062329650
   33    21.186710000    38.320331717     6.014294484     0.487153716    -0.088247632     0.069954359
   34    30.784013971    33.305097678     8.732526958     0.405303704     0.239121652    -0.168966691
   35    28.156303182    37.906741944     0.908739458     0.491216926    -0.074405461     0.056300608
   36    27.670071551    32.893501820     6.242810165     0.498700414    -0.031905078     0.016732107
   37    28.175630912    35.506381704     8.179521424     0.488200109    -0.079817645     0.072730993
   38    26.260679102    36.423588475     4.878660170     0.494087951    -0.054348114     0.054068281
   39    28.447185802    36.118929189     4.304186161     0.496116044    -0.044063808     0.043900474
   40    23.213596234    39.137684937     6.851151062     0.486855304    -0.089069455     0.070982710
   41    26.712968278    32.329589501     4.292128175     0.498665399    -0.032128484     0.017337246
   42    20.997078557    38.771176967     3.741162225     0.490399688    -0.066947452     0.070895592
   43    24.534889284    37.355867461     5.885553236     0.493081934    -0.058188669     0.059027832
   44    29.475284493    34.355208850     5.168892069     0.496508099    -0.044804623     0.038369957
   45    24.814715302    39.871916299     5.344717321     0.488955554    -0.072104403     0.075653295
   46    27.906741713    31.550419940     2.644458666     0.498242719    -0.039715071     0.013300596
   47    27.331205743    32.120153679    10.209223395     0.488730193    -0.083431975     0.064667639
   48    30.536120849    33.777003547     1.130325487     0.488030228    -0.094164116     0.054402349
   49    23.775587287    35.629162154     2.220220314    -0.496292781     0.025570875    -0.055132625
   50    26.930347311    39.703248490     7.341274226     0.484720424    -0.082528203     0.090748036
   51    30.207317415    36.136860868     1.269659111     0.491809296    -0.058984560     0.068150114
   52    29.914769984    39.899242626     1.970837739     0.485467320    -0.075614183     0.092757623
   53    29.183996648    34.579404245     9.893850546     0.486763565    -0.091418401     0.068585042
   54    25.343108880    32.686113533    10.205268284     0.484167760    -0.113181176     0.052646002
   55    23.789332026    40.354422760     3.106674818     0.485825373    -0.084562566     0.082600724
   56    26.900473559    34.347044411    10.070727531     0.489173778    -0.082997043     0.061810242
   57    25.790140077    36.273212115     7.700496187     0.490700119    -0.072595770     0.062795280
   58    24.663100423    30.561343930     7.490825859     0.485683176    -0.099793577     0.064444509
   59    26.314830464    32.040373704     8.205939571     0.488057532    -0.089980170     0.060855690
   60    29.420136383    36.719688864     9.451560820     0.487041949    -0.084651732     0.074994830
   61    29.585013687    32.093185198    10.354970646     0.491934101    -0.072018826     0.053048363
   62    29.416782882    37.609095660     2.789132714     0.492312360    -0.060421915     0.063069268
   63    22.679362186    38.142727178     9.982968672     0.483858993    -0.090483723     0.087710723
   64    24.019321670    39.464419332     1.049787511     0.486755192    -0.075162631     0.086139203
   65    25.146267380    34.191043248     3.896740082     0.449894204    -0.175954051     0.128978203
   66    21.544576955    37.072790698     8.490096029     0.482596283    -0.095438968     0.089399279
   67    28.375560422    33.101694757     8.601892133     0.488672336    -0.091597259     0.053002734
   68    21.538601228    32.632180867     5.701260066     0.496823275     0.041290579     0.038232463
   21    32.432463629    36.845490925     4.767762811    -0.488857223     0.070106280    -0.078126343
   22    39.764769299    32.229113380     6.807689531     0.498894933     0.013830635     0.030208595
   23    39.648842881    39.756439092     7.672529162     0.488168005    -0.081145570     0.071466042
   24    34.595633455    34.644152740     8.500640582     0.491873577    -0.063216552     0.063749916
   25    35.874292265    30.888003022     1.785656654     0.485304298    -0.093618004     0.075600315
   26    32.433518222    31.470380905     8.322801861    -0.127136203     0.374277269    -0.306190973
   27    31.098141399    33.470639382     3.611005286     0.491859830    -0.076054229     0.047850408
   28    38.091302117    35.909453129     1.880284150     0.493330681    -0.060483813     0.054466021
   29    38.803931938    38.562266032     5.959798976     0.484983867    -0.089621868     0.082210520
   30    37.573898668    39.475927412     2.656844251     0.490170480    -0.076432322     0.062377888
   31    36.086267729    40.439678104     9.671235466     0.487792750    -0.091386045     0.060883691
   32    38.213142618    31.090665341     8.900163968     0.486572823    -0.091177460     0.070239293
   33    31.276365949    38.464991929     6.302381353     0.487824724    -0.085671601     0.068464704
   34    40.873669920    33.449757890     9.020613828     0.370590104     0.328311056    -0.069819948
   35    38.245959132    38.051402156     1.196826327     0.490957886    -0.075998008     0.056432766
   36    37.759727501    33.038162031     6.530897035     0.498420906    -0.006942699     0.039094753
   37    38.265286862    35.651041916     8.467608294     0.489149808    -0.075164568     0.071293430
   38    36.350335051    36.568248687     5.166747040     0.494408425    -0.051480000     0.053945516
   39    38.536841752    36.263589401     4.592273030     0.496234406    -0.041952941     0.044624715
   40    33.303252184    39.282345148     7.139237931     0.487541751    -0.087893056     0.067659821
   41    36.802624227    32.474249712     4.580215044     0.498521689    -0.011602490     0.036626597
   42    31.086734507    38.915837178     4.029249094     0.491151824    -0.062629927     0.069623113
   43    34.624545234    37.500527672     6.173640105     0.493491019    -0.055569211     0.058126391
   44    39.564940442    34.499869061     5.456978939     0.496670502    -0.041183358     0.040278326
   45    34.904371252    40.016576511     5.632804190     0.489662998    -0.071800711     0.071237673
   46    37.996397663    31.695080152     2.932545535     0.498557808    -0.023411490     0.029866608
   47    37.420861693    32.264813891    10.497310265     0.489109046    -0.072262976     0.074501032
   48    40.625776799    33.921663758     1.418412356     0.487308689    -0.094937048     0.059305975
   49    33.865243236    35.773822365     2.508307184    -0.472313007     0.023126345    -0.162436437
   50    37.020003261    39.847908701     7.629361095     0.486149136    -0.084816103     0.080406756
   51    40.296973364    36.281521080     1.557745980     0.491590855    -0.060219542     0.068644287
   52    40.004425934    40.043902837     2.258924609     0.485613047    -0.076138464     0.091558191
   53    39.273652598    34.724064457    10.181937415     0.488037567    -0.086952878     0.065257412
   54    35.432764830    32.830773745    10.493355154     0.485977729    -0.100838775     0.060474688
   55    33.878987976    40.499082972     3.394761688     0.486498164    -0.084012337     0.079129409
   56    36.990129509    34.491704623    10.358814401     0.490091764    -0.073377333     0.066526909
   57    35.879796027    36.417872327     7.988583057     0.491515012    -0.066842425     0.062809897
   58    34.752756373    30.706004142     7.778912728     0.486506378    -0.089054138     0.073354650
   59    36.404486414    32.185033916     8.494026440     0.488882601    -0.078797424     0.069172021
   60    39.509792333    36.864349076     9.739647689     0.488304013    -0.082381458     0.069083187
   61    39.674669637    32.237845410    10.643057516     0.491884001    -0.059902539     0.066796823
   62    39.506438832    37.753755872     3.077219583     0.492208548    -0.060936683     0.063383485
   63    32.769018136    38.287387390    10.271055541     0.484350920    -0.091262611     0.084114937
   64    34.108977620    39.609079544     1.337874380     0.487444283    -0.074476288     0.082772901
   65    35.235923330    34.335703459     4.184826951     0.451665271    -0.149262429     0.154010422
   66    31.634232905    37.217450910     8.778182899     0.482851892    -0.096450638     0.086898359
   67    38.465216372    33.246354969     8.889979003     0.489929105    -0.082815854     0.055776397
   68    31.628257178    32.776841079     5.989346936     0.498643097    -0.005072254    -0.036460033
   21     2.045140537     6.368365464    13.823611293    -0.491355791     0.061438223    -0.069244720
   22     9.377446208     1.751987918    15.863538013     0.499342455    -0.023268536     0.010755818
   23     9.261519789     9.279313630    16.728377644     0.489286370    -0.074120638     0.071449138
   24     4.208310363     4.167027278    17.556489065     0.491896316    -0.063676725     0.063113303
   25     5.486969173     0.410877561    10.841505136     0.484194347    -0.095093019     0.080704102
   26     2.046195130     0.993255443    17.378650343    -0.161590952     0.370208964    -0.294675562
   27     0.710818307     2.993513921    12.666853769     0.493751393    -0.066455189     0.042347014
   28     7.703979025     5.432327668    10.936132633     0.494071075    -0.057586038     0.050770282
   29     8.416608846     8.085140570    15.015647459     0.486107787    -0.083205477     0.082316878
   30     7.186575576     8.998801951    11.712692733     0.490785464    -0.072953766     0.061703944
   31     5.698944638     9.962552643    18.727083948     0.489003676    -0.086167406     0.058741666
   32     7.825819526     0.613539880    17.956012451     0.485903237    -0.096133221     0.068238173
   33     0.889042858     7.987866467    15.358229835     0.489756769    -0.078613170     0.062914840
   34    10.486346829     2.972632428    18.076462310     0.408946696     0.249301486    -0.143566602
   35     7.858636041     7.574276694    10.252674810     0.491594206    -0.072980375     0.054854364
   36     7.372404409     2.561036570    15.586745517     0.498324023    -0.030084324     0.027714636
   37     7.877963770     5.173916455    17.523456776     0.489097197    -0.074809315     0.072024287
   38     5.963011960     6.091123225    14.222595522     0.494816234    -0.049265657     0.052247392
   39     8.149518660     5.786463939    13.648121513     0.496443473    -0.040981308     0.043178823
   40     2.915929093     8.805219687    16.195086414     0.489049470    -0.081786011     0.064355763
   41     6.415301136     1.997124251    13.636063527     0.498143135    -0.032059839     0.028732976
   42     0.699411415     8.438711717    13.085097577     0.492982681    -0.054459656     0.063263116
   43     4.237222143     7.023402211    15.229488588     0.494056701    -0.052449369     0.056187546
   44     9.177617351     4.022743600    14.512827421     0.496729126    -0.041974380     0.038708231
   45     4.517048161     9.539451049    14.688652673     0.490800258    -0.066311098     0.068687301
   46     7.609074571     1.217954690    11.988394018     0.497707405    -0.040984349     0.024650001
   47     7.033538601     1.787688429    19.553158747     0.489124923    -0.077357583     0.069084108
   48    10.238453707     3.444538297    10.474260839     0.488632215    -0.093531936     0.049903265
   49     3.477920145     5.296696904    11.564155666    -0.498477688     0.023824817    -0.030860541
   50     6.632680169     9.370783240    16.685209578     0.487432698    -0.079144167     0.078393659
   51     9.909650273     5.804395618    10.613594463     0.492185044    -0.057511642     0.066680530
   52     9.617102843     9.566777376    11.314773091     0.486095084    -0.073152023     0.091434956
   53     8.886329506     4.246938995    19.237785898     0.487768674    -0.086501190     0.067817881
   54     5.045441738     2.353648283    19.549203636     0.485164468    -0.106384567     0.057426148
   55     3.491664884    10.021957510    12.450610170     0.487630443    -0.078306586     0.078004034
   56     6.602806417     4.014579161    19.414662883     0.489838342    -0.076689179     0.064631016
   57     5.492472936     5.940746865    17.044431539     0.491645062    -0.066422555     0.062234856
   58     4.365433281     0.228878680    16.834761211     0.486129475    -0.091784021     0.072483287
   59     6.017163322     1.707908454    17.549874923     0.488395153    -0.083114211     0.067544080
   60     9.122469241     6.387223614    18.795496172     0.488383990    -0.080270619     0.070976796
   61     9.287346545     1.760719949    19.698905998     0.492228864    -0.066173506     0.057721857
   62     9.119115741     7.276630410    12.133068066     0.492761437    -0.058010757     0.061813579
   63     2.381695044     7.810261928    19.326904024     0.486143681    -0.087696760     0.077289066
   64     3.721654528     9.131954082    10.393722863     0.488487819    -0.068497502     0.081778624
   65     4.848600238     3.858577998    13.240675434     0.426483491    -0.160366496     0.205899050
   66     1.246909814     6.740325449    17.834031381     0.485010368    -0.092123280     0.079235372
   67     8.077893280     2.769229508    17.945827485     0.489315036    -0.086383014     0.055756348
   68     1.240934086     2.299715618    15.045195418     0.499369068     0.018490482    -0.016989282
   21    12.134796487     6.513025675    14.111698163    -0.489456073     0.067967010    -0.076244596
   22    19.467102157     1.896648130    16.151624883     0.497973808     0.002149634     0.044916212
   23    19.351175739     9.423973842    17.016464514     0.487955115    -0.080239205     0.073901801
   24    14.297966313     4.311687490    17.844575934     0.492262852    -0.059359316     0.064449638
   25    15.576625123     0.555537772    11.129592005     0.484809526    -0.094086341     0.078150392
   26    12.135851080     1.137915655    17.666737213    -0.169667804     0.364363890    -0.297408460
   27    10.800474257     3.138174132    12.954940638     0.492603787    -0.074769661     0.041845031
   28    17.793634975     5.576987879    11.224219502     0.493147788    -0.058473573     0.058190207
   29    18.506264796     8.229800782    15.303734328     0.484646702    -0.089160518     0.084663900
   30    17.276231526     9.143462162    12.000779603     0.489531812    -0.078384975     0.064918418
   31    15.788600587    10.107212855    19.015170818     0.488297640    -0.085605506     0.065093105
   32    17.915475476     0.758200091    18.244099320     0.487071399    -0.088191386     0.070595552
   33    10.978698808     8.132526679    15.646316705     0.488600775    -0.082494679     0.066812502
   34    20.576002779     3.117292640    18.364549180     0.406323921     0.291106055     0.012575193
   35    17.948291990     7.718936906    10.540761679     0.490711690    -0.074671041     0.060218543
   36    17.462060359     2.705696781    15.874832387     0.497601103    -0.013645305     0.046978162
   37    17.967619720     5.318576666    17.811543646     0.489863296    -0.070507830     0.071151930
   38    16.052667910     6.235783437    14.510682392     0.494523788    -0.048027029     0.056032375
   39    18.239174610     5.931124151    13.936208382     0.496168918    -0.038704660     0.048149287
   40    13.005585042     8.949879898    16.483173283     0.488079807    -0.084922863     0.067573735
   41    16.504957086     2.141784462    13.924150396     0.497901087    -0.017503330     0.042286414
   42    10.789067365     8.583371928    13.373184446     0.491859451    -0.059733143     0.067128474
   43    14.326878093     7.168062422    15.517575457     0.493685354    -0.051985094     0.059768901
   44    19.267273301     4.167403811    14.800914291     0.496609043    -0.037767091     0.044193948
   45    14.606704110     9.684111261    14.976739542     0.489846874    -0.068954751     0.072768691
   46    17.698730521     1.362614902    12.276480887     0.498020947    -0.028325835     0.034245919
   47    17.123194551     1.932348641    19.841245617     0.490050281    -0.070497762     0.069862633
   48    20.328109657     3.589198508    10.762347708     0.487483304    -0.090675924     0.064326555
   49    13.567576095     5.441357116    11.852242536    -0.481631421     0.034751862    -0.129705367
   50    16.722336119     9.515443451    16.973296447     0.486427565    -0.078856332     0.084675281
   51    19.999306223     5.949055830    10.901681332     0.491378507    -0.057674395     0.072255289
   52    19.706758793     9.711437587    11.602859961     0.484586035    -0.077933025     0.095408693
   53    18.975985456     4.391599207    19.525872767     0.489235291    -0.081993096     0.062657498
   54    15.135097688     2.498308495    19.837290506     0.486646700    -0.099050964     0.057999106
   55    13.581320834    10.166617722    12.738697040     0.485991092    -0.085238701     0.080913671
   56    16.692462367     4.159239373    19.702749753     0.490806317    -0.070454283     0.064384415
   57    15.582128885     6.085407077    17.332518409     0.491941550    -0.062715884     0.063719930
   58    14.455089231     0.373538892    17.122848080     0.486858077    -0.085378569     0.075363868
   59    16.106819272     1.852568666    17.837961792     0.489178210    -0.075497113     0.070745071
   60    19.212125191     6.531883826    19.083583041     0.489023137    -0.076904909     0.070299403
   61    19.377002495     1.905380160    19.986992868     0.492578948    -0.060072596     0.061296518
   62    19.208771690     7.421290622    12.421154935     0.492086941    -0.058539076     0.066510291
   63    12.471350994     7.954922140    19.614990893     0.485187602    -0.087245117     0.083554056
   64    13.811310478     9.276614294    10.681809732     0.486864262    -0.076308117     0.084500068
   65    14.938256188     4.003238210    13.528762303     0.465754366    -0.148587895     0.104854701
   66    11.336565763     6.884985660    18.122118251     0.483838599    -0.092447474     0.085753568
   67    18.167549230     2.913889719    18.233914355     0.490701146    -0.079589912     0.053645424
   68    11.330590036     2.444375829    15.333282288     0.499697231    -0.000242056    -0.017395938
   21    22.224452437     6.657685887    14.399785032    -0.489289202     0.067174133    -0.077998156
   22    29.556758107     2.041308342    16.439711752     0.497504213     0.022664222     0.044450994
   23    29.440831689     9.568634053    17.304551384     0.485954219    -0.076606716     0.089330332
   24    24.387622263     4.456347701    18.132662804     0.491650592    -0.060424890     0.068033287
   25    25.666281073     0.700197984    11.417678875     0.484731999    -0.086653060     0.086753307
   26    22.225507030     1.282575867    17.954824083     0.051424562     0.493913688     0.058350519
   27    20.890130207     3.282834344    13.243027508     0.492347119    -0.078634700     0.037561922
   28    27.883290925     5.721648091    11.512306372     0.492854891    -0.053859324     0.064755148
   29    28.595920746     8.374460994    15.591821198     0.482334110    -0.085224371     0.100452045
   30    27.365887476     9.288122374    12.288866472     0.489131862    -0.072569507     0.074051926
   31    25.878256537    10.251873066    19.303257687     0.486575494    -0.087442720     0.074820181
   32    28.005131426     0.902860303    18.532186190     0.487065120    -0.088324886     0.070471861
   33    21.068354757     8.277186891    15.934403575     0.487896310    -0.083086762     0.071089946
   34    30.665658728     3.261952852    18.652636049     0.361345608     0.342390903    -0.046880924
   35    28.037947940     7.863597117    10.828848549     0.490509925    -0.069789066     0.067301555
   36    27.551716309     2.850356993    16.162919256     0.497345480    -0.000258631     0.051452953
   37    28.057275670     5.463236878    18.099630515     0.488939394    -0.072627953     0.075255896
   38    26.142323859     6.380443649    14.798769261     0.493950856    -0.047239749     0.061489491
   39    28.328830560     6.075784362    14.224295252     0.495756696    -0.036265983     0.053945130
   40    23.095240992     9.094540110    16.771260153     0.487195155    -0.085038348     0.073548357
   41    26.594613035     2.286444674    14.212237266     0.497535905    -0.005332976     0.049290794
   42    20.878723315     8.728032140    13.661271316     0.491167142    -0.060902036     0.071033656
   43    24.416534042     7.312722634    15.805662327     0.493007095    -0.051707966     0.065347462
   44    29.356929250     4.312064023    15.089001160     0.496228817    -0.035371395     0.050058227
   45    24.696360060     9.828771473    15.264826412     0.488848405    -0.068487132     0.079603701
   46    27.788386471     1.507275113    12.564567757     0.497940503    -0.017111866     0.041981420
   47    27.212850501     2.077008853    20.129332486     0.489949057    -0.068748419     0.072274312
   48    30.417765607     3.733858720    11.050434578     0.487168153    -0.086774029     0.071676070
   49    23.657232044     5.586017327    12.140329406    -0.496393843     0.012119599    -0.058704920
   50    26.811992069     9.660103663    17.261383317     0.484480843    -0.080771940     0.093563919
   51    30.088962172     6.093716041    11.189768202     0.490916381    -0.053330797     0.078466125
   52    29.796414742     9.856097799    11.890946830     0.484032706    -0.072081698     0.102550321
   53    29.065641406     4.536259418    19.813959637     0.488038050    -0.084945952     0.067845762
   54    25.224753638     2.642968706    20.125377375     0.486407258    -0.098832642     0.060333144
   55    23.670976784    10.311277934    13.026783910     0.485353463    -0.082365028     0.087452949
   56    26.782118317     4.303899584    19.990836622     0.490397852    -0.070971817     0.066880103
   57    25.671784835     6.230067288    17.620605278     0.491228951    -0.063853700     0.067947204
   58    24.544745181     0.518199104    17.410934950     0.487115451    -0.089591117     0.068497953
   59    26.196475222     1.997228878    18.126048662     0.489299658    -0.077129249     0.068094958
   60    29.301781141     6.676544038    19.371669911     0.487869539    -0.079697926     0.075043680
   61    29.466658445     2.050040372    20.275079737     0.492642278    -0.056564517     0.064062794
   62    29.298427640     7.565950834    12.709241805     0.491635727    -0.054685169     0.072827500
   63    22.561006944     8.099582351    19.903077763     0.484798583    -0.086631344     0.086402221
   64    23.900966428     9.421274505    10.969896602     0.486207879    -0.073091345     0.090882088
   65    25.027912138     4.147898421    13.816849173     0.362681736    -0.183303876     0.291310226
   66    21.426221713     7.029645872    18.410205120     0.483808182    -0.090850262     0.087612060
   67    28.257205180     3.058549931    18.522001224     0.490235936    -0.079905057     0.057305402
   68    21.420245986     2.589036041    15.621369157     0.497323700     0.033125672     0.039646272
   21    32.314108387     6.802346099    14.687871902    -0.489909016     0.062699728    -0.077832512
   22    39.646414057     2.185968553    16.727798622     0.499871251    -0.006848740     0.009045842
   23    39.530487639     9.713294265    17.592638253     0.489599915    -0.075136460     0.068164766
   24    34.477278212     4.601007913    18.420749674     0.493104040    -0.059594884     0.057418251
   25    35.755937022     0.844858196    11.705765745     0.486215619    -0.087337349     0.077243509
   26    32.315162980     1.427236078    18.242910952    -0.200987739     0.385252672    -0.247354619
   27    30.979786157     3.427494556    13.531114377     0.490552756    -0.084693978     0.046743171
   28    37.972946874     5.866308303    11.800393242     0.494811183    -0.050223961     0.051375549
   29    38.685576696     8.519121205    15.879908068     0.486774069    -0.082527021     0.078995545
   30    37.455543426     9.432782586    12.576953342     0.491685599    -0.069110723     0.058898046
   31    35.967912487    10.396533278    19.591344557     0.489010246    -0.091477192     0.050009031
   32    38.094787376     1.047520515    18.820273059     0.487784370    -0.089659276     0.063463555
   33    31.158010707     8.421847102    16.222490444     0.488163504    -0.081722309     0.070836841
   34    40.755314678     3.406613063    18.940722919     0.399809682     0.268532687    -0.134322054
   35    38.127603890     8.008257329    11.116935418     0.492665785    -0.066339611     0.053660786
   36    37.641372258     2.995017205    16.451006126     0.499131815    -0.015520880     0.025030651
   37    38.146931619     5.607897089    18.387717385     0.490452014    -0.072350990     0.064978124
   38    36.231979809     6.525103860    15.086856131     0.495561573    -0.044694286     0.049205168
   39    38.418486510     6.220444574    14.512382122     0.497202482    -0.033535559     0.040805119
   40    33.184896942     9.239200322    17.059347022     0.488241464    -0.084883927     0.066445401
   41    36.684268985     2.431104886    14.500324135     0.499072322    -0.017056008     0.025217261
   42    30.968379265     8.872692352    13.949358185     0.490803713    -0.057597006     0.076120298
   43    34.506189992     7.457382846    16.093749196     0.494631808    -0.049772951     0.053497926
   44    39.446585200     4.456724235    15.377088030     0.497561205    -0.033018173     0.036642159
   45    34.786016010     9.973431684    15.552913282     0.490793240    -0.068419644     0.066638939
   46    37.878042420     1.651935325    12.852654626     0.498919676    -0.025881211     0.020231658
   47    37.302506451     2.221669064    20.417419356     0.490797564    -0.071944987     0.062782720
   48    40.507421557     3.878518932    11.338521447     0.489352674    -0.083570262     0.059581638
   49    33.746887994     5.730677539    12.428416275    -0.496769772    -0.036101599    -0.043777488
   50    36.901648019     9.804763875    17.549470186     0.487716791    -0.084464755     0.070696794
   51    40.178618122     6.238376253    11.477855072     0.493203481    -0.049850652     0.065308797
   52    39.886070692    10.000758011    12.179033700     0.487599922    -0.068558614     0.086867904
   53    39.155297356     4.680919630    20.102046506     0.489270908    -0.083670423     0.060110226
   54    35.314409587     2.787628918    20.413464245     0.487421677    -0.098886169     0.051396832
   55    33.760632733    10.455938145    13.314870779     0.487510148    -0.080451241     0.076560132
   56    36.871774267     4.448559796    20.278923492     0.491450577    -0.071276753     0.058274819
   57    35.761440785     6.374727500    17.908692148     0.492790452    -0.062648372     0.056857296
   58    34.634401130     0.662859315    17.699021819     0.487807760    -0.085178369     0.069197075
   59    36.286131171     2.141889089    18.414135532     0.490099692    -0.075976636     0.063481044
   60    39.391437091     6.821204249    19.659756781     0.489449824    -0.079819913     0.063778142
   61    39.556314395     2.194700584    20.563166607     0.493595833    -0.061222703     0.051136425
   62    39.388083590     7.710611045    12.997328674     0.493807132    -0.051530615     0.059153294
   63    32.650662894     8.244242563    20.191164632     0.485175227    -0.089317590     0.081408644
   64    33.990622378     9.565934717    11.257983471     0.488194949    -0.070861008     0.081513246
   65    35.117568087     4.292558633    14.104936042     0.368289479    -0.167777337     0.293621568
   66    31.515877663     7.174306084    18.698291990     0.483614040    -0.093313157     0.086082023
   67    38.346861130     3.203210143    18.810088094     0.490965206    -0.080901693     0.049072223
   68    31.509901936     2.733696253    15.909456027     0.494986378     0.063136070     0.031659469
   21     2.180216008    16.393458985    13.854236717    -0.490719839     0.064885630    -0.070596708
   22     9.512521679    11.777081439    15.894163437     0.499317471     0.016930503     0.019885200
   23     9.396595261    19.304407151    16.759003068     0.489363108    -0.074849807     0.070151653
   24     4.343385834    14.192120799    17.587114488     0.493343850    -0.055182024     0.059722609
   25     5.622044644    10.435971082    10.872130559     0.486817972    -0.082772313     0.078466593
   26     2.181270601    11.018348964    17.409275767    -0.133219867     0.467528551    -0.116916725
   27     0.845893778    13.018607442    12.697479192     0.493305026    -0.076850320     0.027279663
   28     7.839054496    15.457421189    10.966758056     0.494590353    -0.050477955     0.053219911
   29     8.551684317    18.110234091    15.046272882     0.486450109    -0.082637827     0.080853454
   30     7.321651047    19.023895472    11.743318157     0.491424125    -0.068865799     0.061317460
   31     5.834020109    19.987646164    18.757709372     0.488884546    -0.085520047     0.060648347
   32     7.960894997    10.638633401    17.986637874     0.488613848    -0.084188886     0.064565776
   33     1.024118329    18.012959989    15.388855259     0.489264515    -0.081462356     0.063119877
   34    10.621422300    12.997725949    18.107087734     0.370130629     0.318801978    -0.106623714
   35     7.993711512    17.599370215    10.283300233     0.492475746    -0.066389365     0.055318098
   36     7.507479880    12.586130091    15.617370941     0.498915546    -0.000530096     0.032908920
   37     8.013039241    15.199009976    17.554082199     0.490860090    -0.067083863     0.067499091
   38     6.098087431    16.116216746    14.253220946     0.495520481    -0.042632741     0.051399443
   39     8.284594131    15.811557460    13.678746936     0.497103896    -0.032021202     0.043155058
   40     3.051004564    18.830313208    16.225711837     0.489028579    -0.082806133     0.063199632
   41     6.550376607    12.022217772    13.666688950     0.498944929    -0.003937758     0.032225018
   42     0.834486886    18.463805238    13.115723000     0.492286341    -0.058651626     0.064916448
   43     4.372297614    17.048495732    15.260114011     0.494680656    -0.047366344     0.055203969
   44     9.312692822    14.047837121    14.543452845     0.497494592    -0.031189698     0.039068317
   45     4.652123632    19.564544570    14.719278096     0.490936626    -0.065396312     0.068589732
   46     7.744150042    11.243048211    12.019019441     0.499055660    -0.015158204     0.026714728
   47     7.168614072    11.812781950    19.583784171     0.491377067    -0.064530657     0.066214594
   48    10.373529178    13.469631818    10.504886262     0.489250191    -0.084170891     0.059577775
   49     3.612995616    15.321790425    11.594781090    -0.493963400     0.019523454    -0.074959953
   50     6.767755640    19.395876761    16.715835001     0.487296574    -0.078377807     0.079993551
   51    10.044725744    15.829489139    10.644219886     0.492888487    -0.050215393     0.067374727
   52     9.752178314    19.591870897    11.345398515     0.486893000    -0.068394770     0.090870030
   53     9.021404977    14.272032516    19.268411321     0.489870566    -0.078904628     0.061651342
   54     5.180517209    12.378741804    19.579829060     0.488220753    -0.093173215     0.054398969
   55     3.626740355    20.047051031    12.481235594     0.487739989    -0.078320372     0.077302153
   56     6.737881888    14.039672682    19.445288307     0.491941441    -0.065634845     0.060709851
   57     5.627548407    15.965840386    17.075056963     0.493001811    -0.058580297     0.059309045
   58     4.500508752    10.253972201    16.865386634     0.488609749    -0.083434526     0.065568233
   59     6.152238793    11.733001975    17.580500346     0.490732237    -0.072239017     0.062955506
   60     9.257544712    16.412317135    18.826121595     0.489886331    -0.074218407     0.067104475
   61     9.422422016    11.785813470    19.729531422     0.494063188    -0.051698241     0.056823044
   62     9.254191212    17.301723931    12.163693489     0.493450354    -0.051223040     0.062313309
   63     2.516770515    17.835355449    19.357529447     0.486474757    -0.087791168     0.075066781
   64     3.856729999    19.157047603    10.424348286     0.488557016    -0.068861820     0.081056104
   65     4.983675709    13.883671519    13.271300857     0.461647950    -0.074930208     0.176823738
   66     1.381985285    16.765418970    17.864656805     0.485183027    -0.092889560     0.077259048
   67     8.212968751    12.794323029    17.976452909     0.491739097    -0.074752851     0.051035982
   68     1.376009558    12.324809139    15.075820841     0.496379230     0.049783786     0.033604084
   21    12.269871958    16.538119196    14.142323586    -0.490671958     0.061879485    -0.073566015
   22    19.602177629    11.921741651    16.182250306     0.499417271    -0.023810243     0.003932167
   23    19.486251210    19.449067363    17.047089938     0.488252195    -0.072697315     0.079529207
   24    14.433041784    14.336781011    17.875201358     0.492515412    -0.055037424     0.066328353
   25    15.711700594    10.580631293    11.160217429     0.484900505    -0.091408502     0.080721655
   26    12.270926551    11.163009176    17.697362637    -0.208868567     0.352788692    -0.286206325
   27    10.935549728    13.163267653    12.985566062     0.492622967    -0.075002573     0.041197411
   28    17.928710446    15.602081400    11.254844926     0.493059769    -0.059019890     0.058384216
   29    18.641340267    18.254894303    15.334359752     0.484774560    -0.082576726     0.090414107
   30    17.411306997    19.168555683    12.031405026     0.489541403    -0.076299674     0.067287252
   31    15.923676059    20.132306376    19.045796241     0.488504160    -0.081587067     0.068609300
   32    18.050550947    10.783293613    18.274724744     0.487671390    -0.085209874     0.070113426
   33    11.113774279    18.157620200    15.676942129     0.489365289    -0.077639587     0.067035128
   34    20.711078250    13.142386161    18.395174603     0.410298058     0.224513131    -0.176774879
   35    18.083367461    17.744030427    10.571387103     0.490525405    -0.074665817     0.061723925
   36    17.597135830    12.730790302    15.905457810     0.498599674    -0.027757715     0.025057428
   37    18.102695191    15.343670187    17.842169069     0.490034499    -0.064639987     0.075417913
   38    16.187743381    16.260876958    14.541307815     0.494506303    -0.046172355     0.057720272
   39    18.374250081    15.956217672    13.966833806     0.495964016    -0.040194375     0.049031698
   40    13.140660513    18.974973419    16.513798707     0.488595320    -0.080446520     0.069303470
   41    16.640032557    12.166877983    13.954775820     0.498481383    -0.029021644     0.025962560
   42    10.924142836    18.608465450    13.403809870     0.492548121    -0.054396020     0.066613974
   43    14.461953564    17.193155943    15.548200881     0.493743608    -0.049327939     0.061514255
   44    19.402348772    14.192497332    14.831539714     0.496306394    -0.041161230     0.044561381
   45    14.741779581    19.709204782    15.007364966     0.490064459    -0.065003107     0.074909426
   46    17.833805992    11.387708423    12.307106311     0.498111655    -0.037143768     0.022474870
   47    17.258270022    11.957442162    19.871871040     0.490815662    -0.064646989     0.070148081
   48    20.463185128    13.614292029    10.792973132     0.487130936    -0.093131733     0.063481738
   49    13.702651566    15.466450637    11.882867960    -0.494943891     0.053408213    -0.046670198
   50    16.857411590    19.540536972    17.003921871     0.486370597    -0.075686886     0.087835856
   51    20.134381694    15.974149351    10.932306756     0.491171453    -0.058156006     0.073269927
   52    19.841834264    19.736531108    11.633485384     0.484520591    -0.077052795     0.096450315
   53    19.111060927    14.416692728    19.556498191     0.489190912    -0.074063909     0.072158085
   54    15.270173159    12.523402016    19.867915929     0.487773486    -0.092497884     0.059339427
   55    13.716396305    20.191711243    12.769322464     0.486320188    -0.080997501     0.083259109
   56    16.827537838    14.184332894    19.733375176     0.491313536    -0.064309415     0.066897745
   57    15.717204356    16.110500598    17.363143832     0.492128413    -0.058603518     0.066145692
   58    14.590164702    10.398632413    17.153473504     0.487673004    -0.081682002     0.074182824
   59    16.241894743    11.877662187    17.868587216     0.489765846    -0.072882208     0.069408930
   60    19.347200662    16.556977347    19.114208465     0.489222253    -0.070867233     0.075096087
   61    19.512077966    11.930473681    20.017618291     0.493776697    -0.053028857     0.058073346
   62    19.343847161    17.446384143    12.451780359     0.491987924    -0.058435499     0.067328860
   63    12.606426465    17.980015661    19.645616317     0.486367408    -0.081520999     0.082468606
   64    13.946385949    19.301707815    10.712435156     0.487151602    -0.071894192     0.086686458
   65    15.073331659    14.028331731    13.559387727     0.427697231    -0.254804290     0.046366496
   66    11.471641234    16.910079181    18.152743674     0.485278845    -0.086714380     0.083576668
   67    18.302624701    12.938983240    18.264539778     0.490883539    -0.074710579     0.058751006
   68    11.465665507    12.469469350    15.363907711     0.497295886     0.051902785    -0.001703711
   21    22.359527908    16.682779408    14.430410456    -0.489269519     0.066544876    -0.078658231
   22    29.691833578    12.066401863    16.470337176     0.493824441     0.004282821     0.078224542
   23    29.575907160    19.593727574    17.335176807     0.487529364    -0.086653587     0.069327301
   24    24.522697734    14.481441222    18.163288228     0.491837067    -0.060098041     0.066966594
   25    25.801356544    10.725291505    11.448304299     0.484841172    -0.085379915     0.087403134
   26    22.360582501    11.307669388    17.985449506    -0.108667923     0.325371643    -0.363764452
   27    21.025205678    13.307927865    13.273652931     0.491604308    -0.072454881     0.055457142
   28    28.018366396    15.746741612    11.542931795     0.494055469    -0.055438646     0.053251765
   29    28.730996217    18.399554515    15.622446622     0.484448253    -0.094217399     0.080205811
   30    27.500962947    19.313215895    12.319491896     0.490287383    -0.076432019     0.061452655
   31    26.013332008    20.276966587    19.333883111     0.487059396    -0.095046444     0.061149969
   32    28.140206897    10.927953824    18.562811613     0.485935954    -0.087245912     0.079084759
   33    21.203430228    18.302280412    15.965028998     0.488161911    -0.082344916     0.070123202
   34    30.800734199    13.287046373    18.683261473     0.405057083     0.276744355     0.096650514
   35    28.173023411    17.888690638    10.859473972     0.491630056    -0.072180517     0.055586516
   36    27.686791780    12.875450514    16.193544680     0.495096227    -0.010704337     0.069030019
   37    28.192351141    15.488330399    18.130255939     0.489343623    -0.073408696     0.071791236
   38    26.277399330    16.405537170    14.829394685     0.494578943    -0.047812503     0.055728210
   39    28.463906031    16.100877883    14.254920676     0.496502427    -0.036396266     0.046482810
   40    23.230316463    19.119633631    16.801885576     0.487549360    -0.086915324     0.068857444
   41    26.729688506    12.311538195    14.242862689     0.495846629    -0.012814980     0.063022983
   42    21.013798786    18.753125661    13.691896739     0.491139422    -0.059715930     0.072222404
   43    24.551609513    17.337816155    15.836287750     0.493614323    -0.052585969     0.059829892
   44    29.492004722    14.337157544    15.119626584     0.496915212    -0.034030963     0.043785453
   45    24.831435531    19.853864994    15.295451836     0.489474227    -0.071958580     0.072366730
   46    27.923461942    11.532368635    12.595193180     0.496693329    -0.022625092     0.052762126
   47    27.347925972    12.102102374    20.159957910     0.488427309    -0.070466651     0.080456292
   48    30.552841078    13.758952241    11.081060001     0.488801949    -0.087772396     0.058040169
   49    23.792307516    15.611110848    12.170954829    -0.489868562     0.031841708    -0.094946816
   50    26.947067540    19.685197184    17.292008740     0.485351855    -0.088390963     0.081367161
   51    30.224037643    16.118809562    11.220393626     0.492222178    -0.055737451     0.067901871
   52    29.931490213    19.881191320    11.921572254     0.485656474    -0.075731219     0.091665543
   53    29.200716877    14.561352939    19.844585060     0.488782388    -0.084427277     0.062958810
   54    25.359829109    12.668062227    20.156002799     0.485500339    -0.099178060     0.066731804
   55    23.806052255    20.336371455    13.057409333     0.485965865    -0.085718772     0.080557246
   56    26.917193788    14.328993105    20.021462046     0.489843363    -0.070979780     0.070819137
   57    25.806860306    16.255160809    17.651230702     0.491582062    -0.063979919     0.065219987
   58    24.679820652    10.543292625    17.441560373     0.485824015    -0.082480249     0.084687870
   59    26.331550693    12.022322399    18.156674085     0.488035784    -0.073957508     0.079695423
   60    29.436856612    16.701637559    19.402295334     0.488602915    -0.081327363     0.068213281
   61    29.601733916    12.075133893    20.305705161     0.490610266    -0.061555402     0.074246207
   62    29.433503111    17.591044355    12.739867228     0.492652858    -0.057439120     0.063197378
   63    22.696082415    18.124675872    19.933703186     0.485534392    -0.084383582     0.084473458
   64    24.036041899    19.446368026    11.000522025     0.486809644    -0.076525565     0.084618012
   65    25.162987609    14.172991942    13.847474596     0.375230275    -0.115035540     0.309788742
   66    21.561297184    17.054739393    18.440830544     0.484382912    -0.087533551     0.087812708
   67    28.392280651    13.083643452    18.552626648     0.490021871    -0.079846448     0.059187080
   68    21.555321457    12.614129562    15.651994581     0.499060559    -0.005580559    -0.030123349
   21    32.449183858    16.827439620    14.718497325    -0.489931562     0.069944340    -0.071238006
   22    39.781489528    12.211062074    16.758424046     0.498287001     0.014513259     0.038722473
   23    39.665563110    19.738387786    17.623263677     0.487695319    -0.082550842     0.073065959
   24    34.612353683    14.626101434    18.451375097     0.493387278    -0.061268307     0.053058345
   25    35.891012493    10.869951717    11.736391168     0.487588983    -0.083440315     0.072764672
   26    32.450238451    11.452329599    18.273536376     0.051512856     0.474479726     0.149048365
   27    31.114861628    13.452588077    13.561739801     0.494178570    -0.073125453     0.020981152
   28    38.108022345    15.891401824    11.831018665     0.494406566    -0.052747851     0.052723919
   29    38.820652167    18.544214726    15.910533491     0.484547874    -0.090360164     0.083954741
   30    37.590618897    19.457876107    12.607578765     0.490606727    -0.074802371     0.060906853
   31    36.102987958    20.421626799    19.621969981     0.487410685    -0.092205184     0.062681960
   32    38.229862847    11.072614036    18.850898483     0.488679333    -0.089068272     0.057090738
   33    31.293086178    18.446940623    16.253115868     0.488388285    -0.085972181     0.063919223
   34    40.890390149    13.431706584    18.971348343     0.383206307     0.321032565    -0.009540364
   35    38.262679361    18.033350850    11.147560842     0.492051914    -0.069650627     0.055079071
   36    37.776447729    13.020110726    16.481631549     0.498394619    -0.004128487     0.039821589
   37    38.282007090    15.632990610    18.418342808     0.490729758    -0.073947470     0.060959629
   38    36.367055280    16.550197381    15.117481555     0.495397597    -0.047100079     0.048608673
   39    38.553561981    16.245538095    14.543007545     0.497079555    -0.035546001     0.040600472
   40    33.319972413    19.264293843    17.089972446     0.487898369    -0.088470321     0.064250944
   41    36.819344456    12.456198407    14.530949559     0.498730485    -0.007765237     0.034750599
   42    31.103454736    18.897785873    13.979983609     0.491731799    -0.062146171     0.065861152
   43    34.641265463    17.482476367    16.124374620     0.494446325    -0.052283382     0.052813627
   44    39.581660671    14.481817756    15.407713454     0.497574830    -0.033685417     0.035841061
   45    34.921091481    19.998525205    15.583538705     0.489998248    -0.071636579     0.069064589
   46    38.013117892    11.677028846    12.883280050     0.498944550    -0.018241879     0.026862055
   47    37.437581922    12.246762585    20.448044779     0.491091636    -0.073920952     0.058006020
   48    40.642497028    13.903612453    11.369146871     0.489543069    -0.081816442     0.060445455
   49    33.881963465    15.755771060    12.459041699    -0.494217707     0.063582927    -0.041304598
   50    37.036723490    19.829857396    17.580095610     0.485726558    -0.085493957     0.082222227
   51    40.313693593    16.263469774    11.508480495     0.492740065    -0.052906750     0.066393558
   52    40.021146163    20.025851532    12.209659124     0.486178061    -0.074702268     0.089724377
   53    39.290372827    14.706013151    20.132671930     0.489672435    -0.086594453     0.052175730
   54    35.449485059    12.812722439    20.444089669     0.487617710    -0.101393586     0.044139659
   55    33.895708204    20.481031666    13.345496203     0.486477251    -0.085159157     0.078024369
   56    37.006849738    14.473653317    20.309548916     0.491825770    -0.073779584     0.051613805
   57    35.896516256    16.399821021    17.939317572     0.492967847    -0.064282526     0.053389690
   58    34.769476601    10.687952836    17.729647243     0.488978101    -0.088892150     0.054759496
   59    36.421206642    12.166982610    18.444760955     0.491024570    -0.077231319     0.054131274
   60    39.526512562    16.846297770    19.690382204     0.489467716    -0.081167753     0.061912447
   61    39.691389866    12.219794105    20.593792030     0.493420627    -0.063515616     0.050018507
   62    39.523159061    17.735704566    13.027954098     0.493282319    -0.055083403     0.060318920
   63    32.785738365    18.269336084    20.221790056     0.485077957    -0.091214947     0.079869949
   64    34.125697849    19.591028238    11.288608895     0.487395802    -0.075585556     0.082049719
   65    35.252643558    14.317652154    14.135561466     0.423003978    -0.255730245    -0.075297252
   66    31.650953134    17.199399605    18.728917413     0.483809104    -0.095374162     0.082659060
   67    38.481936601    13.228303664    18.840713518     0.491428724    -0.081884859     0.042340041
   68    31.644977407    12.758789774    15.940081450     0.491297342     0.032646439     0.086954768
   21     2.315291480    26.418552506    13.884862140    -0.488439519     0.072457338    -0.078592432
   22     9.647597150    21.802174960    15.924788860     0.499918368     0.001252562     0.008947406
   23     9.531670732    29.329500672    16.789628491     0.487461387    -0.087372453     0.068901750
   24     4.478461305    24.217214320    17.617739912     0.492460606    -0.060519581     0.061805594
   25     5.757120115    20.461064603    10.902755983     0.487240750    -0.081918050     0.076719521
   26     2.316346072    21.043442485    17.439901190    -0.092373736     0.368380140    -0.325212492
   27     0.980969250    23.043700963    12.728104616     0.491615210    -0.077665857     0.047775517
   28     7.974129967    25.482514710    10.997383480     0.493957281    -0.055010578     0.054589751
   29     8.686759788    28.135327612    15.076898306     0.484385964    -0.095161866     0.079463558
   30     7.456726518    29.048988993    11.773943580     0.490211846    -0.076879646     0.061496875
   31     5.969095580    30.012739685    18.788334795     0.486583822    -0.099234331     0.058212815
   32     8.095970468    20.663726922    18.017263298     0.488371779    -0.085087288     0.065216244
   33     1.159193800    28.038053510    15.419480683     0.486829533    -0.089662610     0.070410381
   34    10.756497771    23.022819470    18.137713157     0.389171170     0.283433540    -0.134948986
   35     8.128786983    27.624463736    10.313925657     0.491505779    -0.071834219     0.057113169
   36     7.642555351    22.611223612    15.647996364     0.499196713    -0.010936792     0.026134803
   37     8.148114712    25.224103497    17.584707623     0.489558768    -0.073570906     0.070139394
   38     6.233162902    26.141310267    14.283846369     0.494616716    -0.050141768     0.053292658
   39     8.419669602    25.836650981    13.709372360     0.496503780    -0.038635716     0.044623741
   40     3.186080035    28.855406729    16.256337261     0.486551223    -0.092735539     0.068322966
   41     6.685452078    22.047311293    13.697314374     0.499166987    -0.012417186     0.026040984
   42     0.969562358    28.488898759    13.146348424     0.490204594    -0.065348509     0.073681937
   43     4.507373085    27.073589253    15.290739435     0.493594741    -0.055370604     0.057431073
   44     9.447768293    24.072930642    14.574078268     0.496976604    -0.037678020     0.039932711
   45     4.787199103    29.589638091    14.749903520     0.489056687    -0.076297155     0.070726948
   46     7.879225513    21.268141732    12.049644865     0.499079639    -0.021651959     0.021229856
   47     7.303689543    21.837875471    19.614409594     0.491157012    -0.068115241     0.064226972
   48    10.508604649    23.494725339    10.535511686     0.488933359    -0.084237514     0.062033953
   49     3.748071087    25.346883946    11.625406514    -0.495175279     0.015286427    -0.067585265
   50     6.902831111    29.420970282    16.746460425     0.484979023    -0.092449737     0.079046779
   51    10.179801215    25.854582660    10.674845310     0.492111100    -0.055371166     0.068997822
   52     9.887253785    29.616964418    11.376023938     0.485365012    -0.077010474     0.092142240
   53     9.156480448    24.297126037    19.299036745     0.488643780    -0.084065791     0.064499606
   54     5.315592680    22.403835325    19.610454483     0.487763185    -0.095661759     0.054183977
   55     3.761815826    30.072144552    12.511861017     0.485442871    -0.089162683     0.079970216
   56     6.872957359    24.064766203    19.475913730     0.491387375    -0.069234926     0.061196178
   57     5.762623878    25.990933907    17.105682386     0.491969226    -0.064734987     0.061446417
   58     4.635584223    20.279065722    16.896012058     0.488199185    -0.081228895     0.071157732
   59     6.287314264    21.758095496    17.611125770     0.490390944    -0.072246813     0.065552421
   60     9.392620183    26.437410656    18.856747019     0.488366561    -0.081574617     0.069596579
   61     9.557497487    21.810906991    19.760156845     0.493869377    -0.057178854     0.053137714
   62     9.389266683    27.326817452    12.194318913     0.492624926    -0.057867397     0.063024179
   63     2.651845986    27.860448970    19.388154871     0.483581192    -0.096859961     0.082264076
   64     3.991805470    29.182141124    10.454973710     0.486399261    -0.079597316     0.084142894
   65     5.118751180    23.908765040    13.301926281     0.440493524    -0.157174246     0.176809819
   66     1.517060756    26.790512491    17.895282228     0.482324995    -0.100521046     0.085194593
   67     8.348044222    22.819416550    18.007078332     0.491009589    -0.078885386     0.051833190
   68     1.511085029    22.349902660    15.106446265     0.499966194     0.005685027    -0.001218925
   21    12.404947429    26.563212718    14.172949010    -0.489275116     0.067128140    -0.078126014
   22    19.737253100    21.946835172    16.212875730     0.498668740     0.016074349     0.032727717
   23    19.621326681    29.474160884    17.077715361     0.486257867    -0.076662708     0.087613448
   24    14.568117255    24.361874532    17.905826782     0.492111129    -0.054832973     0.069426089
   25    15.846776065    20.605724814    11.190842853     0.484973563    -0.088465310     0.083513667
   26    12.406002022    21.188102697    17.727988060    -0.172714104     0.378379518    -0.277486537
   27    11.070625199    23.188361175    13.016191485     0.492073431    -0.075322302     0.046800523
   28    18.063785917    25.627174921    11.285470349     0.492829233    -0.058002550     0.061278474
   29    18.776415738    28.279987824    15.364985175     0.482755915    -0.085411697     0.098242399
   30    17.546382468    29.193649204    12.062030450     0.489024996    -0.076479878     0.070748718
   31    16.058751530    30.157399897    19.076421665     0.487248532    -0.085595194     0.072541925
   32    18.185626418    20.808387134    18.305350167     0.487784378    -0.081517811     0.073629118
   33    11.248849750    28.182713721    15.707567552     0.488041637    -0.083835012     0.069188524
   34    20.846153721    23.167479682    18.425800027     0.376545539     0.323068561    -0.061969038
   35    18.218442932    27.769123948    10.602012526     0.490353251    -0.074140593     0.063693502
   36    17.732211301    22.755883824    15.936083234     0.498213455    -0.004106896     0.042029596
   37    18.237770662    25.368763708    17.872794493     0.489438772    -0.066938382     0.077258925
   38    16.322818852    26.285970479    14.571933239     0.494225893    -0.045793631     0.060363153
   39    18.509325552    25.981311193    13.997459230     0.495961646    -0.037723639     0.050980123
   40    13.275735984    29.000066940    16.544424130     0.487559026    -0.084226887     0.072055723
   41    16.775108028    22.191971504    13.985401243     0.498394201    -0.009393709     0.038922729
   42    11.059218307    28.633558971    13.434435293     0.491454740    -0.061677502     0.068323675
   43    14.597029035    27.218249464    15.578826304     0.493336309    -0.049828679     0.064314763
   44    19.537424243    24.217590853    14.862165138     0.496505991    -0.036537245     0.046333900
   45    14.876855053    29.734298303    15.037990389     0.489288544    -0.067538754     0.077686788
   46    17.968881463    21.412801944    12.337731734     0.498487479    -0.021096959     0.032636657
   47    17.393345493    21.982535683    19.902496464     0.490570004    -0.061247465     0.074765092
   48    20.598260599    23.639385550    10.823598555     0.487148681    -0.090253169     0.067383444
   49    13.837727037    25.491544158    11.913493383    -0.478147313     0.022199115    -0.144507253
   50    16.992487061    29.565630493    17.034547294     0.485240974    -0.078590268     0.091459101
   51    20.269457165    25.999242872    10.962932180     0.490925754    -0.057460609     0.075433297
   52    19.976909735    29.761624629    11.664110808     0.484109035    -0.075952415     0.099346229
   53    19.246136398    24.441786249    19.587123614     0.488813031    -0.077832920     0.070737950
   54    15.405248630    22.548495537    19.898541353     0.487510318    -0.090434608     0.064461393
   55    13.851471776    30.216804764    12.799947887     0.485799546    -0.082215696     0.085084548
   56    16.962613309    24.209426415    19.764000600     0.491027127    -0.063247651     0.069943514
   57    15.852279828    26.135594119    17.393769256     0.491681116    -0.059089228     0.068979294
   58    14.725240173    20.423725934    17.184098927     0.487766778    -0.078246268     0.077208109
   59    16.376970214    21.902755708    17.899212639     0.489840438    -0.068513432     0.073227416
   60    19.482276133    26.582070868    19.144833888     0.488505995    -0.074394149     0.076337431
   61    19.647153437    21.955567202    20.048243715     0.493134755    -0.049313871     0.066228811
   62    19.478922633    27.471477664    12.482405782     0.491614226    -0.057919548     0.070432796
   63    12.741501936    28.005109182    19.676241740     0.484675456    -0.087938091     0.085770590
   64    14.081461420    29.326801336    10.743060579     0.486731643    -0.072766641     0.088302454
   65    15.208407130    24.053425252    13.590013150     0.431709991    -0.250920481    -0.025795266
   66    11.606716706    26.935172702    18.183369098     0.483468211    -0.093518533     0.086676256
   67    18.437700172    22.964076761    18.295165202     0.490966083    -0.073662204     0.059381687
   68    11.600740978    22.494562871    15.394533135     0.498797562     0.029534175    -0.018130758
   21    22.494603379    26.707872929    14.461035879    -0.488741719     0.069675420    -0.079226685
   22    29.826909049    22.091495384    16.500962600     0.499414283    -0.024163549     0.001223498
   23    29.710982631    29.618821095    17.365802231     0.487223150    -0.090743922     0.066175088
   24    24.657773205    24.506534743    18.193913651     0.491500099    -0.067482418     0.062239662
   25    25.936432015    20.750385026    11.478929722     0.485539343    -0.090124111     0.078289153
   26    22.495657972    21.332762909    18.016074930    -0.070577608     0.461281616    -0.179549637
   27    21.160281149    23.333021386    13.304278355     0.490978525    -0.082932483     0.045412456
   28    28.153441867    25.771835133    11.573557219     0.493430120    -0.063632541     0.049775660
   29    28.866071688    28.424648036    15.653072045     0.484100348    -0.099063956     0.076375293
   30    27.636038418    29.338309416    12.350117319     0.489483071    -0.083981220     0.057909218
   31    26.148407479    30.302060108    19.364508535     0.487193365    -0.097731374     0.055598597
   32    28.275282368    20.953047345    18.593437037     0.486506107    -0.094836217     0.065710727
   33    21.338505699    28.327373933    15.995654422     0.487214144    -0.086151748     0.072112788
   34    30.935809670    23.312139894    18.713886897     0.407635786     0.238333208    -0.164409088
   35    28.308098882    27.913784159    10.890099396     0.490695281    -0.079859663     0.053297053
   36    27.821867251    22.900544035    16.224170103     0.498658135    -0.029872588     0.021158752
   37    28.327426612    25.513423920    18.160881362     0.488670914    -0.078346877     0.071151283
   38    26.412474801    26.430630691    14.860020109     0.494183893    -0.055354285     0.052136198
   39    28.598981502    26.125971404    14.285546099     0.496050060    -0.046360969     0.042249239
   40    23.365391934    29.144727152    16.832511000     0.486563864    -0.091679964     0.069644742
   41    26.864763978    22.336631716    14.273488113     0.498578349    -0.030255105     0.022455708
   42    21.148874257    28.778219182    13.722522163     0.490510275    -0.061232967     0.075167772
   43    24.686684984    27.362909676    15.866913174     0.493198754    -0.059426237     0.056775979
   44    29.627080193    24.362251065    15.150252007     0.496407537    -0.046424640     0.037740030
   45    24.966511002    29.878958515    15.326077259     0.489033512    -0.077185721     0.069918443
   46    28.058537413    21.557462156    12.625818604     0.498241084    -0.037580003     0.018535532
   47    27.483001443    22.127195895    20.190583333     0.489745281    -0.076175063     0.065931170
   48    30.687916549    23.784045762    11.111685425     0.487738905    -0.094786078     0.055913864
   49    23.927382987    25.636204369    12.201580253    -0.491202050     0.028766970    -0.088842598
   50    27.082143011    29.710290705    17.322634164     0.485574762    -0.091308312     0.076680784
   51    30.359113114    26.143903083    11.251019049     0.491649465    -0.063381312     0.065296343
   52    30.066565684    29.906284841    11.952197678     0.485029806    -0.083410397     0.088254136
   53    29.335792348    24.586446460    19.875210484     0.487507738    -0.088396875     0.067247288
   54    25.494904580    22.693155748    20.186628223     0.485524593    -0.106012795     0.055019601
   55    23.941127726    30.361464976    13.088034757     0.485211592    -0.091989348     0.078151588
   56    27.052269259    24.354086626    20.052087469     0.490030808    -0.077081401     0.062675875
   57    25.941935777    26.280254330    17.681856126     0.491116765    -0.070790097     0.061588027
   58    24.814896123    20.568386146    17.472185797     0.486512717    -0.091850308     0.069777485
   59    26.466626164    22.047415920    18.187299509     0.488797561    -0.082812623     0.064953932
   60    29.571932083    26.726731080    19.432920758     0.487722233    -0.085050212     0.069953449
   61    29.736809387    22.100227414    20.336330584     0.492762921    -0.065654913     0.053610972
   62    29.568578582    27.616137876    12.770492652     0.492160071    -0.065281461     0.059302576
   63    22.831157886    28.149769393    19.964328610     0.484816253    -0.086938050     0.085994045
   64    24.171117370    29.471461547    11.031147449     0.486198301    -0.082475878     0.082516310
   65    25.298063080    24.198085463    13.878100020     0.347462309    -0.265528850     0.242413642
   66    21.696372655    27.079832914    18.471455967     0.483497813    -0.090739377     0.089421642
   67    28.527356122    23.108736973    18.583252072     0.489504224    -0.086557381     0.053790652
   68    21.690396928    22.639223083    15.682620004     0.496926507     0.052772801     0.016705641
   21    32.584259329    26.852533141    14.749122749    -0.489331559     0.074638461    -0.070595507
   22    39.916564999    22.236155595    16.789049469     0.499233241    -0.017207104     0.021681472
   23    39.800638581    29.763481307    17.653889100     0.485490272    -0.082791361     0.086283173
   24    34.747429155    24.651194955    18.482000521     0.491364252    -0.066604381     0.064226387
   25    36.026087965    20.895045238    11.767016592     0.485666086    -0.090260434     0.077340204
   26    32.585313922    21.477423120    18.304161799    -0.168165517     0.365546519    -0.296809874
   27    31.249937099    23.477681598    13.592365224     0.491670444    -0.078027907     0.046602787
   28    38.243097817    25.916495345    11.861644089     0.492753066    -0.060092479     0.059860753
   29    38.955727638    28.569308247    15.941158915     0.481939303    -0.091532821     0.096727716
   30    37.725694368    29.482969628    12.638204189     0.488995045    -0.078108041     0.069159092
   31    36.238063429    30.446720320    19.652595404     0.486112555    -0.094878913     0.068502375
   32    38.364938318    21.097707557    18.881523906     0.486776744    -0.091762033     0.068030369
   33    31.428161649    28.472034144    16.283741291     0.487454913    -0.090365366     0.064975447
   34    41.025465620    23.456800105    19.001973766     0.417508794     0.250002767    -0.114826056
   35    38.397754832    28.058444371    11.178186266     0.490117706    -0.076088000     0.063207996
   36    37.911523200    23.045204247    16.512256973     0.498175549    -0.025193028     0.034444641
   37    38.417082561    25.658084132    18.448968232     0.488452913    -0.078664947     0.072288156
   38    36.502130751    26.575290902    15.148106978     0.493826854    -0.054640523     0.056119975
   39    38.688637452    26.270631616    14.573632969     0.495633663    -0.044210913     0.048914898
   40    33.455047884    29.289387364    17.120597869     0.486716038    -0.092076153     0.068040283
   41    36.954419927    22.481291928    14.561574982     0.498232569    -0.026404385     0.032666737
   42    31.238530207    28.922879394    14.010609033     0.491120306    -0.068256359     0.064357710
   43    34.776340934    27.507569888    16.155000044     0.492920181    -0.058788482     0.059779679
   44    39.716736142    24.506911277    15.438338877     0.496097283    -0.043755442     0.044417864
   45    35.056166952    30.023618726    15.614164129     0.488731648    -0.075429269     0.073836317
   46    38.148193363    21.702122367    12.913905474     0.498073237    -0.034778279     0.026711822
   47    37.572657393    22.271856106    20.478670203     0.489566951    -0.073486827     0.070170410
   48    40.777572499    23.928705974    11.399772295     0.487232173    -0.090825575     0.065996401
   49    34.017038936    25.780864581    12.489667122    -0.498402063     0.039080972    -0.008249918
   50    37.171798961    29.854950917    17.610721034     0.484293137    -0.088463844     0.087374513
   51    40.448769064    26.288563295    11.539105919     0.490740292    -0.060275873     0.074436448
   52    40.156221634    30.050945053    12.240284547     0.484200568    -0.078082480     0.097226211
   53    39.425448298    24.731106672    20.163297354     0.487452644    -0.088987645     0.066866423
   54    35.584560530    22.837815960    20.474715092     0.485927083    -0.102981586     0.057180968
   55    34.030783676    30.506125187    13.376121626     0.485398725    -0.088119323     0.081382201
   56    37.141925209    24.498746838    20.340174339     0.490026767    -0.075311297     0.064822655
   57    36.031591727    26.424914542    17.969942995     0.490920508    -0.070193839     0.063795609
   58    34.904552072    20.713046357    17.760272666     0.487033748    -0.087422004     0.071801960
   59    36.556282113    22.192076131    18.475386379     0.489054051    -0.079324501     0.067333190
   60    39.661588033    26.871391291    19.721007628     0.487247245    -0.086064803     0.071992858
   61    39.826465337    22.244887626    20.624417454     0.492446884    -0.062647131     0.059761218
   62    39.658234532    27.760798087    13.058579522     0.491419488    -0.062060726     0.068230150
   63    32.920813836    28.294429605    20.252415479     0.483796783    -0.094790232     0.083399551
   64    34.260773320    29.616121759    11.319234319     0.486463122    -0.078792443     0.084530358
   65    35.387719029    24.342745675    14.166186889     0.462913388    -0.186274140     0.031829855
   66    31.786028605    27.224493126    18.759542837     0.482645165    -0.098860768     0.085324048
   67    38.617012072    23.253397185    18.871338941     0.489550049    -0.085003367     0.055813775
   68    31.780052878    22.783883295    15.970706874     0.499055659    -0.003087533    -0.030560052
   21     2.450366951    36.443646027    13.915487564    -0.489939472     0.070564510    -0.070568859
   22     9.782672621    31.827268481    15.955414284     0.499602271    -0.019518608    -0.004073641
   23     9.666746203    39.354594193    16.820253915     0.486597726    -0.089090383     0.072701835
   24     4.613536776    34.242307841    17.648365336     0.491190618    -0.069576736     0.062376712
   25     5.892195586    30.486158124    10.933381407     0.485273428    -0.091661768     0.078152542
   26     2.451421543    31.068536007    17.470526614    -0.185688473     0.461975119    -0.045812446
   27     1.116044721    33.068794484    12.758730039     0.493241581    -0.079934569     0.017977982
   28     8.109205438    35.507608231    11.028008903     0.492810522    -0.065256504     0.053659835
   29     8.821835260    38.160421133    15.107523729     0.483074093    -0.098590375     0.083182682
   30     7.591801989    39.074082514    11.804569004     0.488830989    -0.084216960     0.062863090
   31     6.104171051    40.037833206    18.818960219     0.486496746    -0.096283329     0.063643039
   32     8.231045939    30.688820443    18.047888721     0.486120646    -0.097711226     0.064336877
   33     1.294269271    38.063147031    15.450106106     0.488016941    -0.087985829     0.064015307
   34    10.891573242    33.047912991    18.168338581     0.391948607     0.258565054    -0.171815023
   35     8.263862454    37.649557257    10.344551080     0.490071754    -0.081185210     0.056909033
   36     7.777630822    32.636317133    15.678621788     0.498870121    -0.028464906     0.017842415
   37     8.283190183    35.249197018    17.615333047     0.488228181    -0.080548471     0.071729963
   38     6.368238373    36.166403788    14.314471793     0.493905657    -0.057366539     0.052595459
   39     8.554745073    35.861744502    13.739997784     0.495725877    -0.048323170     0.043826091
   40     3.321155506    38.880500250    16.286962684     0.487011709    -0.092530606     0.065250914
   41     6.820527549    32.072404814    13.727939797     0.498745753    -0.029558562     0.019467020
   42     1.104637829    38.513992280    13.176973847     0.491683686    -0.062607520     0.065783366
   43     4.642448556    37.098682774    15.321364858     0.493015942    -0.061073093     0.056615882
   44     9.582843764    34.098024163    14.604703692     0.496090895    -0.048670660     0.039051125
   45     4.922274574    39.614731612    14.780528943     0.488995604    -0.076781997     0.070624531
   46     8.014300984    31.293235253    12.080270288     0.498316887    -0.037585671     0.016358421
   47     7.438765014    31.862968992    19.645035018     0.489135722    -0.079979623     0.065950780
   48    10.643680120    33.519818860    10.566137109     0.486850787    -0.097483544     0.058934454
   49     3.883146558    35.371977467    11.656031937    -0.499758353     0.005464825    -0.014550759
   50     7.037906582    39.446063803    16.777085848     0.484757667    -0.089787089     0.083356360
   51    10.314876686    35.879676181    10.705470734     0.490993273    -0.064933841     0.068623629
   52    10.022329256    39.642057939    11.406649362     0.483733208    -0.084904370     0.093773296
   53     9.291555919    34.322219558    19.329662168     0.486830801    -0.091680180     0.067753344
   54     5.450668151    32.428928846    19.641079907     0.484872918    -0.109075690     0.054779078
   55     3.896891297    40.097238073    12.542486441     0.485338727    -0.089951117     0.079718982
   56     7.008032830    34.089859724    19.506539154     0.489527844    -0.080294625     0.062572064
   57     5.897699349    36.016027428    17.136307810     0.490761839    -0.072867357     0.061993271
   58     4.770659694    30.304159243    16.926637481     0.486502307    -0.095788955     0.064342685
   59     6.422389735    31.783189017    17.641751193     0.488664549    -0.086054794     0.061656553
   60     9.527695654    36.462504177    18.887372442     0.487027314    -0.086841355     0.072546360
   61     9.692572958    31.836000512    19.790782269     0.492275564    -0.068583110     0.054416230
   62     9.524342154    37.351910974    12.224944336     0.491557274    -0.066405474     0.062942506
   63     2.786921457    37.885542491    19.418780294     0.484206783    -0.095744620     0.079854615
   64     4.126880941    39.207234645    10.485599133     0.486390226    -0.080187429     0.083633270
   65     5.253826651    33.933858561    13.332551704     0.448927477    -0.187623213     0.115159240
   66     1.652136227    36.815606012    17.925907652     0.483101164    -0.099882087     0.081466766
   67     8.483119693    32.844510071    18.037703756     0.488979961    -0.089641556     0.053506903
   68     1.646160500    32.374996181    15.137071689     0.489184922     0.044630726     0.093307078
   21    12.540022900    36.588306239    14.203574433    -0.488877707     0.073145913    -0.075154923
   22    19.872328571    31.971928693    16.243501154     0.494697793     0.000880517     0.072617617
   23    19.756402152    39.499254405    17.108340785     0.487355225    -0.078538726     0.079476747
   24    14.703192726    34.386968053    17.936452205     0.492002861    -0.057029159     0.068416812
   25    15.981851536    30.630818335    11.221468276     0.484805630    -0.088214766     0.084744651
   26    12.541077493    31.213196218    17.758613484    -0.141150945     0.373020605    -0.301549397
   27    11.205700670    33.213454696    13.046816909     0.490230628    -0.084080550     0.051033252
   28    18.198861388    35.652268442    11.316095773     0.493279402    -0.057565168     0.057980025
   29    18.911491209    38.305081345    15.395610599     0.484039099    -0.087554817     0.089667743
   30    17.681457939    39.218742725    12.092655873     0.489513595    -0.077937441     0.065591124
   31    16.193827001    40.182493418    19.107047089     0.487540621    -0.089101519     0.066068616
   32    18.320701889    30.833480655    18.335975591     0.486572367    -0.085104344     0.077489237
   33    11.383925221    38.207807242    15.738192976     0.487415992    -0.089095232     0.066990225
   34    20.981229192    33.192573203    18.456425451     0.413684095     0.267847900     0.084397702
   35    18.353518403    37.794217469    10.632637950     0.490653586    -0.073861665     0.061672627
   36    17.867286772    32.780977345    15.966708657     0.495539662    -0.013473381     0.065260332
   37    18.372846133    35.393857229    17.903419916     0.489711064    -0.068381219     0.074209722
   38    16.457894323    36.311064000    14.602558662     0.494324474    -0.047448757     0.058240278
   39    18.644401023    36.006404714    14.028084653     0.496036665    -0.037488737     0.050420447
   40    13.410811455    39.025160461    16.575049554     0.487277948    -0.088951734     0.068174703
   41    16.910183499    32.217065025    14.016026667     0.496272786    -0.016463635     0.058670867
   42    11.194293778    38.658652492    13.465060717     0.490635478    -0.068403565     0.067806930
   43    14.732104506    37.243342985    15.609451728     0.493409220    -0.052262535     0.061773530
   44    19.672499714    34.242684374    14.892790561     0.496507862    -0.035804091     0.046882938
   45    15.011930524    39.759391824    15.068615813     0.489309145    -0.072070897     0.073364474
   46    18.103956934    31.437895465    12.368357158     0.496933945    -0.026247908     0.048659037
   47    17.528420964    32.007629204    19.933121887     0.489425087    -0.066333494     0.077864957
   48    20.733336070    33.664479071    10.854223979     0.487573786    -0.090517669     0.063862000
   49    13.972802508    35.516637679    11.944118807    -0.493834544     0.011278334    -0.077461231
   50    17.127562532    39.590724014    17.065172718     0.485723807    -0.082743838     0.085004944
   51    20.404532636    36.024336393    10.993557603     0.491267882    -0.056734111     0.073736754
   52    20.111985206    39.786718150    11.694736231     0.484717331    -0.077638500     0.094980905
   53    19.381211869    34.466879770    19.617749038     0.489427689    -0.078717571     0.065299937
   54    15.540324101    32.573589058    19.929166776     0.486512077    -0.094303689     0.066429006
   55    13.986547247    40.241898285    12.830573311     0.485448078    -0.088827907     0.080310440
   56    17.097688780    34.234519936    19.794626023     0.490491231    -0.066513717     0.070670207
   57    15.987355299    36.160687640    17.424394680     0.491703146    -0.060900501     0.067224590
   58    14.860315644    30.448819455    17.214724351     0.486504881    -0.081788269     0.081385990
   59    16.512045685    31.927849229    17.929838063     0.488620035    -0.072194421     0.077707317
   60    19.617351604    36.607164389    19.175459312     0.488809015    -0.075407909     0.073344353
   61    19.782228908    31.980660723    20.078869138     0.491658889    -0.056944164     0.070914730
   62    19.613998104    37.496571185    12.513031206     0.492034538    -0.057573964     0.067729254
   63    12.876577407    38.030202703    19.706867164     0.483951905    -0.093124076     0.084370968
   64    14.216536891    39.351894857    10.773686003     0.486307452    -0.080228967     0.084073627
   65    15.343482601    34.078518773    13.620638574     0.397533073    -0.242034639     0.182720250
   66    11.741792177    36.960266223    18.213994521     0.482551568    -0.098512053     0.086251720
   67    18.572775643    32.989170282    18.325790626     0.490657066    -0.075803938     0.059240241
   68    11.735816449    32.519656392    15.425158558     0.498526168     0.005990741    -0.037891569
   21    22.629678850    36.732966450    14.491661303    -0.489274029     0.067013629    -0.078231056
   22    29.961984520    32.116588905    16.531588023     0.498808504    -0.034036507    -0.005620743
   23    29.846058102    39.643914616    17.396427654     0.487750973    -0.076165509     0.079358703
   24    24.792848676    34.531628264    18.224539075     0.491805890    -0.063941419     0.063548892
   25    26.071507486    30.775478547    11.509555146     0.484565411    -0.097770287     0.075082180
   26    22.630733443    31.357856430    18.046700353     0.096457181     0.468146221     0.146748520
   27    21.295356620    33.358114907    13.334903778     0.493472023    -0.075418055     0.028239676
   28    28.288517338    35.796928654    11.604182643     0.492635236    -0.060063180     0.060851779
   29    29.001147159    38.449741557    15.683697469     0.484146759    -0.085725080     0.090846719
   30    27.771113889    39.363402937    12.380742743     0.489152683    -0.075934825     0.070452499
   31    26.283482950    40.327153629    19.395133958     0.487617612    -0.090409303     0.063680627
   32    28.410357839    30.978140866    18.624062460     0.486573868    -0.096683153     0.062435880
   33    21.473581170    38.352467454    16.026279845     0.487701621    -0.083025397     0.072483875
   34    31.070885142    33.337233415    18.744512320     0.408891955     0.217911295    -0.187941579
   35    28.443174353    37.938877680    10.920724820     0.490375586    -0.075309898     0.062130541
   36    27.956942722    32.925637556    16.254795527     0.498370009    -0.036004592     0.018193513
   37    28.462502083    35.538517441    18.191506786     0.489149563    -0.073420345     0.073090065
   38    26.547550273    36.455724212    14.890645532     0.493978321    -0.051488119     0.057744192
   39    28.734056973    36.151064925    14.316171523     0.495657881    -0.043106587     0.049649643
   40    23.500467405    39.169820673    16.863136423     0.487039222    -0.086081161     0.073367775
   41    26.999839449    32.361725237    14.304113536     0.498252661    -0.036668795     0.019992138
   42    21.283949728    38.803312703    13.753147587     0.490978956    -0.060077554     0.073009263
   43    24.821760455    37.388003197    15.897538598     0.493078977    -0.055185405     0.061868354
   44    29.762155664    34.387344586    15.180877431     0.495946961    -0.044233238     0.045607373
   45    25.101586473    39.904052036    15.356702683     0.489097754    -0.070885658     0.075885511
   46    28.193612884    31.582555677    12.656444028     0.497781938    -0.044212847     0.016073771
   47    27.618076914    32.152289416    20.221208757     0.489795313    -0.076195450     0.065534760
   48    30.822992020    33.809139283    11.142310849     0.486559967    -0.094247698     0.066157161
   49    24.062458458    35.661297890    12.232205676    -0.499693889     0.009987095    -0.014362274
   50    27.217218482    39.735384226    17.353259587     0.485750724    -0.083512409     0.084094658
   51    30.494188585    36.168996604    11.281644473     0.490980066    -0.059161439     0.073746179
   52    30.201641155    39.931378362    11.982823101     0.484125139    -0.076548885     0.098808491
   53    29.470867819    34.611539981    19.905835907     0.488005050    -0.083762510     0.069533541
   54    25.629980051    32.718249269    20.217253646     0.486016568    -0.104482948     0.053583669
   55    24.076203197    40.386558497    13.118660180     0.485368113    -0.083829492     0.085967499
   56    27.187344730    34.379180147    20.082712893     0.490347596    -0.075428072     0.062208048
   57    26.077011248    36.305347851    17.712481549     0.491369533    -0.066814078     0.063967657
   58    24.949971594    30.593479667    17.502811220     0.487033928    -0.096279148     0.059399312
   59    26.601701635    32.072509441    18.217924933     0.489121838    -0.085362977     0.058932077
   60    29.707007554    36.751824601    19.463546182     0.488368403    -0.078689298     0.072830603
   61    29.871884858    32.125320935    20.366956008     0.492849501    -0.064802218     0.053852039
   62    29.703654053    37.641231397    12.801118076     0.491579097    -0.059828860     0.069068800
   63    22.966233357    38.174862914    19.994954033     0.485176720    -0.084744583     0.086150487
   64    24.306192841    39.496555068    11.061772872     0.486193548    -0.074428318     0.089868012
   65    25.433138551    34.223178984    13.908725443     0.341998216    -0.209230168     0.298764049
   66    21.831448126    37.104926435    18.502081391     0.483943877    -0.089465799     0.088284737
   67    28.662431593    33.133830494    18.613877495     0.489711636    -0.085095987     0.054232705
   68    21.825472399    32.664316604    15.713245428     0.492919555     0.028089805     0.079001742
   21    32.719334800    36.877626662    14.779748173    -0.489279828     0.067519314    -0.077758549
   22    40.051640470    32.261249116    16.819674893     0.493119086     0.009281104     0.082142731
   23    39.935714052    39.788574828    17.684514524     0.488490840    -0.081607869     0.068679366
   24    34.882504626    34.676288476    18.512625944     0.491685649    -0.065118374     0.063283649
   25    36.161163436    30.920138759    11.797642015     0.484944239    -0.089929790     0.082107966
   26    32.720389393    31.502516641    18.334787223    -0.125905993     0.349915193    -0.334226029
   27    31.385012570    33.502775119    13.622990648     0.490914826    -0.071864994     0.061952046
   28    38.378173288    35.941588866    11.892269512     0.493763650    -0.057081184     0.054214356
   29    39.090803109    38.594401768    15.971784338     0.485455285    -0.089366014     0.079667320
   30    37.860769839    39.508063149    12.668829613     0.490502002    -0.075146442     0.061325347
   31    36.373138900    40.471813841    19.683220828     0.488284828    -0.089635845     0.059525978
   32    38.500013789    31.122801078    18.912149330     0.485516585    -0.094175257     0.073516437
   33    31.563237120    38.497127665    16.314366715     0.488126481    -0.083542103     0.068943855
   34    41.160541091    33.481893626    19.032599190     0.375743783     0.316242701     0.093846488
   35    38.532830303    38.083537892    11.208811689     0.491261918    -0.073002092     0.057727140
   36    38.046598671    33.070297768    16.542882397     0.494997449    -0.010020075     0.069836403
   37    38.552158033    35.683177653    18.479593655     0.489052180    -0.078781358     0.067981341
   38    36.637206222    36.600384423    15.178732402     0.494597402    -0.049799687     0.053790343
   39    38.823712923    36.295725137    14.604258392     0.496399923    -0.038535247     0.045849226
   40    33.590123355    39.314480885    17.151223293     0.487938246    -0.086420220     0.066691929
   41    37.089495398    32.506385449    14.592200406     0.495912592    -0.013592818     0.062337279
   42    31.373605678    38.947972915    14.041234456     0.490959830    -0.061133312     0.072257618
   43    34.911416405    37.532663409    16.185625467     0.493685594    -0.054134262     0.057827463
   44    39.851811613    34.532004798    15.468964301     0.496853603    -0.036570077     0.042416108
   45    35.191242423    40.048712247    15.644789552     0.489929669    -0.070391645     0.070809153
   46    38.283268834    31.727215888    12.944530897     0.496804357    -0.024086249     0.051041981
   47    37.707732864    32.296949627    20.509295627     0.488414377    -0.077568192     0.073719552
   48    40.912647970    33.953799495    11.430397718     0.487752543    -0.090367639     0.062698854
   49    34.152114407    35.805958102    12.520292546    -0.492390158     0.019862548    -0.084601485
   50    37.306874432    39.880044438    17.641346457     0.486619694    -0.083232197     0.079206535
   51    40.583844535    36.313656816    11.569731342     0.491902705    -0.056951799     0.069196976
   52    40.291297105    40.076038574    12.270909971     0.486025599    -0.074616804     0.090617051
   53    39.560523769    34.756200193    20.193922777     0.488194083    -0.091237761     0.057811835
   54    35.719636001    32.862909481    20.505340516     0.484994423    -0.106021336     0.059496944
   55    34.165859147    40.531218708    13.406747050     0.486366826    -0.084222798     0.079710921
   56    37.277000680    34.523840359    20.370799763     0.489636786    -0.077799024     0.064831546
   57    36.166667198    36.450008063    18.000568419     0.491411391    -0.068327643     0.062017565
   58    35.039627543    30.738139878    17.790898090     0.485615577    -0.089936963     0.078031110
   59    36.691357584    32.217169652    18.506011802     0.487914709    -0.080683033     0.073685040
   60    39.796663504    36.896484812    19.751633051     0.488043784    -0.086283944     0.066093462
   61    39.961540808    32.269981147    20.655042877     0.490779801    -0.067811641     0.067355536
   62    39.793310003    37.785891608    13.089204945     0.492691692    -0.058439489     0.061965498
   63    33.055889307    38.319523126    20.283040903     0.485124142    -0.088266800     0.082846477
   64    34.395848791    39.641215280    11.349859742     0.487168678    -0.074950747     0.083958711
   65    35.522794500    34.367839196    14.196812313     0.442605178    -0.128164545     0.194099217
   66    31.921104076    37.249586647    18.790168261     0.483771748    -0.092461573     0.086114770
   67    38.752087543    33.278490706    18.901964365     0.489534885    -0.086374973     0.053804837
   68    31.915128349    32.808976816    16.001332297     0.497966649    -0.016415998    -0.041949149
   21     2.332011708     6.400501200    23.835596655    -0.490215636     0.072003451    -0.067112843
   22     9.664317379     1.784123655    25.875523375     0.499292307    -0.015498171     0.021610163
   23     9.548390960     9.311449367    26.740363006     0.488860988    -0.075982950     0.072398385
   24     4.495181534     4.199163015    27.568474427     0.491500523    -0.068386781     0.061241193
   25     5.773840344     0.443013297    20.853490498     0.484783745    -0.093195512     0.079368234
   26     2.333066301     1.025391180    27.390635705    -0.113869615     0.376727729    -0.308398977
   27     0.997689478     3.025649657    22.678839130     0.493124612    -0.072083436     0.040399199
   28     7.990850196     5.464463404    20.948117995     0.493661179    -0.055900145     0.056336612
   29     8.703480017     8.117276307    25.027632821     0.485724982    -0.084210194     0.083545707
   30     7.473446747     9.030937687    21.724678095     0.490863631    -0.071415768     0.062870377
   31     5.985815809     9.994688379    28.739069310     0.487895474    -0.091447171     0.059961830
   32     8.112690697     0.645675616    27.967997812     0.485541943    -0.097919111     0.068270559
   33     1.175914029     8.020002204    25.370215197     0.488766305    -0.087037098     0.059430992
   34    10.773218000     3.004768165    28.088447672     0.414104970     0.261722978    -0.100090743
   35     8.145507211     7.606412431    20.264660171     0.491420584    -0.070963473     0.058906662
   36     7.659275580     2.593172306    25.598730879     0.498263782    -0.024687234     0.033522292
   37     8.164834941     5.206052191    27.535442138     0.488569234    -0.080640432     0.069261999
   38     6.249883131     6.123258962    24.234580884     0.494582321    -0.052088276     0.051721748
   39     8.436389831     5.818599676    23.660106875     0.496323314    -0.040556619     0.044925810
   40     3.202800263     8.837355423    26.207071775     0.488187892    -0.088799981     0.061539791
   41     6.702172307     2.029259987    23.648048888     0.498265253    -0.026093515     0.032417066
   42     0.986282586     8.470847453    23.097082939     0.492292536    -0.063827037     0.059784347
   43     4.524093314     7.055537947    25.241473950     0.493731718    -0.056467224     0.055140219
   44     9.464488522     4.054879336    24.524812783     0.496673768    -0.040651112     0.040775674
   45     4.803919332     9.571586786    24.700638035     0.490212816    -0.071840456     0.067307831
   46     7.895945742     1.250090427    22.000379380     0.498075359    -0.034812263     0.026627857
   47     7.320409772     1.819824166    29.565144109     0.488703003    -0.079763697     0.069333450
   48    10.525324878     3.476674033    20.486246201     0.487573021    -0.089703710     0.065006107
   49     3.764791316     5.328832640    21.576141028    -0.493697711     0.039067372    -0.068820861
   50     6.919551340     9.402918976    26.697194939     0.486398864    -0.084618550     0.079093905
   51    10.196521444     5.836531355    20.625579825     0.491913647    -0.055509202     0.070282948
   52     9.903974014     9.598913112    21.326758453     0.486229664    -0.071781280     0.091805020
   53     9.173200677     4.279074732    29.249771259     0.487190249    -0.092450919     0.064019442
   54     5.332312909     2.385784020    29.561188998     0.484821891    -0.108801567     0.055766951
   55     3.778536055    10.054093247    22.462595532     0.487318092    -0.082313840     0.075799135
   56     6.889677588     4.046714898    29.426648245     0.489435828    -0.080369895     0.063192168
   57     5.779344107     5.972882602    27.056416901     0.491225631    -0.071095967     0.060355137
   58     4.652304452     0.261014417    26.846746572     0.485558305    -0.094197328     0.073211994
   59     6.304034493     1.740044191    27.561860285     0.488013006    -0.085180213     0.067732098
   60     9.409340412     6.419359351    28.807481534     0.487538086    -0.087319889     0.068424057
   61     9.574217716     1.792855685    29.710891360     0.491728640    -0.068933771     0.058745895
   62     9.405986912     7.308766147    22.145053428     0.492701593    -0.056890948     0.063313191
   63     2.668566215     7.842397665    29.338889385     0.485157211    -0.092653950     0.077702810
   64     4.008525699     9.164089819    20.405708224     0.488304868    -0.072507748     0.079378725
   65     5.135471409     3.890713734    23.252660795     0.436797431    -0.173990427     0.170103896
   66     1.533780985     6.772461185    27.846016743     0.484040494    -0.096791995     0.079599683
   67     8.364764451     2.801365244    27.957812847     0.488962388    -0.089555430     0.053810856
   68     1.527805257     2.331851354    25.057180780     0.499337903     0.012754091    -0.022338119
   21    12.421667658     6.545161412    24.123683524    -0.489832893     0.065874560    -0.075658969
   22    19.753973328     1.928783866    26.163610245     0.499767649    -0.012457962     0.008780466
   23    19.638046910     9.456109578    27.028449876     0.488434917    -0.077643354     0.073504024
   24    14.584837484     4.343823226    27.856561296     0.492103685    -0.062771648     0.062399383
   25    15.863496294     0.587673509    21.141577367     0.485826043    -0.085937245     0.081165545
   26    12.422722251     1.170051392    27.678722575    -0.085734545     0.411166375    -0.271278085
   27    11.087345428     3.170309869    22.966926000     0.492452616    -0.074961739     0.043256891
   28    18.080506146     5.609123616    21.236204864     0.494371809    -0.051717512     0.054053800
   29    18.793135967     8.261936519    25.315719690     0.485518527    -0.085071926     0.083872089
   30    17.563102697     9.175597899    22.012764964     0.491077532    -0.069334593     0.063526147
   31    16.075471758    10.139348591    29.027156180     0.487966841    -0.089656110     0.062049529
   32    18.202346647     0.790335828    28.256084682     0.486601378    -0.093568819     0.066812983
   33    11.265569978     8.164662416    25.658302067     0.488597300    -0.082974054     0.066241868
   34    20.862873950     3.149428376    28.376534542     0.401524286     0.260717586    -0.144237957
   35    18.235163161     7.751072642    20.552747041     0.491977735    -0.067600546     0.058207168
   36    17.748931530     2.737832518    25.886817749     0.498901123    -0.019896887     0.026491186
   37    18.254490891     5.350712403    27.823529007     0.489076045    -0.076254675     0.070638847
   38    16.339539081     6.267919174    24.522667754     0.494872895    -0.047200999     0.053599282
   39    18.526045781     5.963259887    23.948193744     0.496677711    -0.035648514     0.045171174
   40    13.292456213     8.982015635    26.495158645     0.488124082    -0.085573848     0.066422864
   41    16.791828257     2.173920199    23.936135758     0.498838583    -0.020539026     0.027170143
   42    11.075938536     8.615507665    23.385169808     0.491805346    -0.059293106     0.067910448
   43    14.613749263     7.200198159    25.529560819     0.493967515    -0.051670613     0.057673576
   44    19.554144472     4.199539548    24.812899653     0.497090547    -0.035465150     0.040536543
   45    14.893575281     9.716246998    24.988724904     0.490152610    -0.068430813     0.071187376
   46    17.985601692     1.394750638    22.288466249     0.498635366    -0.028755934     0.023148823
   47    17.410065722     1.964484377    29.853230979     0.489430267    -0.077741954     0.066439460
   48    20.614980828     3.621334245    20.774333070     0.489165955    -0.085853028     0.057843978
   49    13.854447266     5.473492852    21.864227898    -0.481416000     0.016391043    -0.134052113
   50    17.009207290     9.547579188    26.985281809     0.486331552    -0.082292804     0.081911634
   51    20.286177393     5.981191566    20.913666694     0.492403729    -0.051875036     0.069624337
   52    19.993629963     9.743573324    21.614845323     0.486490269    -0.068772988     0.092722673
   53    19.262856627     4.423734943    29.537858129     0.487687182    -0.088521689     0.065765668
   54    15.421968859     2.530444231    29.849275868     0.485627418    -0.105585527     0.054933666
   55    13.868192005    10.198753458    22.750682402     0.486853355    -0.080366778     0.080715498
   56    16.979333538     4.191375109    29.714735115     0.490127473    -0.076498307     0.062634407
   57    15.869000056     6.117542813    27.344503771     0.491791952    -0.065653910     0.061888931
   58    14.741960402     0.405674629    27.134833442     0.486376033    -0.090466809     0.072485246
   59    16.393690443     1.884704402    27.849947154     0.488874352    -0.080917471     0.066740027
   60    19.498996362     6.564019562    29.095568403     0.487873230    -0.083679034     0.070551614
   61    19.663873666     1.937515897    29.998978229     0.492415823    -0.067413879     0.054607935
   62    19.495642861     7.453426359    22.433140297     0.493066714    -0.053428481     0.063487110
   63    12.758222165     7.987057876    29.626976255     0.484326694    -0.094715465     0.080353184
   64    14.098181649     9.308750030    20.693795094     0.487653876    -0.070821872     0.084722840
   65    15.225127359     4.035373946    23.540747665     0.455637300    -0.167076821     0.120332818
   66    11.623436934     6.917121397    28.134103612     0.483043562    -0.099081059     0.082775968
   67    18.454420401     2.946025456    28.245899717     0.489671756    -0.085753561     0.053552757
   68    11.617461207     2.476511566    25.345267649     0.499908256     0.009569568     0.000398427
   21    22.511323608     6.689821624    24.411770394    -0.490340296     0.062758620    -0.075018332
   22    29.843629278     2.073444078    26.451697114     0.499647166     0.009291876     0.016320852
   23    29.727702860     9.600769790    27.316536745     0.485776682    -0.077740619     0.089316357
   24    24.674493434     4.488483438    28.144648166     0.492417705    -0.056496232     0.065825371
   25    25.953152244     0.732333720    21.429664237     0.485978054    -0.084612329     0.081646096
   26    22.512378201     1.314711603    27.966809444    -0.199022076     0.349771783    -0.296732055
   27    21.177001378     3.314970081    23.255012870     0.493164087    -0.067550305     0.047181988
   28    28.170162096     5.753783827    21.524291734     0.493242554    -0.055342198     0.060407149
   29    28.882791917     8.406596730    25.603806560     0.482168171    -0.086153789     0.100455857
   30    27.652758647     9.320258110    22.300851834     0.489153743    -0.073875924     0.072601402
   31    26.165127708    10.284008803    29.315243049     0.486871360    -0.088449840     0.071644295
   32    28.292002597     0.934996040    28.544171552     0.488128370    -0.082815468     0.069801811
   33    21.355225928     8.309322627    25.946388936     0.488445518    -0.081384986     0.069263702
   34    30.952529899     3.294088588    28.664621411     0.376081607     0.305128204    -0.124335851
   35    28.324819111     7.895732854    20.840833911     0.490773107    -0.071171999     0.063845940
   36    27.838587479     2.882492730    26.174904618     0.498849199    -0.006609402     0.033253459
   37    28.344146841     5.495372614    28.111615877     0.489794702    -0.068606211     0.073446158
   38    26.429195030     6.412579385    24.810754623     0.494413895    -0.046559176     0.058199173
   39    28.615701731     6.107920099    24.236280614     0.496078101    -0.037587215     0.049937146
   40    23.382112163     9.126675846    26.783245515     0.487596386    -0.084268849     0.071753226
   41    26.881484206     2.318580410    24.224222628     0.498786621    -0.009761978     0.033415729
   42    21.165594486     8.760167877    23.673256678     0.491977758    -0.056703969     0.068866139
   43    24.703405213     7.344858371    25.817647689     0.493515885    -0.050684421     0.062234719
   44    29.643800421     4.344199759    25.100986522     0.496544877    -0.037224400     0.045359999
   45    24.983231231     9.860907209    25.276811774     0.489266264    -0.068042934     0.077386577
   46    28.075257642     1.539410850    22.576553119     0.498772485    -0.020191761     0.028605970
   47    27.499721672     2.109144589    30.141317848     0.490902996    -0.063574866     0.070515850
   48    30.704636778     3.765994456    21.062419940     0.487772168    -0.088899855     0.064615232
   49    23.944103215     5.618153064    22.152314767    -0.497084710     0.010936126    -0.052793870
   50    27.098863240     9.692239399    27.273368679     0.484906203    -0.081606109     0.090589280
   51    30.375833343     6.125851778    21.201753564     0.491274043    -0.054973373     0.075018281
   52    30.083285913     9.888233536    21.902932192     0.484108893    -0.074378383     0.100530773
   53    29.352512577     4.568395155    29.825944999     0.488931544    -0.079331013     0.068209501
   54    25.511624809     2.675104443    30.137362737     0.487807772    -0.092418899     0.059180444
   55    23.957847955    10.343413670    23.038769271     0.485761754    -0.081156889     0.086308040
   56    27.068989488     4.336035321    30.002821984     0.491301206    -0.065293194     0.066029716
   57    25.958656006     6.262203025    27.632590640     0.491981231    -0.060520054     0.065511767
   58    24.831616351     0.550334840    27.422920312     0.488054492    -0.078763775     0.074827004
   59    26.483346392     2.029364614    28.138034024     0.490147372    -0.069878194     0.069803950
   60    29.588652312     6.708679774    29.383655273     0.488776184    -0.076349207     0.072585403
   61    29.753529616     2.082176108    30.287065099     0.493674610    -0.051459812     0.060309760
   62    29.585298811     7.598086570    22.721227167     0.491816162    -0.056385071     0.070267964
   63    22.847878115     8.131718088    29.915063125     0.484430171    -0.090389861     0.084599540
   64    24.187837599     9.453410242    20.981881964     0.486652207    -0.071519796     0.089747136
   65    25.314783308     4.180034158    23.828834535     0.427365659    -0.151378659     0.210815310
   66    21.713092884     7.061781608    28.422190482     0.483242445    -0.095286659     0.086006930
   67    28.544076351     3.090685667    28.533986586     0.491096014    -0.075160684     0.056352258
   68    21.707117157     2.621171777    25.633354519     0.499486928     0.011472451    -0.019524119
   21    32.600979558     6.834481835    24.699857264    -0.488699596     0.067640490    -0.081224807
   22    39.933285228     2.218104290    26.739783984     0.499819955    -0.012452472     0.004994868
   23    39.817358810     9.745430001    27.604623615     0.488384707    -0.088265393     0.060742066
   24    34.764149383     4.633143649    28.432735035     0.492433208    -0.063452855     0.059019240
   25    36.042808193     0.876993932    21.717751106     0.486479882    -0.087642399     0.075207278
   26    32.602034150     1.459371815    28.254896314    -0.197448471     0.360245706    -0.285021285
   27    31.266657328     3.459630292    23.543099739     0.490719318    -0.081007214     0.051306747
   28    38.259818045     5.898444039    21.812378603     0.494546005    -0.055580434     0.048322507
   29    38.972447867     8.551256942    25.891893429     0.485473921    -0.095905588     0.071534537
   30    37.742414596     9.464918322    22.588938704     0.491201608    -0.075938830     0.054353233
   31    36.254783658    10.428669014    29.603329919     0.488038549    -0.097469571     0.048146211
   32    38.381658547     1.079656251    28.832258421     0.487041146    -0.092277683     0.065389230
   33    31.444881878     8.453982839    26.234475806     0.487789496    -0.084807469     0.069778943
   34    41.042185849     3.438748800    28.952708281     0.400972210     0.262993491    -0.141618187
   35    38.414475061     8.040393065    21.128920780     0.492162509    -0.072168245     0.050673551
   36    37.928243429     3.027152941    26.462991488     0.499096762    -0.020772122     0.021701177
   37    38.433802790     5.640032826    28.399702747     0.489756821    -0.075362475     0.066773898
   38    36.518850980     6.557239597    25.098841493     0.495090097    -0.050501944     0.048325458
   39    38.705357681     6.252580310    24.524367483     0.496926319    -0.039673089     0.038604143
   40    33.471768113     9.271336058    27.071332384     0.487554619    -0.089806827     0.065001749
   41    36.971140156     2.463240622    24.512309497     0.499058462    -0.021759307     0.021614447
   42    31.255250436     8.904828088    23.961343547     0.490709111    -0.059977965     0.074881321
   43    34.793061163     7.489518582    26.105734558     0.494132960    -0.055153230     0.052827443
   44    39.733456371     4.488859971    25.389073392     0.497298902    -0.039136390     0.034090243
   45    35.072887181    10.005567421    25.564898643     0.490241435    -0.073821628     0.064913037
   46    38.164913591     1.684071062    22.864639988     0.498798405    -0.030334029     0.016733146
   47    37.589377621     2.253804801    30.429404718     0.490260751    -0.072322543     0.066436777
   48    40.794292728     3.910654668    21.350506809     0.489082389    -0.086551250     0.057509113
   49    34.033759165     5.762813275    22.440401637    -0.462503952     0.022833303    -0.188596751
   50    37.188519189     9.836899611    27.561455548     0.486793215    -0.090803383     0.069188957
   51    40.465489293     6.270511990    21.489840433     0.492897997    -0.056206361     0.062389178
   52    40.172941863    10.032893747    22.191019062     0.486846349    -0.076341199     0.084573365
   53    39.442168527     4.713055366    30.114031868     0.488508716    -0.086109778     0.062803984
   54    35.601280758     2.819764655    30.425449607     0.486524283    -0.101528106     0.054645821
   55    34.047503904    10.488073882    23.326856141     0.487126984    -0.085075986     0.073955242
   56    37.158645437     4.480695532    30.290908854     0.490723464    -0.073614079     0.061412130
   57    36.048311956     6.406863237    27.920677510     0.492083810    -0.066989493     0.058016652
   58    34.921272301     0.694995052    27.711007181     0.487256613    -0.086627937     0.071250219
   59    36.573002342     2.174024826    28.426120893     0.489443764    -0.078570136     0.065356988
   60    39.678308261     6.853339986    29.671742142     0.488720807    -0.082585658     0.065814752
   61    39.843185566     2.226836320    30.575151969     0.493228526    -0.060718025     0.055126606
   62    39.674954761     7.742746782    23.009314036     0.493368781    -0.058984934     0.055749648
   63    32.937534065     8.276378300    30.203149994     0.485689839    -0.087912632     0.079854553
   64    34.277493549     9.598070453    21.269968833     0.488027313    -0.074953396     0.078811993
   65    35.404439258     4.324694369    24.116921404     0.432294841    -0.129684983     0.215181263
   66    31.802748834     7.206441820    28.710277352     0.484211796    -0.091782031     0.084350433
   67    38.633732300     3.235345879    28.822073456     0.490288262    -0.083530210     0.051382142
   68    31.796773107     2.765831989    25.921441389     0.498116785     0.042266154    -0.009656114
   21     2.467087179    16.425594721    23.866222078    -0.491073078     0.068759197    -0.064182588
   22     9.799392850    11.809217176    25.906148799     0.498544525     0.024749500     0.028996877
   23     9.683466431    19.336542888    26.770988430     0.489667712    -0.080098765     0.061722923
   24     4.630257005    14.224256536    27.599099850     0.493008296    -0.061514693     0.056202872
   25     5.908915815    10.468106818    20.884115921     0.487132285    -0.083392597     0.075814324
   26     2.468141772    11.050484701    27.421261129    -0.067334135     0.381234447    -0.316427576
   27     1.132764949    13.050743178    22.709464554     0.493171471    -0.073090078     0.037943910
   28     8.125925667    15.489556925    20.978743418     0.494907992    -0.049800932     0.050852207
   29     8.838555488    18.142369828    25.058258244     0.486916620    -0.087348495     0.072680432
   30     7.608522218    19.056031208    21.755303518     0.491736806    -0.069288631     0.058258040
   31     6.120891280    20.019781900    28.769694734     0.489002291    -0.092926955     0.047342802
   32     8.247766168    10.670769137    27.998623236     0.487680458    -0.089445316     0.064554677
   33     1.310989500    18.045095725    25.400840621     0.489090556    -0.084735699     0.060085686
   34    10.908293471    13.029861686    28.119073096     0.359846377     0.341519471    -0.062249785
   35     8.280582682    17.631505952    20.295285595     0.492763757    -0.065991858     0.053187914
   36     7.794351051    12.618265827    25.629356302     0.498647798     0.003136199     0.036613352
   37     8.299910412    15.231145712    27.566067561     0.490148371    -0.075237068     0.063984043
   38     6.384958602    16.148352483    24.265206308     0.495716230    -0.045908863     0.046452081
   39     8.571465302    15.843693197    23.690732298     0.497355744    -0.033281467     0.039110203
   40     3.337875734    18.862448944    26.237697199     0.488659165    -0.087697949     0.059340461
   41     6.837247778    12.054353508    23.678674312     0.498804170    -0.000830380     0.034550110
   42     1.121358057    18.495940974    23.127708362     0.492346813    -0.061539387     0.061705102
   43     4.659168785    17.080631468    25.272099373     0.494855459    -0.051245998     0.049919162
   44     9.599563993    14.079972857    24.555438207     0.497781334    -0.031722843     0.034747736
   45     4.938994803    19.596680307    24.731263458     0.491208168    -0.070238441     0.061490622
   46     8.031021213    11.275183948    22.031004803     0.499075968    -0.012228600     0.027814377
   47     7.455485243    11.844917687    29.595769533     0.490246059    -0.073068940     0.065724666
   48    10.660400349    13.501767554    20.516871624     0.489636086    -0.082215833     0.059135947
   49     3.899866787    15.353926161    21.606766452    -0.495367898     0.042001673     0.053352647
   50     7.054626811    19.428012497    26.727820363     0.487774471    -0.086181898     0.068181711
   51    10.331596915    15.861624876    20.656205248     0.493262624    -0.050209512     0.064583193
   52    10.039049485    19.624006633    21.357383877     0.487334335    -0.069570820     0.087550825
   53     9.308276148    14.304168253    29.280396683     0.488880744    -0.087884700     0.057200502
   54     5.467388380    12.410877541    29.591814422     0.486779026    -0.101672127     0.052047654
   55     3.913611526    20.079186768    22.493220956     0.488008710    -0.081276729     0.072398840
   56     7.024753059    14.071808419    29.457273669     0.491028139    -0.073882366     0.058589786
   57     5.914419578    15.997976123    27.087042325     0.492706855    -0.064707903     0.055252529
   58     4.787379923    10.286107938    26.877371996     0.487357429    -0.087361897     0.069646504
   59     6.439109964    11.765137712    27.592485708     0.489894990    -0.076743303     0.064135516
   60     9.544415883    16.444452872    28.838106957     0.488962906    -0.083139761     0.063269714
   61     9.709293187    11.817949206    29.741516783     0.492908184    -0.061259458     0.057348067
   62     9.541062383    17.333859668    22.175678851     0.493856514    -0.052357690     0.058003589
   63     2.803641686    17.867491186    29.369514809     0.485817275    -0.092671529     0.073440880
   64     4.143601170    19.189183340    20.436333648     0.488878916    -0.071711337     0.076517250
   65     5.270546880    13.915807255    23.283286219     0.412990991    -0.149880646     0.238692759
   66     1.668856456    16.797554706    27.876642166     0.484569300    -0.096749016     0.076368980
   67     8.499839922    12.826458765    27.988438271     0.490895867    -0.081861319     0.048166090
   68     1.662880728    12.356944875    25.087806203     0.498963755    -0.003970928    -0.031928095
   21    12.556743129    16.570254933    24.154308948    -0.490750019     0.063871404    -0.071308221
   22    19.889048799    11.953877388    26.194235668     0.499631747     0.001774374     0.019104160
   23    19.773122381    19.481203099    27.059075299     0.488847788    -0.071454070     0.076955544
   24    14.719912955    14.368916747    27.887186720     0.492441464    -0.058409212     0.063951301
   25    15.998571765    10.612767030    21.172202791     0.486652091    -0.081978990     0.080306837
   26    12.557797722    11.195144913    27.709347998    -0.236115081     0.382011899    -0.219810322
   27    11.222420899    13.195403390    22.997551424     0.492752587    -0.078918743     0.031092128
   28    18.215581617    15.634217137    21.266830288     0.494277460    -0.044427164     0.060959167
   29    18.928211438    18.287030040    25.346345114     0.485822416    -0.078558056     0.088347110
   30    17.698178168    19.200691420    22.043390388     0.491161025    -0.063706679     0.068573369
   31    16.210547229    20.164442112    29.057781603     0.488179112    -0.085280717     0.066395438
   32    18.337422118    10.815429349    28.286710106     0.487398034    -0.088837028     0.067462131
   33    11.400645449    18.189755937    25.688927490     0.489479577    -0.080491306     0.062696833
   34    20.997949421    13.174521897    28.407159965     0.399601186     0.277520742    -0.115330526
   35    18.370238632    17.776166163    20.583372465     0.492247868    -0.061254741     0.062768567
   36    17.884007001    12.762926039    25.917443172     0.498823847    -0.008800045     0.033125951
   37    18.389566362    15.375805924    27.854154431     0.489170831    -0.074041282     0.072317263
   38    16.474614552    16.293012695    24.553293177     0.495103048    -0.041066835     0.056448980
   39    18.661121252    15.988353408    23.978819168     0.496783174    -0.028428542     0.048972400
   40    13.427531684    19.007109156    26.525784069     0.488870335    -0.081572661     0.065967392
   41    16.926903728    12.199013720    23.966761181     0.498895024    -0.010287492     0.031589917
   42    11.211014007    18.640601186    23.415795232     0.492897060    -0.056561761     0.062074594
   43    14.748824734    17.225291680    25.560186243     0.494275875    -0.046022105     0.059777301
   44    19.689219943    14.224633069    24.843525076     0.497240827    -0.027028694     0.044955642
   45    15.028650752    19.741340519    25.019350328     0.490596449    -0.063674219     0.072530811
   46    18.120677163    11.419844159    22.319091673     0.498937957    -0.019352225     0.026199359
   47    17.545141193    11.989577899    29.883856402     0.489870812    -0.073777046     0.067701812
   48    20.750056299    13.646427766    20.804958494     0.489414657    -0.075037966     0.069588774
   49    13.989522737    15.498586373    21.894853321    -0.483533437     0.050510983    -0.116807773
   50    17.144282761    19.572672709    27.015907233     0.486447609    -0.077997348     0.085353017
   51    20.421252864    16.006285087    20.944292118     0.492450501    -0.045279832     0.073771542
   52    20.128705434    19.768666845    21.645470746     0.486218734    -0.063933168     0.097487909
   53    19.397932098    14.448828464    29.568483553     0.487889756    -0.086517625     0.066919999
   54    15.557044330    12.555537752    29.879901291     0.486536226    -0.100677287     0.056094428
   55    14.003267476    20.223846979    22.781307825     0.487497759    -0.075069487     0.081917683
   56    17.114409009    14.216468630    29.745360538     0.490582167    -0.072601903     0.063703228
   57    16.004075527    16.142636334    27.375129194     0.492103957    -0.061390936     0.063756166
   58    14.877035873    10.430768150    27.165458866     0.487812043    -0.084222013     0.070328253
   59    16.528765914    11.909797924    27.880572578     0.489843274    -0.075108236     0.066425295
   60    19.634071833    16.589113083    29.126193827     0.487753137    -0.082682753     0.072528890
   61    19.798949137    11.962609418    30.029603653     0.492591029    -0.063870116     0.057224879
   62    19.630718332    17.478519880    22.463765721     0.493158527    -0.047201522     0.067577244
   63    12.893297636    18.012151397    29.657601678     0.485035501    -0.092041246     0.079176840
   64    14.233257120    19.333843551    20.724420518     0.488290525    -0.065427068     0.085391228
   65    15.360202830    14.060467467    23.571373089     0.444234138    -0.228909246     0.016018354
   66    11.758512405    16.942214918    28.164729036     0.484146212    -0.095880262     0.080058861
   67    18.589495872    12.971118977    28.276525140     0.490242052    -0.081702348     0.054657632
   68    11.752536678    12.501605087    25.375893073     0.495561628     0.064758020     0.015002378
   21    22.646399079    16.714915145    24.442395818    -0.490342326     0.062088992    -0.075560309
   22    29.978704749    12.098537599    26.482322538     0.491587372     0.003825171     0.091253621
   23    29.862778331    19.625863311    27.347162169     0.488526154    -0.083075592     0.066638151
   24    24.809568905    14.513576959    28.175273589     0.492199899    -0.060760918     0.063618943
   25    26.088227715    10.757427241    21.460289660     0.484755375    -0.085040260     0.088206468
   26    22.647453672    11.339805124    27.997434868    -0.065890165     0.378234654    -0.320307716
   27    21.312076849    13.340063602    23.285638293     0.493838571    -0.059510482     0.050813071
   28    28.305237567    15.778877348    21.554917157     0.494001288    -0.056688950     0.052431770
   29    29.017867388    18.431690251    25.634431983     0.485313551    -0.091980729     0.077526144
   30    27.787834118    19.345351631    22.331477258     0.490364741    -0.076776352     0.060397121
   31    26.300203179    20.309102324    29.345868473     0.488479340    -0.088942261     0.058967865
   32    28.427078068    10.960089561    28.574796975     0.486268722    -0.087810193     0.076368186
   33    21.490301399    18.334416148    25.977014360     0.489037911    -0.079388058     0.067375500
   34    31.087605370    13.319182109    28.695246835     0.394177256     0.276801472     0.134183592
   35    28.459894582    17.920826375    20.871459334     0.491363777    -0.073159898     0.056650400
   36    27.973662950    12.907586251    26.205530042     0.494038259    -0.012703089     0.075926481
   37    28.479222312    15.520466135    28.142241300     0.489903777    -0.073760439     0.067481012
   38    26.564270501    16.437672906    24.841380047     0.494784410    -0.048393012     0.053352642
   39    28.750777202    16.133013620    24.266906037     0.496430681    -0.038554239     0.045498892
   40    23.517187634    19.151769367    26.813870938     0.488447870    -0.084381469     0.065562533
   41    27.016559677    12.343673931    24.254848051     0.495049050    -0.015436889     0.068469997
   42    21.300669957    18.785261398    23.703882101     0.492241989    -0.052189018     0.070527518
   43    24.838480684    17.369951892    25.848273112     0.493954386    -0.052242949     0.057269004
   44    29.778875892    14.369293280    25.131611946     0.496825792    -0.036789335     0.042552051
   45    25.118306702    19.886000730    25.307437197     0.490338565    -0.068244395     0.070077057
   46    28.210333113    11.564504371    22.607178542     0.496055658    -0.025601075     0.057213365
   47    27.634797143    12.134238110    30.171943272     0.489243045    -0.069689598     0.076056579
   48    30.839712249    13.791087977    21.093045363     0.488766949    -0.088353717     0.057449898
   49    24.079178686    15.643246585    22.182940191    -0.492962755     0.022242515    -0.080579111
   50    27.233938711    19.717332920    27.303994102     0.486865900    -0.082341111     0.078622752
   51    30.510908814    16.150945299    21.232378987     0.492077944    -0.057098650     0.067816234
   52    30.218361384    19.913327057    21.933557616     0.485711079    -0.077753757     0.089661033
   53    29.487588048    14.593488676    29.856570422     0.489472900    -0.084434211     0.057333618
   54    25.646700280    12.700197964    30.167988161     0.485837466    -0.099858563     0.063168224
   55    24.092923426    20.368507191    23.069394695     0.486829674    -0.081613182     0.079599979
   56    27.204064959    14.361128842    30.033447408     0.490424724    -0.071061171     0.066587536
   57    26.093731477    16.287296546    27.663216064     0.491947647    -0.064437162     0.061930319
   58    24.966691823    10.575428361    27.453545735     0.486082104    -0.084243157     0.081408100
   59    26.618421863    12.054458135    28.168659447     0.488288342    -0.075134004     0.077002444
   60    29.723727783    16.733773295    29.414280696     0.489024688    -0.081430412     0.064991861
   61    29.888605087    12.107269629    30.317690523     0.491410156    -0.060380583     0.069787133
   62    29.720374282    17.623180091    22.751852590     0.492787240    -0.058868753     0.060788203
   63    22.982953586    18.156811609    29.945688548     0.484925247    -0.091017389     0.081014439
   64    24.322913070    19.478503763    21.012507387     0.487656390    -0.071661433     0.083999309
   65    25.449858780    14.205127679    23.859459958     0.420242094    -0.128874025     0.238302472
   66    21.848168355    17.086875129    28.452815906     0.483559137    -0.095018596     0.084510514
   67    28.679151822    13.115779188    28.564612010     0.490499138    -0.079794279     0.055167646
   68    21.842192628    12.646265298    25.663979942     0.499186067     0.028208924    -0.004186585
   21    32.736055029    16.859575356    24.730482687    -0.489913406     0.073321659    -0.067888064
   22    40.068360699    12.243197811    26.770409407     0.499392157    -0.024477563    -0.002884857
   23    39.952434281    19.770523523    27.635249039     0.487866952    -0.078103843     0.076717838
   24    34.899224854    14.658237170    28.463360459     0.492825849    -0.066119208     0.052449332
   25    36.177883664    10.902087453    21.748376530     0.487224439    -0.088321045     0.069366702
   26    32.737109622    11.484465336    28.285521738     0.042505865     0.477292973     0.142774892
   27    31.401732799    13.484723813    23.573725163     0.493608456    -0.078571924     0.013309588
   28    38.394893516    15.923537560    21.843004027     0.494582991    -0.057447601     0.045688487
   29    39.107523338    18.576350463    25.922518853     0.484782168    -0.087063230     0.086059535
   30    37.877490067    19.490011843    22.619564127     0.490667762    -0.075885929     0.059046367
   31    36.389859129    20.453762535    29.633955342     0.487644386    -0.091841714     0.061384464
   32    38.516734018    11.104749772    28.862883845     0.487531397    -0.096488836     0.054800014
   33    31.579957349    18.479076360    26.265101230     0.488519813    -0.087122890     0.061302484
   34    41.177261320    13.463842321    28.983333704     0.413220908     0.233605988    -0.157088267
   35    38.549550532    18.065486586    21.159546204     0.492115683    -0.073060255     0.049843288
   36    38.063318900    13.052246462    26.493616911     0.498909465    -0.029422464     0.014955397
   37    38.568878261    15.665126347    28.430328170     0.490064462    -0.077135769     0.062344980
   38    36.653926451    16.582333118    25.129466916     0.495218293    -0.052124792     0.045186814
   39    38.840433152    16.277673831    24.554992907     0.496912042    -0.042114562     0.036121820
   40    33.606843584    19.296429579    27.101957808     0.487945754    -0.089974854     0.061753270
   41    37.106215627    12.488334143    24.542934921     0.498855937    -0.030024842     0.015532652
   42    31.390325907    18.929921609    23.991968971     0.491818355    -0.063528434     0.063865829
   43    34.928136634    17.514612103    26.136359982     0.494289188    -0.056537346     0.049816934
   44    39.868531842    14.513953492    25.419698815     0.497206117    -0.042510984     0.031287279
   45    35.207962652    20.030660942    25.595524067     0.490069669    -0.073163065     0.066924474
   46    38.299989062    11.709164583    22.895265412     0.498494850    -0.036973998     0.011653686
   47    37.724453093    12.278898322    30.460030141     0.490685805    -0.077476914     0.056787043
   48    40.929368199    13.935748189    21.381132233     0.489292956    -0.091270062     0.047562367
   49    34.168834636    15.787906796    22.471027061    -0.493303006     0.075418660    -0.031051092
   50    37.323594660    19.861993132    27.592080972     0.486072905    -0.085601025     0.080034964
   51    40.600564764    16.295605511    21.520465857     0.492917409    -0.057396618     0.061139642
   52    40.308017334    20.057987268    22.221644485     0.486495232    -0.076870114     0.086100957
   53    39.577243998    14.738148888    30.144657292     0.488815245    -0.087734979     0.057984734
   54    35.736356229    12.844858176    30.456075030     0.486668490    -0.105961521     0.043885495
   55    34.182579375    20.513167403    23.357481564     0.486498025    -0.086381466     0.076537014
   56    37.293720908    14.505789054    30.321534277     0.491186045    -0.077494323     0.052258005
   57    36.183387427    16.431956758    27.951302933     0.492440029    -0.068859973     0.052546375
   58    35.056347772    10.720088573    27.741632605     0.488007243    -0.095165953     0.052842904
   59    36.708077813    12.199118347    28.456746317     0.490078128    -0.084758859     0.051374745
   60    39.813383732    16.878433507    29.702367566     0.488925424    -0.083705230     0.062812138
   61    39.978261037    12.251929841    30.605777392     0.493486231    -0.066357885     0.045474947
   62    39.810030232    17.767840303    23.039939460     0.493273395    -0.059060010     0.056509052
   63    33.072609536    18.301471821    30.233775418     0.485330234    -0.092813166     0.076421728
   64    34.412569020    19.623163974    21.300594257     0.487468045    -0.076525298     0.080738983
   65    35.539514729    14.349787890    24.147546828     0.322104316    -0.366065319     0.110657093
   66    31.937824305    17.231535341    28.740902775     0.484234740    -0.096407011     0.078882224
   67    38.768807772    13.260439400    28.852698879     0.490442863    -0.086597446     0.044347272
   68    31.931848578    12.790925510    25.952066812     0.487264025     0.032924338     0.107190287
   21     2.602162650    26.450688242    23.896847502    -0.488705588     0.074472386    -0.074971411
   22     9.934468321    21.834310697    25.936774222     0.499994243    -0.001503049    -0.001870369
   23     9.818541902    29.361636409    26.801613853     0.487040714    -0.089989736     0.068506865
   24     4.765332476    24.249350057    27.629725274     0.492369819    -0.066528102     0.056088975
   25     6.043991286    20.493200339    20.914741345     0.487398691    -0.083080350     0.074432327
   26     2.603217243    21.075578222    27.451886552    -0.235293313     0.425738432     0.115688565
   27     1.267840420    23.075836699    22.740089977     0.491360025    -0.090565907     0.019056299
   28     8.261001138    25.514650446    21.009368842     0.493672481    -0.057986504     0.054083699
   29     8.973630959    28.167463349    25.088883668     0.483772262    -0.098346343     0.079324618
   30     7.743597689    29.081124729    21.785928942     0.489818438    -0.079839690     0.060856564
   31     6.255966751    30.044875421    28.800320157     0.486146039    -0.102628399     0.055941403
   32     8.382841639    20.695862658    28.029248660     0.488418261    -0.091635674     0.055231379
   33     1.446064971    28.070189246    25.431466044     0.486811746    -0.092043733     0.067396405
   34    11.043368942    23.054955207    28.149698519     0.383037943     0.280936968    -0.156065226
   35     8.415658154    27.656599473    20.325911019     0.491098485    -0.074679232     0.056967449
   36     7.929426522    22.643359348    25.659981726     0.499459044    -0.013881941     0.018653551
   37     8.434985883    25.256239233    27.596692985     0.489441381    -0.077777877     0.066315432
   38     6.520034073    26.173446004    24.295831731     0.494497699    -0.054482108     0.050037240
   39     8.706540773    25.868786718    23.721357722     0.496327642    -0.042723900     0.042819858
   40     3.472951205    28.887542465    26.268322623     0.486154291    -0.095998958     0.066619859
   41     6.972323249    22.079447029    23.709299735     0.499355452    -0.015361535     0.020202871
   42     1.256433528    28.521034495    23.158333786     0.490460016    -0.067219161     0.070217924
   43     4.794244256    27.105724989    25.302724797     0.493440653    -0.059767134     0.054260592
   44     9.734639464    24.105066378    24.586063630     0.496783472    -0.041992571     0.037984285
   45     5.074070274    29.621773828    24.761888882     0.488754402    -0.080233085     0.068423586
   46     8.166096684    21.300277469    22.061630227     0.499147661    -0.024262076     0.016216165
   47     7.590560714    21.870011208    29.626394956     0.490810423    -0.075260783     0.058659554
   48    10.795475820    23.526861075    20.547497048     0.488653333    -0.086326035     0.061365594
   49     4.034942258    25.379019682    21.637391875    -0.495355416    -0.015474054    -0.066208503
   50     7.189702282    29.453106018    26.758445787     0.484742186    -0.095510806     0.076829026
   51    10.466672386    25.886718397    20.686830672     0.491840199    -0.058309787     0.068506839
   52    10.174124956    29.649100154    21.388009300     0.485185919    -0.079624869     0.090854304
   53     9.443351619    24.329261774    29.311022107     0.488257165    -0.088894449     0.060849961
   54     5.602463851    22.435971062    29.622439845     0.486901645    -0.104163503     0.045571405
   55     4.048686997    30.104280289    22.523846379     0.485147001    -0.092515689     0.077930964
   56     7.159828530    24.096901940    29.487899092     0.491163135    -0.076138409     0.054421663
   57     6.049495049    26.023069644    27.117667748     0.491823098    -0.070032685     0.056616814
   58     4.922455394    20.311201459    26.907997420     0.489451813    -0.088590073     0.050879479
   59     6.574185435    21.790231233    27.623111132     0.491033181    -0.079261637     0.051029482
   60     9.679491354    26.469546393    28.868732381     0.488044772    -0.084958811     0.067781272
   61     9.844368658    21.843042727    29.772142207     0.493534297    -0.063640463     0.048721548
   62     9.676137854    27.358953189    22.206304275     0.492399520    -0.061222848     0.061599315
   63     2.938717157    27.892584707    29.400140232     0.484000570    -0.097328083     0.079187702
   64     4.278676641    29.214276861    20.466959072     0.486195968    -0.082663375     0.082342259
   65     5.405622351    23.940900776    23.313911642     0.382697258    -0.161163292     0.278512481
   66     1.803931927    26.822648227    27.907267590     0.482801714    -0.101654801     0.081048173
   67     8.634915393    22.851552286    28.019063694     0.490600800    -0.084729784     0.046170541
   68     1.797956199    22.382038396    25.118431627     0.488388659     0.062445816     0.087046181
   21    12.691818600    26.595348454    24.184934372    -0.489489863     0.069997910    -0.074161759
   22    20.024124270    21.978970909    26.224861092     0.498699371     0.021752780     0.028735933
   23    19.908197852    29.506296620    27.089700723     0.487566513    -0.075207621     0.081380031
   24    14.854988426    24.394010268    27.917812143     0.492170633    -0.057574636     0.066732519
   25    16.133647236    20.637860551    21.202828214     0.486827231    -0.077577721     0.083552045
   26    12.692873193    21.220238434    27.739973422    -0.184953845     0.344104253    -0.312064638
   27    11.357496370    23.220496911    23.028176847     0.491037518    -0.080234756     0.049442291
   28    18.350657088    25.659310658    21.297455711     0.493710456    -0.049251120     0.061841029
   29    19.063286909    28.312123561    25.376970537     0.484209066    -0.082929657     0.093081968
   30    17.833253639    29.225784941    22.074015812     0.490068092    -0.068684635     0.071524022
   31    16.345622700    30.189535633    29.088407027     0.487491518    -0.087869263     0.068051546
   32    18.472497589    20.840522870    28.317335529     0.487669228    -0.084155253     0.071390598
   33    11.535720921    28.214849458    25.719552914     0.487988962    -0.086172410     0.066641493
   34    21.133024892    23.199615419    28.437785389     0.366178699     0.329535524    -0.085554071
   35    18.505314103    27.801259684    20.613997888     0.491354741    -0.065707186     0.065215675
   36    18.019082472    22.788019560    25.948068596     0.498306348     0.002665521     0.041032651
   37    18.524641833    25.400899445    27.884779854     0.489322260    -0.071681635     0.073657783
   38    16.609690023    26.318106216    24.583918601     0.494523859    -0.044296304     0.059025337
   39    18.796196723    26.013446929    24.009444591     0.496274593    -0.032180365     0.051729608
   40    13.562607155    29.032202677    26.556409492     0.487669435    -0.085786584     0.069420344
   41    17.061979199    22.224107241    23.997386605     0.498417125    -0.000904668     0.039743568
   42    11.346089478    28.665694707    23.446420655     0.491301297    -0.064720625     0.066590365
   43    14.883900205    27.250385201    25.590811666     0.493607197    -0.049378148     0.062559837
   44    19.824295414    24.249726590    24.874150500     0.496799046    -0.030436217     0.047585134
   45    15.163726223    29.766434040    25.049975751     0.489544336    -0.068058073     0.075593929
   46    18.255752634    21.444937680    22.349717096     0.498715167    -0.011442354     0.033944873
   47    17.680216664    22.014671420    29.914481826     0.489551707    -0.069272699     0.074433995
   48    20.885131770    23.671521287    20.835583917     0.488786572    -0.080609886     0.067747573
   49    14.124598208    25.523679894    21.925478745    -0.495917592     0.027950185    -0.057310811
   50    17.279358232    29.597766230    27.046532656     0.485635284    -0.080809907     0.087339168
   51    20.556328336    26.031378608    20.974917541     0.491691376    -0.049204536     0.076279123
   52    20.263780905    29.793760366    21.676096170     0.484726880    -0.068963763     0.101409326
   53    19.533007569    24.473921985    29.599108976     0.488260266    -0.084034131     0.067380842
   54    15.692119801    22.580631273    29.910526715     0.486552532    -0.097726624     0.060960153
   55    14.138342947    30.248940500    22.811933249     0.486047170    -0.080505488     0.085305420
   56    17.249484480    24.241562151    29.775985962     0.490508633    -0.069328762     0.067784985
   57    16.139150998    26.167729855    27.405754618     0.491779732    -0.061344528     0.066253636
   58    15.012111344    20.455861671    27.196084289     0.487909629    -0.079264591     0.075241736
   59    16.663841385    21.934891445    27.911198001     0.489929285    -0.070444013     0.070759714
   60    19.769147304    26.614206605    29.156819250     0.488247475    -0.079676511     0.072567598
   61    19.934024608    21.987702939    30.060229077     0.492141483    -0.058298278     0.066317961
   62    19.765793803    27.503613401    22.494391144     0.492398815    -0.050936582     0.070348218
   63    13.028373107    28.037244918    29.688227102     0.484442125    -0.092415472     0.082311651
   64    14.368332591    29.358937072    20.755045941     0.486882674    -0.071011796     0.088896493
   65    15.495278301    24.085560988    23.601998512     0.432673232    -0.162129578     0.191070338
   66    11.893587876    26.967308439    28.195354460     0.483260957    -0.097263914     0.083657505
   67    18.724571343    22.996212498    28.307150564     0.490497874    -0.078145461     0.057490199
   68    11.887612149    22.526698608    25.406518496     0.498203043     0.027474538    -0.032231626
   21    22.781474550    26.740008666    24.473021241    -0.489744024     0.061823303    -0.079552941
   22    30.113780220    22.123631120    26.512947961     0.499788636    -0.014534253     0.000273910
   23    29.997853802    29.650956832    27.377787592     0.487599306    -0.085106434     0.070737628
   24    24.944644376    24.538670480    28.205899013     0.492645117    -0.060656011     0.060180034
   25    26.223303186    20.782520762    21.490915084     0.485790757    -0.089470880     0.077474526
   26    22.782529143    21.364898645    28.028060291    -0.235898801     0.356133421    -0.259847536
   27    21.447152320    23.365157123    23.316263717     0.491753213    -0.075176915     0.050271356
   28    28.440313038    25.803970869    21.585542581     0.493269177    -0.059913388     0.055640855
   29    29.152942859    28.456783772    25.665057407     0.484346808    -0.093527780     0.081613258
   30    27.922909589    29.370445152    22.362102681     0.489848168    -0.079203481     0.061445759
   31    26.435278650    30.334195845    29.376493896     0.487764222    -0.091210710     0.061373207
   32    28.562153539    20.985183082    28.605422399     0.487889507    -0.089296517     0.063166137
   33    21.625376870    28.359509669    26.007639784     0.488346442    -0.080611509     0.070848690
   34    31.222680841    23.344275630    28.725872258     0.397801631     0.254871359    -0.163690113
   35    28.594970053    27.945919896    20.902084758     0.490676348    -0.076268806     0.058478974
   36    28.108738421    22.932679772    26.236155465     0.499060225    -0.022549297     0.020746580
   37    28.614297783    25.545559656    28.172866724     0.490009968    -0.072795976     0.067756751
   38    26.699345972    26.462766427    24.872005470     0.494663896    -0.049577177     0.053382897
   39    28.885852673    26.158107141    24.297531461     0.496139090    -0.042084515     0.045551035
   40    23.652263105    29.176862888    26.844496362     0.487921940    -0.084771764     0.068890698
   41    27.151635148    22.368767453    24.285473475     0.498959660    -0.024116663     0.021392623
   42    21.435745428    28.810354919    23.734507525     0.491366755    -0.054919223     0.074448582
   43    24.973556155    27.395045413    25.878898536     0.493816292    -0.053120439     0.057651443
   44    29.913951363    24.394386801    25.162237369     0.496505609    -0.042424458     0.041016410
   45    25.253382173    29.911094251    25.338062621     0.489848149    -0.069721081     0.072026120
   46    28.345408584    21.589597892    22.637803966     0.498610755    -0.032961600     0.017344975
   47    27.769872614    22.159331631    30.202568695     0.490938069    -0.069848211     0.064039360
   48    30.974787720    23.816181498    21.123670787     0.487525654    -0.090388922     0.064409468
   49    24.214254157    25.668340106    22.213565615    -0.493128805     0.013875559    -0.081433721
   50    27.369014182    29.742426441    27.334619526     0.486068247    -0.084214080     0.081520845
   51    30.645984285    26.176038820    21.263004411     0.491431536    -0.059862691     0.070082120
   52    30.353436855    29.938420578    21.964183039     0.485250916    -0.078447814     0.091528621
   53    29.622663519    24.618582197    29.887195846     0.489008901    -0.083064934     0.063011991
   54    25.781775751    22.725291485    30.198613584     0.487575176    -0.097865902     0.051891354
   55    24.227998897    30.393600712    23.100020118     0.486382170    -0.083307030     0.080574954
   56    27.339140430    24.386222363    30.064072831     0.491401705    -0.070395209     0.059740094
   57    26.228806948    26.312390067    27.693841487     0.492213125    -0.064193025     0.060045774
   58    25.101767294    20.600521882    27.484171159     0.488168983    -0.083485869     0.068710650
   59    26.753497335    22.079551656    28.199284871     0.490186087    -0.075760893     0.063070494
   60    29.858803254    26.758866816    29.444906120     0.488853469    -0.080318528     0.067610801
   61    30.023680558    22.132363150    30.348315946     0.493873754    -0.057979573     0.052221491
   62    29.855449753    27.648273612    22.782478014     0.492199481    -0.061468540     0.062938779
   63    23.118029057    28.181905130    29.976313972     0.485045377    -0.089115903     0.082397439
   64    24.457988541    29.503597284    21.043132811     0.487231741    -0.073289394     0.085052312
   65    25.584934251    24.230221200    23.890085382     0.448427037    -0.168780579     0.142920636
   66    21.983243826    27.111968650    28.483441329     0.483696797    -0.093125944     0.085819387
   67    28.814227293    23.140872709    28.595237433     0.490795821    -0.080800983     0.050898554
   68    21.977268099    22.671358819    25.694605366     0.496466840     0.058606965     0.009268226
   21    32.871130500    26.884668877    24.761108111    -0.488678094     0.073119620    -0.076467258
   22    40.203436170    22.268291332    26.801034831     0.494094478     0.021183525     0.073633584
   23    40.087509752    29.795617044    27.665874462     0.485705274    -0.086119473     0.081693473
   24    35.034300325    24.683330692    28.493985883     0.491922859    -0.066429841     0.059991476
   25    36.312959135    20.927180974    21.779001954     0.485863043    -0.089453852     0.077039677
   26    32.872185093    21.509558857    28.316147161    -0.171172366     0.336138205    -0.328193736
   27    31.536808270    23.509817334    23.604350586     0.491007548    -0.077949686     0.053248801
   28    38.529968987    25.948631081    21.873629450     0.492969714    -0.061190453     0.056891033
   29    39.242598809    28.601443984    25.953144276     0.482252567    -0.094541361     0.092165030
   30    38.012565538    29.515105364    22.650189551     0.488901258    -0.080832012     0.066646423
   31    36.524934600    30.478856056    29.664580766     0.486154742    -0.095454032     0.067395065
   32    38.651809489    21.129843293    28.893509268     0.487197494    -0.091025617     0.065976805
   33    31.715032820    28.504169881    26.295726653     0.487570311    -0.088485082     0.066675201
   34    41.312336791    23.488935842    29.013959128     0.347502337     0.340755872     0.114575574
   35    38.684626003    28.090580107    21.190171627     0.490317418    -0.077585800     0.059743394
   36    38.198394371    23.077339983    26.524242335     0.496118982    -0.003697130     0.062066795
   37    38.703953732    25.690219868    28.460953594     0.489298083    -0.079530080     0.065286693
   38    36.789001922    26.607426639    25.160092340     0.494258504    -0.053927879     0.052918003
   39    38.975508623    26.302767353    24.585618331     0.496100207    -0.042869268     0.045241692
   40    33.741919055    29.321523100    27.132583231     0.486822761    -0.091591152     0.067931291
   41    37.241291098    22.513427664    24.573560344     0.497030329    -0.008668055     0.053718865
   42    31.525401378    28.955015130    24.022594394     0.491079792    -0.065006964     0.067931824
   43    35.063212105    27.539705624    26.166985405     0.493281128    -0.058417990     0.057105756
   44    40.003607313    24.539047013    25.450324239     0.496668343    -0.040620739     0.040871910
   45    35.343038123    30.055754463    25.626149490     0.488809278    -0.075657038     0.073085581
   46    38.435064533    21.734258104    22.925890835     0.497750411    -0.020836985     0.042548187
   47    37.859528564    22.303991843    30.490655565     0.489677597    -0.074820403     0.067954090
   48    41.064443670    23.960841710    21.411757656     0.487687188    -0.091122416     0.062112089
   49    34.303910107    25.813000317    22.501652484    -0.469829567     0.026324418    -0.169018351
   50    37.458670131    29.887086653    27.622706395     0.484275762    -0.088857130     0.087071219
   51    40.735640235    26.320699032    21.551091281     0.491121661    -0.061373401     0.070942371
   52    40.443092805    30.083080789    22.252269909     0.483913416    -0.081524168     0.095820750
   53    39.712319469    24.763242409    30.175282715     0.488658521    -0.091479519     0.053332427
   54    35.871431700    22.869951697    30.486700454     0.486090768    -0.104105136     0.053645932
   55    34.317654846    30.538260924    23.388106988     0.485133945    -0.089197626     0.081785324
   56    37.428796380    24.530882575    30.352159701     0.490512621    -0.076519236     0.059516179
   57    36.318462898    26.457050279    27.981928357     0.491508675    -0.070050614     0.059263263
   58    35.191423243    20.745182094    27.772258028     0.487307895    -0.086598057     0.070935123
   59    36.843153284    22.224211868    28.487371740     0.489419224    -0.077563830     0.066728370
   60    39.948459204    26.903527028    29.732992989     0.487960382    -0.087447897     0.065173087
   61    40.113336508    22.277023362    30.636402816     0.491857828    -0.064114458     0.062969936
   62    39.945105703    27.792933824    23.070564883     0.491695796    -0.062938842     0.065375423
   63    33.207685007    28.326565342    30.264400841     0.484724349    -0.092331288     0.080729419
   64    34.547644491    29.648257496    21.331219680     0.486124460    -0.079750321     0.085573922
   65    35.674590200    24.374881411    24.178172251     0.460031003    -0.114307311     0.159076442
   66    32.072899776    27.256628862    28.771528199     0.483733140    -0.095826761     0.082580147
   67    38.903883243    23.285532921    28.883324303     0.490451346    -0.084993980     0.047259924
   68    32.066924049    22.816019031    25.982692236     0.498925434     0.009400998    -0.031385223
   21     2.737238121    36.475781763    23.927472926    -0.489058507     0.076055467    -0.070974238
   22    10.069543792    31.859404218    25.967399646     0.499585074    -0.020103828     0.003254287
   23     9.953617373    39.386729930    26.832239277     0.486469080    -0.088380313     0.074409369
   24     4.900407947    34.274443578    27.660350697     0.490913994    -0.071841660     0.061985698
   25     6.179066757    30.518293860    20.945366768     0.484926100    -0.095052736     0.076234213
   26     2.738292714    31.100671743    27.482511976     0.082237185     0.489251733     0.062207614
   27     1.402915891    33.100930220    22.770715401     0.492276073    -0.084735228     0.022004754
   28     8.396076609    35.539743967    21.039994265     0.492690008    -0.062509026     0.057872084
   29     9.108706430    38.192556870    25.119509091     0.483099589    -0.096822606     0.085089189
   30     7.878673160    39.106218250    21.816554366     0.489125685    -0.081255803     0.064448106
   31     6.391042222    40.069968942    28.830945581     0.485971365    -0.098692253     0.063966172
   32     8.517917110    30.720956179    28.059874083     0.485770091    -0.100310289     0.062970350
   33     1.581140442    38.095282767    25.462091468     0.487352571    -0.091363877     0.064343717
   34    11.178444413    33.080048728    28.180323943     0.398059556     0.261551699    -0.152116068
   35     8.550733625    37.681692994    20.356536442     0.490230970    -0.078490750     0.059268866
   36     8.064501993    32.668452869    25.690607150     0.498645621    -0.029023463     0.022587231
   37     8.570061354    35.281332754    27.627318408     0.487825470    -0.083181165     0.071464709
   38     6.655109544    36.198539525    24.326457155     0.493676643    -0.058064322     0.053962089
   39     8.841616244    35.893880239    23.751983145     0.495606952    -0.047180263     0.046344063
   40     3.608026677    38.912635986    26.298948046     0.486498876    -0.094765216     0.065866514
   41     7.107398720    32.104540550    23.739925159     0.498533801    -0.030440570     0.023182339
   42     1.391508999    38.546128016    23.188959209     0.491206394    -0.067521458     0.064475817
   43     4.929319727    37.130818510    25.333350220     0.492728684    -0.062351689     0.057712311
   44     9.869714935    34.130159899    24.616689054     0.495974394    -0.047230525     0.042174374
   45     5.209145745    39.646867349    24.792514305     0.488648659    -0.078592216     0.071033452
   46     8.301172155    31.325370990    22.092255650     0.498139257    -0.038758779     0.018842442
   47     7.725636185    31.895104729    29.657020380     0.489017490    -0.080633566     0.066031225
   48    10.930551291    33.551954596    20.578122471     0.486645457    -0.094113082     0.065718542
   49     4.170017729    35.404113203    21.668017299    -0.498914150     0.025082686    -0.021343142
   50     7.324777753    39.478199539    26.789071210     0.484295918    -0.092192672     0.083414477
   51    10.601747857    35.911811918    20.717456095     0.490934203    -0.062560655     0.071202340
   52    10.309200427    39.674193675    21.418634724     0.484383757    -0.081102562     0.093780328
   53     9.578427090    34.354355295    29.341647530     0.486468670    -0.094308520     0.066739315
   54     5.737539322    32.461064583    29.653065269     0.484528706    -0.111299491     0.053332508
   55     4.183762468    40.129373810    22.554471803     0.485356273    -0.090461883     0.079031235
   56     7.294904001    34.121995461    29.518524516     0.489303350    -0.082427521     0.061546206
   57     6.184570520    36.048163165    27.148293172     0.490480994    -0.074837066     0.061869284
   58     5.057530865    30.336294980    26.938622843     0.485896835    -0.101185165     0.060546086
   59     6.709260906    31.815324754    27.653736555     0.488243851    -0.089933264     0.059413380
   60     9.814566825    36.494639914    28.899357804     0.486594400    -0.089996971     0.071599125
   61     9.979444129    31.868136248    29.802767630     0.492212841    -0.068323612     0.055302829
   62     9.811213325    37.384046710    22.236929698     0.491486626    -0.064594489     0.065333361
   63     3.073792628    37.917678228    29.430765656     0.483144870    -0.097981981     0.083489913
   64     4.413752112    39.239370382    20.497584495     0.486489309    -0.080632743     0.082622716
   65     5.540697822    33.965994297    23.344537066     0.423997401    -0.164452009     0.207802167
   66     1.939007398    36.847741748    27.937893014     0.482117520    -0.101498382     0.085210183
   67     8.769990864    32.876645807    28.049689118     0.488697494    -0.091485262     0.052964195
   68     1.933031670    32.407131917    25.149057050     0.496135653     0.020190761     0.058666406
   21    12.826894071    36.620441975    24.215559795    -0.489108593     0.072010484    -0.074748075
   22    20.159199741    32.004064430    26.255486515     0.497955451     0.006816014     0.044653226
   23    20.043273323    39.531390141    27.120326146     0.487874050    -0.082780458     0.071598231
   24    14.990063897    34.419103789    27.948437567     0.492185699    -0.059097570     0.065274155
   25    16.268722707    30.662954072    21.233453638     0.485472154    -0.082194599     0.086953065
   26    12.827948664    31.245331955    27.770598845    -0.152403279     0.370110251    -0.299652537
   27    11.492571841    33.245590432    23.058802271     0.490454923    -0.080859253     0.053997680
   28    18.485732559    35.684404179    21.328081135     0.494237865    -0.050248415     0.056604145
   29    19.198362380    38.337217082    25.407595961     0.484784845    -0.090355904     0.082580050
   30    17.968329110    39.250878462    22.104641235     0.490590870    -0.071378007     0.065005984
   31    16.480698171    40.214629154    29.119032450     0.486922513    -0.094698338     0.062758989
   32    18.607573060    30.865616391    28.347960953     0.486995791    -0.086723489     0.072898123
   33    11.670796392    38.239942979    25.750178338     0.487304431    -0.089450065     0.067328136
   34    21.268100363    33.224708940    28.468410812     0.398066606     0.300470707    -0.035501139
   35    18.640389574    37.826353205    20.644623312     0.491884939    -0.067191213     0.059452065
   36    18.154157943    32.813113081    25.978694019     0.497436611    -0.008216298     0.049892990
   37    18.659717304    35.425992966    27.915405278     0.489401832    -0.073079579     0.071730203
   38    16.744765494    36.343199737    24.614544024     0.494711743    -0.046121161     0.055974370
   39    18.931272194    36.038540450    24.040070015     0.496575906    -0.033366006     0.047948716
   40    13.697682626    39.057296198    26.587034916     0.487146532    -0.090096197     0.067608669
   41    17.197054670    32.249200762    24.028012029     0.497594248    -0.010901218     0.047761153
   42    11.481164949    38.690788228    23.477046079     0.490622003    -0.067149614     0.069144628
   43    15.018975677    37.275478722    25.621437090     0.493730082    -0.051696336     0.059649773
   44    19.959370885    34.274820111    24.904775923     0.497004883    -0.031751225     0.044474781
   45    15.298801694    39.791527561    25.080601175     0.489368698    -0.072486537     0.072553289
   46    18.390828105    31.470031201    22.380342520     0.497881262    -0.020831653     0.040991352
   47    17.815292135    32.039764941    29.945107249     0.489765662    -0.070277163     0.072046630
   48    21.020207241    33.696614808    20.866209341     0.489544396    -0.082328471     0.059735313
   49    14.259673679    35.548773415    21.956104168    -0.499106048     0.007432290    -0.028946739
   50    17.414433703    39.622859751    27.077158080     0.485295112    -0.087727552     0.082416809
   51    20.691403807    36.056472129    21.005542965     0.492285386    -0.050852510     0.071197757
   52    20.398856377    39.818853887    21.706721593     0.485607285    -0.071379710     0.095344124
   53    19.668083040    34.499015506    29.629734400     0.488418488    -0.085048077     0.064916911
   54    15.827195272    32.605724794    29.941152138     0.486497898    -0.098186113     0.060657086
   55    14.273418418    40.274034022    22.842558672     0.485871697    -0.085025647     0.081849457
   56    17.384559951    34.266655672    29.806611385     0.490527167    -0.070497176     0.066432274
   57    16.274226469    36.192823376    27.436380041     0.491841279    -0.062889471     0.064320067
   58    15.147186815    30.480955192    27.226709713     0.486863223    -0.083453143     0.077458213
   59    16.798916856    31.959984966    27.941823425     0.489096686    -0.073955034     0.072904627
   60    19.904222775    36.639300126    29.187444674     0.488310479    -0.081024408     0.070625219
   61    20.069100079    32.012796460    30.090854500     0.492388545    -0.060136551     0.062746440
   62    19.900869274    37.528706922    22.525016568     0.492813461    -0.053059955     0.065723161
   63    13.163448578    38.062338439    29.718852526     0.483258218    -0.097963707     0.082852924
   64    14.503408062    39.384030593    20.785671365     0.486705355    -0.075850788     0.085816985
   65    15.630353772    34.110654509    23.632623936     0.443144934    -0.135095456     0.188073882
   66    12.028663347    36.992401960    28.225979883     0.481889802    -0.102393830     0.085426704
   67    18.859646814    33.021306019    28.337775987     0.490298037    -0.080031833     0.056592763
   68    12.022687620    32.551792129    25.437143920     0.499235828     0.005699967    -0.027038829
   21    22.916550021    36.765102187    24.503646665    -0.490434318     0.063491932    -0.073776383
   22    30.248855691    32.148724641    26.543573385     0.499382667    -0.024698364     0.002634806
   23    30.132929273    39.676050353    27.408413016     0.488920851    -0.073561425     0.074465553
   24    25.079719847    34.563764001    28.236524437     0.492452427    -0.058169609     0.064085132
   25    26.358378657    30.807614283    21.521540508     0.485720872    -0.091010881     0.076106859
   26    22.917604614    31.389992166    28.058685715    -0.062113192     0.463665409    -0.176511587
   27    21.582227791    33.390250644    23.346889140     0.493674312    -0.069925519     0.037364362
   28    28.575388509    35.829064391    21.616168004     0.493621384    -0.053133453     0.059285458
   29    29.288018330    38.481877293    25.695682830     0.485746890    -0.081791610     0.085790975
   30    28.057985060    39.395538673    22.392728105     0.490363705    -0.071530757     0.066534108
   31    26.570354121    40.359289366    29.407119320     0.488671946    -0.083190773     0.065414252
   32    28.697229010    31.010276603    28.636047822     0.487171249    -0.090694616     0.066623278
   33    21.760452341    38.384603190    26.038265207     0.488808016    -0.080725194     0.067454926
   34    31.357756312    33.369369151    28.756497682     0.409361916     0.233409709    -0.167160788
   35    28.730045524    37.971013417    20.932710181     0.491317329    -0.069343648     0.061633928
   36    28.243813893    32.957773293    26.266780889     0.498717146    -0.027337594     0.023105509
   37    28.749373254    35.570653177    28.203492148     0.489772930    -0.069419761     0.072824264
   38    26.834421443    36.487859948    24.902630894     0.494745479    -0.044902138     0.056663120
   39    29.020928144    36.183200662    24.328156885     0.496319352    -0.035715497     0.048903004
   40    23.787338576    39.201956410    26.875121785     0.488499609    -0.081985578     0.068165221
   41    27.286710619    32.393860974    24.316098898     0.498656187    -0.028053683     0.023558404
   42    21.570820899    38.835448440    23.765132948     0.491921014    -0.057290015     0.068786412
   43    25.108631626    37.420138934    25.909523959     0.493920278    -0.048882848     0.060441928
   44    30.049026835    34.419480322    25.192862793     0.496694451    -0.035701075     0.044945033
   45    25.388457644    39.936187772    25.368688044     0.490224838    -0.065052332     0.073809226
   46    28.480484055    31.614691413    22.668429389     0.498336118    -0.035998343     0.019111067
   47    27.904948085    32.184425152    30.233194119     0.490458948    -0.070325341     0.067114577
   48    31.109863191    33.841275019    21.154296210     0.488077304    -0.084919623     0.067595883
   49    24.349329628    35.693433627    22.244191038    -0.499851091     0.010620288    -0.006007988
   50    27.504089653    39.767519962    27.365244949     0.486743951    -0.076815518     0.084733122
   51    30.781059756    36.201132341    21.293629834     0.491811301    -0.052912089     0.072951731
   52    30.488512326    39.963514099    21.994808463     0.485316708    -0.071539101     0.096694622
   53    29.757738990    34.643675718    29.917821269     0.488746374    -0.080069552     0.068672039
   54    25.916851222    32.750385006    30.229239008     0.486806910    -0.099295258     0.056209284
   55    24.363074368    40.418694233    23.130645542     0.486741292    -0.078771145     0.082933837
   56    27.474215901    34.411315884    30.094698255     0.490948865    -0.070019653     0.063768799
   57    26.363882419    36.337483588    27.724466911     0.492108055    -0.061152600     0.063953280
   58    25.236842765    30.625615403    27.514796582     0.487145195    -0.088228316     0.070038014
   59    26.888572806    32.104645177    28.229910294     0.489446893    -0.078334426     0.065615976
   60    29.993878725    36.783960337    29.475531543     0.489011782    -0.075918446     0.071441350
   61    30.158756029    32.157456671    30.378941370     0.493462200    -0.058831052     0.055081438
   62    29.990525224    37.673367133    22.813103437     0.492603301    -0.054057580     0.066481321
   63    23.253104528    38.206998651    30.006939395     0.485368794    -0.086757939     0.083007191
   64    24.593064012    39.528690805    21.073758234     0.487480494    -0.069294155     0.086954516
   65    25.720009722    34.255314721    23.920710805     0.431425060    -0.183401197     0.173886224
   66    22.118319297    37.137062171    28.514066753     0.484004402    -0.092195295     0.085086814
   67    28.949302764    33.165966230    28.625862857     0.490469119    -0.080035627     0.055084856
   68    22.112343570    32.696452340    25.725230790     0.497447993     0.037705888     0.033522536
   21    33.006205971    36.909762398    24.791733534    -0.489836927     0.066206871    -0.075342118
   22    40.338511641    32.293384853    26.831660255     0.496556516    -0.008215213     0.058001176
   23    40.222585223    39.820710565    27.696499886     0.487730003    -0.085815530     0.068957514
   24    35.169375796    34.708424213    28.524611306     0.491194482    -0.067278257     0.064819883
   25    36.448034606    30.952274495    21.809627377     0.484366007    -0.092520089     0.082641423
   26    33.007260564    31.534652378    28.346772585    -0.154346642     0.358148988    -0.312900010
   27    31.671883741    33.534910855    23.634976010     0.492768534    -0.061153196     0.058646894
   28    38.665044458    35.973724602    21.904254874     0.493703141    -0.061955436     0.049180609
   29    39.377674280    38.626537505    25.983769700     0.484583700    -0.094795190     0.078692500
   30    38.147641010    39.540198885    22.680814974     0.490351898    -0.078624721     0.058078990
   31    36.660010071    40.503949577    29.695206190     0.487632232    -0.091609234     0.061826808
   32    38.786884960    31.154936814    28.924134692     0.485422842    -0.095395500     0.072555931
   33    31.850108291    38.529263402    26.326352077     0.488530898    -0.082300460     0.067558837
   34    41.447412262    33.514029363    29.044584552     0.418088372     0.270859536     0.042862862
   35    38.819701474    38.115673629    21.220797051     0.491100153    -0.077407506     0.053185694
   36    38.333469842    33.102433504    26.554867758     0.496508337    -0.022197163     0.054651237
   37    38.839029203    35.715313389    28.491579017     0.488376181    -0.079719737     0.071648234
   38    36.924077393    36.632520160    25.190717763     0.494269590    -0.053852751     0.052890960
   39    39.110584094    36.327860874    24.616243754     0.496163385    -0.044503807     0.042910446
   40    33.876994526    39.346616621    27.163208655     0.487821305    -0.087332147     0.066358653
   41    37.376366569    32.538521185    24.604185768     0.496906055    -0.024454555     0.049863288
   42    31.660476849    38.980108651    24.053219818     0.491730086    -0.057377341     0.070066846
   43    35.198287576    37.564799145    26.197610829     0.493382502    -0.057345154     0.057317010
   44    40.138682784    34.564140534    25.480949662     0.496530622    -0.043987443     0.039018543
   45    35.478113594    40.080847984    25.656774914     0.489765471    -0.071573947     0.070759828
   46    38.570140004    31.759351625    22.956516259     0.497122760    -0.034040893     0.041354311
   47    37.994604035    32.329085364    30.521280988     0.488513700    -0.077610310     0.073013727
   48    41.199519141    33.985935231    21.442383080     0.487821848    -0.096400641     0.052314057
   49    34.438985578    35.838093838    22.532277908    -0.493901651     0.029707117    -0.071962813
   50    37.593745603    39.912180174    27.653331819     0.485872901    -0.085674009     0.081163341
   51    40.870715706    36.345792553    21.581716704     0.491826229    -0.062022416     0.065270059
   52    40.578168276    40.108174310    22.282895332     0.485937849    -0.078986288     0.087324528
   53    39.847394940    34.788335930    30.205908139     0.487520485    -0.091186533     0.063315026
   54    36.006507172    32.895045218    30.517325877     0.484512800    -0.107079742     0.061492081
   55    34.452730317    40.563354445    23.418732412     0.486618748    -0.083803952     0.078607201
   56    37.563871851    34.555976096    30.382785124     0.489318386    -0.078322031     0.066582108
   57    36.453538369    36.482143800    28.012553781     0.490897575    -0.070684335     0.063429457
   58    35.326498714    30.770275615    27.802883452     0.485722729    -0.090504747     0.076696291
   59    36.978228755    32.249305389    28.517997164     0.487854437    -0.082150764     0.072452052
   60    40.083534675    36.928620549    29.763618413     0.487357958    -0.086742544     0.070412727
   61    40.248411979    32.302116883    30.667028239     0.491045183    -0.068029169     0.065166409
   62    40.080181174    37.818027345    23.101190307     0.492346399    -0.063521184     0.059666429
   63    33.342760478    38.351658863    30.295026265     0.485191861    -0.087413167     0.083353440
   64    34.682719962    39.673351017    21.361845104     0.487570229    -0.073807006     0.082630486
   65    35.809665671    34.399974932    24.208797675     0.457899583    -0.130733983     0.152435552
   66    32.207975247    37.281722383    28.802153622     0.484067053    -0.091011822     0.085999630
   67    39.038958714    33.310626442    28.913949727     0.489113532    -0.087628588     0.055580422
   68    32.201999520    32.841112552    26.013317659     0.499056279    -0.006114003    -0.030090693
   21     2.618882879     6.432636937    33.847582017    -0.490112655     0.072439562    -0.067395065
   22     9.951188550     1.816259391    35.887508737     0.497984431     0.003081289     0.044743846
   23     9.835262131     9.343585103    36.752348368     0.486928431    -0.084785835     0.075578209
   24     4.782052705     4.231298751    37.580459788     0.490580984    -0.072476453     0.063855010
   25     6.060711515     0.475149034    30.865475860     0.484075118    -0.096243956     0.080052367
   26     2.619937472     1.057526916    37.402621067    -0.195085914     0.347960942    -0.301437671
   27     1.284560649     3.057785394    32.690824492     0.491295528    -0.084475496     0.038634119
   28     8.277721367     5.496599141    30.960103356     0.493122420    -0.063233950     0.053214159
   29     8.990351188     8.149412043    35.039618182     0.483683774    -0.093362014     0.085636098
   30     7.760317918     9.063073424    31.736663457     0.489746103    -0.080126064     0.061062003
   31     6.272686979    10.026824116    38.751054672     0.486817365    -0.094977753     0.063151243
   32     8.399561868     0.677811353    37.979983174     0.484382617    -0.100300082     0.072892893
   33     1.462785200     8.052137940    35.382200559     0.488468973    -0.087898397     0.060596489
   34    11.060089171     3.036903901    38.100433034     0.394502510     0.306947108     0.012298082
   35     8.432378382     7.638548167    30.276645533     0.490543985    -0.078891130     0.056060582
   36     7.946146751     2.625308043    35.610716241     0.497633261    -0.016488615     0.045708456
   37     8.451706112     5.238187928    37.547427500     0.487743391    -0.083846990     0.071246520
   38     6.536754302     6.155394698    34.246566246     0.493919099    -0.058241317     0.051496335
   39     8.723261002     5.850735412    33.672092237     0.495880537    -0.047615636     0.042839748
   40     3.489671434     8.869491160    36.219057137     0.487469586    -0.091767899     0.062865373
   41     6.989043478     2.061395724    33.660034250     0.497905731    -0.020204644     0.041007995
   42     1.273153757     8.502983190    33.109068300     0.492127136    -0.063975686     0.060975352
   43     4.810964485     7.087673684    35.253459311     0.493039679    -0.062039094     0.055344608
   44     9.751359693     4.087015073    34.536798145     0.496297065    -0.047012153     0.038458820
   45     5.090790502     9.603722522    34.712623396     0.489430077    -0.075943644     0.068489145
   46     8.182816913     1.282226163    32.012364741     0.497945736    -0.031137302     0.032871153
   47     7.607280943     1.851959902    39.577129471     0.486983110    -0.083344694     0.076818702
   48    10.812196049     3.508809770    30.498231562     0.486862426    -0.096533809     0.060383788
   49     4.051662487     5.360968377    31.588126390    -0.499473994     0.018408281    -0.013669828
   50     7.206422511     9.435054713    36.709180301     0.485180941    -0.088720079     0.082025616
   51    10.483392615     5.868667091    30.637565186     0.491339498    -0.063256371     0.067706201
   52    10.190845185     9.631048849    31.338743815     0.485246026    -0.080493054     0.089761698
   53     9.460071848     4.311210468    39.261756621     0.486496331    -0.096106284     0.063913240
   54     5.619184080     2.417919756    39.573174360     0.483085377    -0.113361206     0.061463451
   55     4.065407226    10.086228983    32.474580894     0.486322968    -0.087812373     0.076019460
   56     7.176548759     4.078850634    39.438633607     0.488228756    -0.084035299     0.067607324
   57     6.066215277     6.005018338    37.068402263     0.490308539    -0.075617624     0.062285725
   58     4.939175623     0.293150153    36.858731934     0.484835275    -0.095065114     0.076794401
   59     6.590905664     1.772179927    37.573845646     0.487164870    -0.086620828     0.071883389
   60     9.696211583     6.451495087    38.819466895     0.486770692    -0.089951912     0.070448187
   61     9.861088887     1.824991422    39.722876722     0.489731290    -0.072434185     0.070118130
   62     9.692858082     7.340901883    32.157038789     0.491901698    -0.065079816     0.061622540
   63     2.955437386     7.874533401    39.350874747     0.485261134    -0.090880804     0.079134764
   64     4.295396870     9.196225555    30.417693586     0.487429476    -0.077949043     0.079601841
   65     5.422342580     3.922849471    33.264646157     0.462291708    -0.131422027     0.137893538
   66     1.820652155     6.804596922    37.858002105     0.484272687    -0.094962887     0.080386657
   67     8.651635622     2.833500981    37.969798209     0.488141766    -0.092575876     0.056101011
   68     1.814676428     2.363987091    35.069166142     0.496937669     0.055244335     0.001008151
   21    12.708538829     6.577297148    34.135668886    -0.488845525     0.076816623    -0.071618849
   22    20.040844499     1.960919603    36.175595606     0.498724086    -0.035152239     0.006213422
   23    19.924918081     9.488245315    37.040435238     0.486457520    -0.091571271     0.070525056
   24    14.871708655     4.375958963    37.868546658     0.490813101    -0.072057103     0.062532185
   25    16.150367465     0.619809245    31.153562729     0.485107681    -0.092531527     0.078156602
   26    12.709593422     1.202187128    37.690707937     0.015189736     0.499763326    -0.002426836
   27    11.374216599     3.202445605    32.978911362     0.490238909    -0.094014321     0.028759681
   28    18.367377317     5.641259352    31.248190226     0.493322931    -0.059943313     0.055129707
   29    19.080007138     8.294072255    35.327705052     0.483286284    -0.099557393     0.080763192
   30    17.849973868     9.207733635    32.024750326     0.489837671    -0.078776772     0.062074766
   31    16.362342929    10.171484328    39.039141541     0.485365159    -0.104212294     0.059669594
   32    18.489217818     0.822471564    38.268070044     0.484852102    -0.102902928     0.065798380
   33    11.552441149     8.196798152    35.670287429     0.486881320    -0.093114382     0.065393362
   34    21.149745120     3.181564113    38.388519904     0.423761067     0.216073803    -0.154073584
   35    18.522034332     7.783208379    30.564732403     0.490888719    -0.075866788     0.057205734
   36    18.035802701     2.769968254    35.898803110     0.498073548    -0.037013211     0.023510917
   37    18.541362062     5.382848139    37.835514369     0.487789176    -0.082155333     0.072884986
   38    16.626410251     6.300054910    34.534653115     0.493960143    -0.057447835     0.051991572
   39    18.812916952     5.995395624    33.960179106     0.496031189    -0.045308356     0.043591424
   40    13.579327384     9.014151371    36.507144007     0.486047646    -0.096750661     0.066309847
   41    17.078699427     2.206055935    33.948121120     0.498133167    -0.036017268     0.023792942
   42    11.362809707     8.647643401    33.397155170     0.490770715    -0.068648360     0.066569571
   43    14.900620434     7.232333895    35.541546181     0.492947344    -0.062215528     0.055965558
   44    19.841015643     4.231675284    34.824885014     0.496399462    -0.045475111     0.038981904
   45    15.180446452     9.748382734    35.000710266     0.488608779    -0.080425738     0.069232665
   46    18.272472863     1.426886375    32.300451611     0.497815890    -0.042482733     0.019353466
   47    17.696936893     1.996620114    39.865216340     0.488074384    -0.084110006     0.068621447
   48    20.901851999     3.653469981    30.786318432     0.487541627    -0.091603960     0.062544991
   49    14.141318436     5.505628588    31.876213260    -0.497470618     0.008483364    -0.049507743
   50    17.296078461     9.579714924    36.997267171     0.483940404    -0.097110059     0.079820562
   51    20.573048564     6.013327303    30.925652056     0.491565855    -0.060269357     0.068779464
   52    20.280501134     9.775709060    31.626830684     0.485175177    -0.078784621     0.091640770
   53    19.549727798     4.455870680    39.549843491     0.486395552    -0.092993151     0.069077067
   54    15.708840030     2.562579968    39.861261229     0.483805988    -0.113220998     0.055792214
   55    14.155063176    10.230889195    32.762667764     0.485657449    -0.089814501     0.077911475
   56    17.266204709     4.223510846    39.726720476     0.488752649    -0.083899674     0.063888130
   57    16.155871227     6.149678550    37.356489133     0.490490326    -0.074701159     0.061959476
   58    15.028831573     0.437810365    37.146818804     0.484889545    -0.103186919     0.065073716
   59    16.680561614     1.916840139    37.861932516     0.487350721    -0.092345979     0.062940410
   60    19.785867533     6.596155299    39.107553765     0.486747651    -0.087947957     0.073088171
   61    19.950744837     1.969651633    40.010963591     0.491334256    -0.072921417     0.057211147
   62    19.782514032     7.485562095    32.445125659     0.492075242    -0.062845340     0.062549338
   63    13.045093336     8.019193613    39.638961617     0.482875846    -0.100496717     0.082044665
   64    14.385052820     9.340885767    30.705780456     0.486822131    -0.079524737     0.081731441
   65    15.511998530     4.067509683    33.552733027     0.443041397    -0.188868440     0.134324356
   66    11.910308105     6.949257133    38.146088974     0.481673385    -0.104322050     0.084306939
   67    18.741291572     2.978161192    38.257885079     0.488219667    -0.092566098     0.055435317
   68    11.904332378     2.508647302    35.357253011     0.496844360     0.038863269     0.040439193
   21    22.798194779     6.721957360    34.423755756    -0.489701307     0.071005615    -0.071769301
   22    30.130500449     2.105579815    36.463682476     0.498957315     0.020581682     0.024859447
   23    30.014574031     9.632905526    37.328522107     0.487723611    -0.073165671     0.082294983
   24    24.961364604     4.520619174    38.156633528     0.492471686    -0.058647615     0.063498785
   25    26.240023414     0.764469457    31.441649599     0.486819060    -0.080675271     0.080614538
   26    22.799249372     1.346847340    37.978794806    -0.119997003     0.355385800    -0.330608004
   27    21.463872549     3.347105817    33.266998231     0.492758712    -0.071538072     0.045509955
   28    28.457033266     5.785919564    31.536277096     0.493942589    -0.051208687     0.058295703
   29    29.169663088     8.438732467    35.615791922     0.484416759    -0.081869377     0.092939815
   30    27.939629818     9.352393847    32.312837196     0.490112025    -0.071113523     0.068797311
   31    26.451998879    10.316144539    39.327228411     0.487221297    -0.088638593     0.068982660
   32    28.578873768     0.967131776    38.556156913     0.487815589    -0.085365468     0.068910724
   33    21.642097099     8.341458364    35.958374298     0.487672515    -0.087676254     0.066995467
   34    31.239401070     3.326224325    38.676606773     0.366989574     0.326618022    -0.092947944
   35    28.611690282     7.927868590    30.852819272     0.491609780    -0.067614766     0.061221466
   36    28.125458650     2.914628466    36.186889980     0.498634053     0.001341358     0.036909110
   37    28.631018011     5.527508351    38.123601239     0.489756255    -0.070554204     0.071839506
   38    26.716066201     6.444715122    34.822739985     0.494818701    -0.046137293     0.055007304
   39    28.902572902     6.140055835    34.248265976     0.496635198    -0.034167284     0.046755499
   40    23.668983334     9.158811583    36.795230876     0.487423068    -0.087520533     0.068984847
   41    27.168355377     2.350716147    34.236207989     0.498739420    -0.002223427     0.035412533
   42    21.452465657     8.792303613    33.685242040     0.491093864    -0.066092310     0.066772926
   43    24.990276384     7.376994107    35.829633050     0.493839663    -0.051247667     0.059127521
   44    29.930671592     4.376335496    35.112971884     0.497144228    -0.032579719     0.042263202
   45    25.270102402     9.893042946    35.288797136     0.489406035    -0.070197025     0.074525903
   46    28.362128812     1.571546586    32.588538481     0.498963972    -0.013107187     0.029379516
   47    27.786592843     2.141280326    40.153303210     0.490376154    -0.068184943     0.069871608
   48    30.991507949     3.798130193    31.074405302     0.488902451    -0.081688410     0.065585035
   49    24.230974386     5.650288800    32.164300129    -0.499855777    -0.002252086     0.011795348
   50    27.385734411     9.724375136    37.285354040     0.485466233    -0.082055352     0.087117482
   51    30.662704514     6.157987514    31.213738926     0.492143457    -0.051211307     0.071918147
   52    30.370157084     9.920369272    31.914917554     0.485116906    -0.072519644     0.096966430
   53    29.639383748     4.600530891    39.837930360     0.488708562    -0.082429265     0.066101117
   54    25.798495980     2.707240179    40.149348099     0.487033648    -0.097363946     0.057606320
   55    24.244719125    10.375549407    33.050754633     0.485826766    -0.083545870     0.083620816
   56    27.355860659     4.368171057    40.014807346     0.490981045    -0.069160581     0.064454846
   57    26.245527177     6.294338761    37.644576002     0.492111690    -0.062128198     0.062977549
   58    25.118487522     0.582470577    37.434905673     0.487458755    -0.082467300     0.074720189
   59    26.770217563     2.061500351    38.150019386     0.489827371    -0.072734079     0.069129591
   60    29.875523483     6.740815511    39.395640635     0.488714945    -0.077686401     0.071571822
   61    30.040400787     2.114311845    40.299050461     0.493084209    -0.056408944     0.060712384
   62    29.872169982     7.630222307    32.733212529     0.492784408    -0.052928365     0.066046314
   63    23.134749286     8.163853824    39.927048486     0.483578915    -0.093299761     0.086293612
   64    24.474708770     9.485545978    30.993867325     0.486725697    -0.074089493     0.087228680
   65    25.601654479     4.212169894    33.840819896     0.435547679    -0.152108350     0.192772583
   66    21.999964055     7.093917345    38.434175844     0.482161431    -0.098979698     0.087882729
   67    28.830947522     3.122821404    38.545971948     0.490936734    -0.077462330     0.054595887
   68    21.993988328     2.653307514    35.645339881     0.499137039    -0.018156413    -0.023077282
   21    32.887850729     6.866617572    34.711842625    -0.490463777     0.063946486    -0.073185586
   22    40.220156399     2.250240026    36.751769346     0.499259778     0.016920028     0.021292887
   23    40.104229981     9.777565738    37.616608977     0.488833900    -0.085598942     0.060944561
   24    35.051020554     4.665279386    38.444720397     0.492898829    -0.059571158     0.059177877
   25    36.329679364     0.909129668    31.729736468     0.485869256    -0.088521729     0.078070285
   26    32.888905321     1.491507551    38.266881676    -0.202571289     0.362446390    -0.278563256
   27    31.553528499     3.491766029    33.555085101     0.492083910    -0.077177077     0.043555994
   28    38.546689216     5.930579776    31.824363965     0.494084643    -0.057568784     0.050657681
   29    39.259319038     8.583392678    35.903878791     0.485812009    -0.093780534     0.072054864
   30    38.029285767     9.497054058    32.600924065     0.490860936    -0.077716943     0.054914648
   31    36.541654829    10.460804751    39.615315281     0.489266899    -0.091062713     0.048223271
   32    38.668529717     1.111791988    38.844243783     0.487684406    -0.087863878     0.066662274
   33    31.731753049     8.486118575    36.246461168     0.489021028    -0.080887399     0.065693704
   34    41.329057020     3.470884536    38.964693643     0.364566188     0.327178645    -0.100227886
   35    38.701346232     8.072528802    31.140906142     0.491725843    -0.074255888     0.051882162
   36    38.215114600     3.059288678    36.474976850     0.498907330    -0.003403558     0.032861715
   37    38.720673961     5.672168562    38.411688108     0.490330755    -0.072041559     0.066225102
   38    36.805722151     6.589375333    35.110826855     0.495301246    -0.047807380     0.048899188
   39    38.992228851     6.284716047    34.536352845     0.496858864    -0.038586204     0.040526220
   40    33.758639284     9.303471795    37.083317746     0.488738722    -0.085458489     0.061897561
   41    37.258011327     2.495376359    34.524294859     0.498948030    -0.008267810     0.031344969
   42    31.542121607     8.936963825    33.973328909     0.491931711    -0.056039814     0.069733283
   43    35.079932334     7.521654319    36.117719920     0.494527758    -0.051709723     0.052615596
   44    40.020327542     4.520995708    35.401058754     0.497231822    -0.037648254     0.036648664
   45    35.359758352    10.037703157    35.576884005     0.491047786    -0.069639571     0.063422409
   46    38.451784762     1.716206798    32.876625350     0.498962962    -0.020074931     0.025158700
   47    37.876248792     2.285940537    40.441390080     0.490678534    -0.069357810     0.066513688
   48    41.081163898     3.942790405    31.362492171     0.488359330    -0.088273114     0.060934570
   49    34.320630336     5.794949012    32.452386999    -0.496994266     0.010004645    -0.053820129
   50    37.475390360     9.869035348    37.573440910     0.487895817    -0.084974965     0.068825337
   51    40.752360464     6.302647726    31.501825795     0.492481694    -0.057869025     0.064132343
   52    40.459813034    10.065029484    32.203004424     0.486669150    -0.077319496     0.084704394
   53    39.729039697     4.745191103    40.126017230     0.489154649    -0.083973987     0.060630840
   54    35.888151929     2.851900391    40.437434969     0.487353147    -0.097375630     0.054816935
   55    34.334375075    10.520209618    33.338841503     0.487523959    -0.083894551     0.072678011
   56    37.445516608     4.512831269    40.302894216     0.491297363    -0.069994791     0.061054326
   57    36.335183127     6.438998973    37.932662872     0.492593818    -0.063035759     0.058119050
   58    35.208143472     0.727130788    37.722992543     0.487761568    -0.083307175     0.071753516
   59    36.859873513     2.206160562    38.438106255     0.490015538    -0.073885997     0.066525425
   60    39.965179432     6.885475722    39.683727504     0.489311051    -0.079660251     0.065030299
   61    40.130056736     2.258972057    40.587137330     0.493492161    -0.057175698     0.056536949
   62    39.961825932     7.774882518    33.021299398     0.493088355    -0.059461063     0.057691043
   63    33.224405235     8.308514036    40.215135356     0.486025430    -0.087044871     0.078755772
   64    34.564364719     9.630206190    31.281954195     0.488336237    -0.074302178     0.077504234
   65    35.691310429     4.356830106    34.128906766     0.447549269    -0.130678156     0.180618026
   66    32.089620005     7.238577557    38.722262713     0.484551101    -0.091244166     0.082974290
   67    38.920603471     3.267481616    38.834058818     0.490993173    -0.079639066     0.050826406
   68    32.083644278     2.797967725    35.933426750     0.496676262     0.057327562     0.005122593
   21     2.753958350    16.457730458    33.878207440    -0.490780446     0.072317004    -0.062488441
   22    10.086264021    11.841352912    35.918134160     0.498174676     0.002670049     0.042601213
   23     9.970337602    19.368678624    36.782973792     0.488157052    -0.085309371     0.066520701
   24     4.917128176    14.256392272    37.611085212     0.492015605    -0.066995630     0.058585234
   25     6.195786986    10.500242555    30.896101283     0.486019787    -0.089952689     0.075453830
   26     2.755012943    11.082620437    37.433246491    -0.090025979     0.361856551    -0.333099324
   27     1.419636120    13.082878915    32.721449916     0.493095454    -0.071098198     0.042449023
   28     8.412796838    15.521692662    30.990728780     0.494214045    -0.059409707     0.047148325
   29     9.125426659    18.174505564    35.070243606     0.485192555    -0.093309030     0.076691650
   30     7.895393389    19.088166945    31.767288880     0.490892633    -0.078140402     0.054023143
   31     6.407762451    20.051917637    38.781680095     0.488391337    -0.093188243     0.052819061
   32     8.534637339    10.702904874    38.010608598     0.486304252    -0.094577876     0.067551463
   33     1.597860671    18.077231461    35.412825983     0.488670010    -0.087573246     0.059435242
   34    11.195164642    13.061997422    38.131058457     0.396444584     0.304656098    -0.004044003
   35     8.567453853    17.663641688    30.307270957     0.491728017    -0.075310141     0.050318384
   36     8.081222222    12.650401564    35.641341664     0.497833365    -0.014479961     0.044184519
   37     8.586781583    15.263281449    37.578052923     0.489163147    -0.078734184     0.067233505
   38     6.671829773    16.180488219    34.277191669     0.494944145    -0.053516870     0.046542862
   39     8.858336473    15.875828933    33.702717660     0.496646905    -0.043024344     0.038610331
   40     3.624746905    18.894584681    36.249682561     0.488093871    -0.090636490     0.059576836
   41     7.124118949    12.086489245    33.690659674     0.498040612    -0.017639835     0.040551013
   42     1.408229228    18.528076711    33.139693724     0.492045247    -0.064567741     0.061012148
   43     4.946039956    17.112767205    35.284084735     0.494097714    -0.057736860     0.050337898
   44     9.886435164    14.112108594    34.567423568     0.497030918    -0.041918123     0.034686277
   45     5.225865974    19.628816043    34.743248820     0.490542133    -0.074108979     0.062259740
   46     8.317892384    11.307319684    32.042990165     0.498209393    -0.027522078     0.032092621
   47     7.742356414    11.877053423    39.607754894     0.489396131    -0.075437417     0.069286531
   48    10.947271520    13.533903291    30.528856986     0.488310333    -0.092633119     0.054517192
   49     4.186737958    15.386061898    31.618751814    -0.489330853     0.033011050     0.097291245
   50     7.341497982    19.460148234    36.739805725     0.486951576    -0.087016179     0.072844677
   51    10.618468086    15.893760612    30.668190610     0.492444084    -0.059801710     0.062630499
   52    10.325920656    19.656142370    31.369369238     0.486537252    -0.078651234     0.084234708
   53     9.595147319    14.336303989    39.292382045     0.488133780    -0.090232415     0.059862540
   54     5.754259551    12.443013277    39.603799783     0.485535287    -0.105655155     0.055610010
   55     4.200482697    20.111322504    32.505206318     0.487349754    -0.087129477     0.069990510
   56     7.311624230    14.103944155    39.469259030     0.490090238    -0.077395135     0.061818699
   57     6.201290749    16.030111859    37.099027686     0.491710815    -0.070334440     0.057214868
   58     5.074251094    10.318243674    36.889357358     0.486324587    -0.090735049     0.072495150
   59     6.725981135    11.797273448    37.604471070     0.488687763    -0.081506749     0.067386350
   60     9.831287054    16.476588608    38.850092319     0.488287534    -0.085129675     0.065789226
   61     9.996164358    11.850084943    39.753502145     0.492044537    -0.064047599     0.061563618
   62     9.827933554    17.365995404    32.187664213     0.492897870    -0.061925214     0.056718227
   63     3.090512857    17.899626922    39.381500171     0.485826205    -0.090906388     0.075557443
   64     4.430472341    19.221319076    30.448319010     0.488361835    -0.077658174     0.073972467
   65     5.557418051    13.947942992    33.295271581     0.307276342    -0.162161037     0.359562300
   66     1.955727626    16.829690443    37.888627528     0.484622875    -0.095694169     0.077351763
   67     8.786711093    12.858594502    38.000423632     0.489803661    -0.086427906     0.051211235
   68     1.949751899    12.389080612    35.099791565     0.498673531    -0.006129973    -0.035876630
   21    12.843614300    16.602390669    34.166294310    -0.489103447     0.076023432    -0.070698344
   22    20.175919970    11.986013124    36.206221030     0.499535280    -0.020160532     0.007619539
   23    20.059993552    19.513338836    37.071060661     0.484733635    -0.090136156     0.083119048
   24    15.006784126    14.401052484    37.899172082     0.490223013    -0.074807479     0.063915869
   25    16.285442936    10.644902766    31.184188153     0.485728405    -0.089494968     0.077836799
   26    12.844668893    11.227280649    37.721333360    -0.042498426     0.494002946    -0.064459083
   27    11.509292070    13.227539126    33.009536785     0.492207621    -0.084455513     0.024472927
   28    18.502452788    15.666352873    31.278815650     0.493064039    -0.059331137     0.058031624
   29    19.215082609    18.319165776    35.358330476     0.481249256    -0.098576340     0.093176492
   30    17.985049339    19.232827156    32.055375750     0.489400864    -0.076905036     0.067619598
   31    16.497418400    20.196577849    39.069766965     0.484769077    -0.103196729     0.065949807
   32    18.624293289    10.847565085    38.298695467     0.484947918    -0.102506919     0.065710340
   33    11.687516620    18.221891673    35.700912852     0.487334808    -0.091965693     0.063616789
   34    21.284820591    13.206657634    38.419145327     0.409322303     0.248164513    -0.144463235
   35    18.657109803    17.808301900    30.595357826     0.490618716    -0.075094053     0.060449635
   36    18.170878172    12.795061775    35.929428534     0.498542145    -0.027958013     0.025963036
   37    18.676437533    15.407941660    37.866139793     0.487099085    -0.086148113     0.072890221
   38    16.761485722    16.325148431    34.565278539     0.493452546    -0.059301424     0.054661921
   39    18.947992423    16.020489145    33.990804530     0.495605167    -0.046622294     0.046924193
   40    13.714402855    19.039244892    36.537769430     0.486097462    -0.096241501     0.066684563
   41    17.213774899    12.231149456    33.978746543     0.498521434    -0.027814551     0.026509060
   42    11.497885178    18.672736922    33.427780593     0.491545520    -0.066813282     0.062601815
   43    15.035695905    17.257427416    35.572171604     0.492443462    -0.063920862     0.058425677
   44    19.976091114    14.256768805    34.855510438     0.495987414    -0.046554639     0.042768567
   45    15.315521923    19.773476255    35.031335690     0.488327067    -0.079771740     0.071924583
   46    18.407548334    11.451979896    32.331077034     0.498266921    -0.035310446     0.021982891
   47    17.832012364    12.021713635    39.895841764     0.487931790    -0.084263760     0.069441970
   48    21.036927470    13.678563502    30.816943855     0.487550094    -0.090588501     0.063942390
   49    14.276393908    15.530722109    31.906838683    -0.492623602     0.017286369    -0.083804347
   50    17.431153932    19.604808445    37.027892594     0.483154480    -0.096714137     0.084900669
   51    20.708124035    16.038420824    30.956277480     0.491128844    -0.060202521     0.071889602
   52    20.415576605    19.800802581    31.657456108     0.484660297    -0.077234249     0.095599516
   53    19.684803269    14.480964201    39.580468914     0.485595576    -0.097465949     0.068537035
   54    15.843915501    12.587673489    39.891886653     0.483485800    -0.114586424     0.055780220
   55    14.290138647    20.255982716    32.793293187     0.485689734    -0.087937758     0.079827521
   56    17.401280180    14.248604367    39.757345900     0.488368453    -0.085732378     0.064391101
   57    16.290946698    16.174772071    37.387114556     0.489842439    -0.077665673     0.063422616
   58    15.163907044    10.462903886    37.177444227     0.485173569    -0.101735409     0.065241972
   59    16.815637085    11.941933660    37.892557939     0.487515282    -0.091426712     0.063007988
   60    19.920943004    16.621248820    39.138179189     0.485880300    -0.092324975     0.073460416
   61    20.085820308    11.994745154    40.041589015     0.491123922    -0.072986657     0.058908749
   62    19.917589503    17.510655616    32.475751082     0.491480820    -0.063280328     0.066649862
   63    13.180168807    18.044287134    39.669587040     0.483466274    -0.098134200     0.081425062
   64    14.520128291    19.365979288    30.736405879     0.486929992    -0.077417674     0.083100463
   65    15.647074001    14.092603204    33.583358450     0.425010467    -0.143590828     0.220788987
   66    12.045383576    16.974350654    38.176714398     0.482586312    -0.101380682     0.082658387
   67    18.876367043    13.003254713    38.288510502     0.487919465    -0.094135309     0.055435902
   68    12.039407849    12.533740823    35.387878435     0.497315825     0.036324635     0.036844141
   21    22.933270250    16.747050881    34.454381179    -0.488492355     0.075306577    -0.075525749
   22    30.265575920    12.130673336    36.494307900     0.494201897     0.029609394     0.069912576
   23    30.149649502    19.657999047    37.359147531     0.488992867    -0.080687195     0.066147958
   24    25.096440076    14.545712695    38.187258951     0.492105511    -0.063586098     0.061554642
   25    26.375098886    10.789562978    31.472275022     0.485224028    -0.085641424     0.084989346
   26    22.934324843    11.371940861    38.009420230    -0.016904246     0.365983801    -0.340250060
   27    21.598948020    13.372199338    33.297623655     0.490809000    -0.079920767     0.052145917
   28    28.592108738    15.811013085    31.566902519     0.494477417    -0.056470682     0.047991110
   29    29.304738559    18.463825988    35.646417345     0.486097419    -0.088606526     0.076538766
   30    28.074705289    19.377487368    32.343462619     0.491019561    -0.074487462     0.057891351
   31    26.587074350    20.341238060    39.357853835     0.488423778    -0.095234908     0.048708572
   32    28.713949239    10.992225297    38.586782337     0.486998822    -0.086969072     0.072584629
   33    21.777172570    18.366551885    35.988999722     0.486914104    -0.091697699     0.067128143
   34    31.374476541    13.351317846    38.707232197     0.339970822     0.357860295     0.079723582
   35    28.746765753    17.952962111    30.883444696     0.491990703    -0.072590237     0.051728186
   36    28.260534121    12.939721987    36.217515403     0.496156425     0.002137728     0.061840375
   37    28.766093482    15.552601872    38.154226662     0.489702972    -0.075503830     0.067008733
   38    26.851141672    16.469808643    34.853365409     0.494802951    -0.051930727     0.049731674
   39    29.037648373    16.165149356    34.278891399     0.496751164    -0.039941760     0.040533161
   40    23.804058805    19.183905104    36.825856300     0.486990632    -0.093197585     0.064454130
   41    27.303430848    12.375809668    34.266833413     0.496869847    -0.003514765     0.055749452
   42    21.587541128    18.817397134    33.715867463     0.490314238    -0.067690675     0.070780790
   43    25.125351855    17.402087628    35.860258474     0.493817475    -0.057015000     0.053792115
   44    30.065747063    14.401429017    35.143597308     0.497166392    -0.038151332     0.037014248
   45    25.405177873    19.918136467    35.319422559     0.489972809    -0.075413239     0.065111368
   46    28.497204284    11.596640107    32.619163904     0.497582549    -0.016245643     0.046343129
   47    27.921668314    12.166373847    40.183928634     0.489446190    -0.069668169     0.074758101
   48    31.126583420    13.823223714    31.105030725     0.489374382    -0.088931115     0.051029122
   49    24.366049857    15.675382321    32.194925553    -0.494684915     0.021398139    -0.069490683
   50    27.520809882    19.749468657    37.315979464     0.487123377    -0.088961000     0.069258615
   51    30.797779985    16.183081035    31.244364349     0.492684686    -0.057164729     0.063198055
   52    30.505232555    19.945462793    31.945542978     0.486817995    -0.075517468     0.085471352
   53    29.774459219    14.625624412    39.868555784     0.489028902    -0.086752386     0.057660704
   54    25.933571451    12.732333700    40.179973523     0.486061395    -0.100372963     0.060577128
   55    24.379794596    20.400642928    33.081380057     0.486695359    -0.086171911     0.075511781
   56    27.490936130    14.393264578    40.045432770     0.490459670    -0.072279221     0.065000203
   57    26.380602648    16.319432282    37.675201426     0.491795243    -0.067502076     0.059840696
   58    25.253562993    10.607564098    37.465531097     0.486338321    -0.085203244     0.078838091
   59    26.905293034    12.086593872    38.180644809     0.488844600    -0.075017697     0.073507156
   60    30.010598954    16.765909032    39.426266058     0.488703821    -0.082942577     0.065491250
   61    30.175476258    12.139405366    40.329675884     0.491790506    -0.057833118     0.069263473
   62    30.007245453    17.655315828    32.763837952     0.493198009    -0.058763097     0.057468448
   63    23.269824757    18.188947345    39.957673910     0.483389587    -0.098275946     0.081708907
   64    24.609784241    19.510639499    31.024492749     0.487611207    -0.076235608     0.080146381
   65    25.736729950    14.237263415    33.871445320     0.471021030    -0.087548080     0.143089212
   66    22.135039526    17.119010866    38.464801267     0.481678333    -0.103688503     0.085056909
   67    28.966022993    13.147914925    38.576597372     0.490658353    -0.080461532     0.052728762
   68    22.129063799    12.678401035    35.675965304     0.499535345     0.003658946    -0.021237977
   21    33.022926200    16.891711093    34.742468049    -0.490672203     0.071879180    -0.063829247
   22    40.355231870    12.275333547    36.782394769     0.499349812    -0.024997485    -0.004989087
   23    40.239305452    19.802659259    37.647234400     0.487788837    -0.083128982     0.071774803
   24    35.186096025    14.690372907    38.475345821     0.493151887    -0.064138954     0.051840243
   25    36.464754835    10.934223190    31.760361892     0.486835314    -0.091253609     0.068294622
   26    33.023980792    11.516601072    38.297507099    -0.257158910     0.426711174     0.042271374
   27    31.688603970    13.516859550    33.585710525     0.491268725    -0.091725837     0.015537390
   28    38.681764687    15.955673297    31.854989389     0.494125669    -0.058956176     0.048620906
   29    39.394394509    18.608486199    35.934504215     0.484685022    -0.091722317     0.081654431
   30    38.164361238    19.522147580    32.631549489     0.490358255    -0.077767124     0.059169727
   31    36.676730300    20.485898272    39.645940704     0.486980908    -0.099297843     0.054676631
   32    38.803605188    11.136885509    38.874869207     0.488460428    -0.091665444     0.054807449
   33    31.866828520    18.511212096    36.277086591     0.488671172    -0.087709226     0.059224801
   34    41.464132491    13.495978057    38.995319066     0.412937357     0.226046876    -0.168480114
   35    38.836421703    18.097622323    31.171531566     0.491628153    -0.075146497     0.051524397
   36    38.350190071    13.084382199    36.505602273     0.498980297    -0.028611329     0.014144075
   37    38.855749432    15.697262083    38.442313532     0.490387793    -0.075312670     0.062030756
   38    36.940797622    16.614468854    35.141452278     0.495186879    -0.052798135     0.044747196
   39    39.127304322    16.309809568    34.566978269     0.496785310    -0.042763417     0.037089707
   40    33.893714755    19.328565316    37.113943170     0.487749780    -0.092098555     0.060149886
   41    37.393086798    12.520469880    34.554920282     0.498948508    -0.028899284     0.014670313
   42    31.677197078    18.962057346    34.003954333     0.492293378    -0.062966549     0.060683143
   43    35.215007805    17.546747840    36.148345344     0.494282538    -0.057510923     0.048757224
   44    40.155403013    14.546089229    35.431684177     0.497121857    -0.042481652     0.032636917
   45    35.494833823    20.062796678    35.607509429     0.489943647    -0.076687470     0.063829890
   46    38.586860233    11.741300319    32.907250774     0.498535079    -0.036820252     0.010346198
   47    38.011324263    12.311034058    40.472015503     0.491514474    -0.072914075     0.055651229
   48    41.216239369    13.967883926    31.393117595     0.488833497    -0.089403870     0.055215577
   49    34.455705807    15.820042533    32.483012422    -0.497942387     0.034932771     0.028863130
   50    37.610465831    19.894128869    37.604066334     0.485656255    -0.093092980     0.073970935
   51    40.887435935    16.327741247    31.532451219     0.492529266    -0.059240337     0.062494040
   52    40.594888505    20.090123005    32.233629847     0.485811088    -0.078759421     0.088230043
   53    39.864115169    14.770284624    40.156642654     0.489328857    -0.084948815     0.057801115
   54    36.023227400    12.876993912    40.468060392     0.487818017    -0.100643088     0.043641169
   55    34.469450546    20.545303139    33.369466926     0.486524211    -0.088522701     0.073877762
   56    37.580592079    14.537924790    40.333519639     0.491899025    -0.073205074     0.051733605
   57    36.470258598    16.464092494    37.963288295     0.492662521    -0.067692406     0.051974785
   58    35.343218943    10.752224309    37.753617967     0.489445038    -0.087002079     0.053611502
   59    36.994948984    12.231254083    38.468731679     0.491095765    -0.078417823     0.051726152
   60    40.100254903    16.910569243    39.714352928     0.489134082    -0.082567455     0.062693422
   61    40.265132207    12.284065578    40.617762754     0.494183899    -0.062174812     0.043778607
   62    40.096901403    17.799976039    33.051924822     0.493007753    -0.061128438     0.056627461
   63    33.359480706    18.333607557    40.245760779     0.485030993    -0.094542380     0.076201537
   64    34.699440191    19.655299711    31.312579619     0.487570621    -0.078734788     0.077946922
   65    35.826385900    14.381923627    34.159532189     0.442088301    -0.177659178     0.151641518
   66    32.224695476    17.263671078    38.752888137     0.483946034    -0.098040840     0.078639874
   67    39.055678942    13.292575137    38.864684241     0.491064823    -0.083148294     0.044064741
   68    32.218719749    12.823061247    35.964052174     0.488311548     0.074128325     0.077825597
   21     2.889033821    26.482823979    33.908832864    -0.489050631     0.074245987    -0.072917853
   22    10.221339492    21.866446433    35.948759584     0.499781441    -0.010200439     0.010698699
   23    10.105413073    29.393772145    36.813599215     0.487134783    -0.084743355     0.074285040
   24     5.052203647    24.281485793    37.641710636     0.492298953    -0.064714463     0.058768864
   25     6.330862457    20.525336076    30.926726707     0.487099795    -0.090464030     0.067454053
   26     2.890088414    21.107713958    37.463871914    -0.281314524     0.413213413    -0.010808038
   27     1.554711591    23.107972436    32.752075339     0.490673194    -0.095234270     0.013048023
   28     8.547872309    25.546786183    31.021354203     0.493503893    -0.060744769     0.052573578
   29     9.260502130    28.199599085    35.100869030     0.483801284    -0.093354829     0.084977609
   30     8.030468860    29.113260466    31.797914304     0.489674746    -0.081114417     0.060324911
   31     6.542837922    30.077011158    38.812305519     0.486396564    -0.096206892     0.064518343
   32     8.669712810    20.727998395    38.041234021     0.487624137    -0.092883325     0.059961566
   33     1.732936142    28.102324982    35.443451406     0.487417142    -0.090421054     0.065181001
   34    11.330240113    23.087090943    38.161683881     0.404632639     0.270396465    -0.114709108
   35     8.702529324    27.688735209    30.337896380     0.490957585    -0.077099851     0.054920512
   36     8.216297693    22.675495085    35.671967088     0.498963249    -0.020705557     0.024636486
   37     8.721857054    25.288374970    37.608678347     0.489471997    -0.075715124     0.068442560
   38     6.806905244    26.205581740    34.307817093     0.494479607    -0.053488088     0.051273213
   39     8.993411944    25.900922454    33.733343084     0.496277636    -0.043638752     0.042475489
   40     3.759822376    28.919678202    36.280307984     0.486743502    -0.093316723     0.066126788
   41     7.259194420    22.111582766    33.721285097     0.498973222    -0.022304872     0.022982958
   42     1.543304699    28.553170232    33.170319147     0.491078321    -0.067083554     0.065892937
   43     5.081115427    27.137860726    35.314710158     0.493495280    -0.058111608     0.055546823
   44    10.021510635    24.137202115    34.598048992     0.496698657    -0.043079155     0.037876521
   45     5.360941445    29.653909564    34.773874244     0.488973702    -0.077037274     0.070498065
   46     8.452967855    21.332413205    32.073615588     0.498737989    -0.031143388     0.017044284
   47     7.877431885    21.902146944    39.638380318     0.490594782    -0.073340088     0.062753414
   48    11.082346991    23.558996812    30.559482409     0.488126428    -0.091350045     0.058204462
   49     4.321813429    25.411155419    31.649377237    -0.495482927     0.039305397    -0.054330057
   50     7.476573453    29.485241755    36.770431148     0.484560676    -0.090057639     0.084205542
   51    10.753543557    25.918854133    30.698816034     0.491755387    -0.060571307     0.067139822
   52    10.460996127    29.681235891    31.399994662     0.485062295    -0.081445067     0.089895890
   53     9.730222790    24.361397510    39.323007468     0.488462360    -0.086520504     0.062599720
   54     5.889335022    22.468106798    39.634425207     0.486841493    -0.102201787     0.050399957
   55     4.335558168    30.136416025    32.535831741     0.485359937    -0.091749641     0.077509579
   56     7.446699701    24.129037676    39.499884454     0.491000480    -0.074461280     0.058086541
   57     6.336366220    26.055205380    37.129653110     0.491824342    -0.068136434     0.058874808
   58     5.209326565    20.343337195    36.919982781     0.488601857    -0.089447185     0.057161408
   59     6.861056606    21.822366969    37.635096493     0.490296814    -0.080012045     0.056631327
   60     9.966362525    26.501682129    38.880717742     0.488328592    -0.082562219     0.068692552
   61    10.131239829    21.875178464    39.784127569     0.493361051    -0.061509046     0.053023680
   62     9.963009025    27.391088925    32.218289636     0.492230151    -0.062414168     0.061757184
   63     3.225588328    27.924720443    39.412125594     0.484220300    -0.095906998     0.079577311
   64     4.565547812    29.246412597    30.478944433     0.486444009    -0.082419984     0.081112099
   65     5.692493522    23.973036513    33.325897004     0.433697015    -0.188692195     0.162179391
   66     2.090803098    26.854783964    37.919252952     0.483037473    -0.100964426     0.080504558
   67     8.921786564    22.883688023    38.031049056     0.490441177    -0.083909589     0.049260865
   68     2.084827370    22.414174133    35.130416989     0.491519170     0.060150307     0.069215941
   21    12.978689771    26.627484190    34.196919733    -0.489509323     0.072642895    -0.071439713
   22    20.310995441    22.011106645    36.236846454     0.493506778    -0.005800460     0.080108767
   23    20.195069023    29.538432357    37.101686085     0.487324458    -0.083903167     0.073994130
   24    15.141859597    24.426146005    37.929797505     0.490896022    -0.072022627     0.061917984
   25    16.420518407    20.669996287    31.214813576     0.485698171    -0.086217790     0.081631978
   26    12.979744364    21.252374170    37.751958784    -0.059339541     0.413499374    -0.274767332
   27    11.644367541    23.252632647    33.040162209     0.491730472    -0.079830567     0.042757727
   28    18.637528259    25.691446394    31.309441073     0.493549198    -0.055778992     0.057427288
   29    19.350158080    28.344259297    35.388955899     0.484125243    -0.091472965     0.085178904
   30    18.120124810    29.257920677    32.086001173     0.490029644    -0.074492875     0.065740087
   31    16.632493871    30.221671370    39.100392389     0.486803485    -0.094436351     0.064063583
   32    18.759368760    20.872658606    38.329320891     0.484362926    -0.102039169     0.070573107
   33    11.822592091    28.246985194    35.731538276     0.487744911    -0.088295213     0.065641888
   34    21.419896063    23.231751155    38.449770751     0.400417942     0.268586704     0.132388269
   35    18.792185274    27.833395421    30.625983250     0.491174815    -0.071704247     0.060048331
   36    18.305953643    22.820155296    35.960053957     0.495091172    -0.018959896     0.067270010
   37    18.811513004    25.433035181    37.896765216     0.488244133    -0.084470474     0.066950770
   38    16.896561194    26.350241952    34.595903963     0.494146947    -0.054047098     0.053830340
   39    19.083067894    26.045582666    34.021429953     0.496141784    -0.040238347     0.047161482
   40    13.849478326    29.064338413    36.568394854     0.487123436    -0.090995728     0.066562271
   41    17.348850370    22.256242977    34.009371967     0.496028792    -0.019677587     0.059734665
   42    11.632960649    28.697830443    33.458406017     0.491200020    -0.065439796     0.066634627
   43    15.170771376    27.282520937    35.602797028     0.493165248    -0.058925136     0.057583564
   44    20.111166585    24.281862326    34.886135862     0.496572281    -0.038388976     0.044071036
   45    15.450597394    29.798569776    35.061961113     0.489193227    -0.074385583     0.071810664
   46    18.542623805    21.477073417    32.361702458     0.496837633    -0.027955759     0.048691295
   47    17.967087835    22.046807156    39.926467187     0.487507376    -0.085580147     0.070799695
   48    21.172002941    23.703657023    30.847569279     0.487916953    -0.088219692     0.064454116
   49    14.411469379    25.555815631    31.937464107    -0.499498140     0.017139089     0.014417348
   50    17.566229403    29.629901966    37.058518018     0.485111877    -0.087606530     0.083615566
   51    20.843199506    26.063514345    30.986902903     0.491688313    -0.056194173     0.071307911
   52    20.550652076    29.825896102    31.688081532     0.485143911    -0.074987382     0.094933019
   53    19.819878740    24.506057722    39.611094338     0.487381765    -0.096516717     0.056067269
   54    15.978990972    22.612767010    39.922512077     0.483136189    -0.115666913     0.056573742
   55    14.425214118    30.281076237    32.823918611     0.485797566    -0.086036854     0.081230440
   56    17.536355651    24.273697888    39.787971324     0.488631343    -0.085695067     0.062416075
   57    16.426022169    26.199865592    37.417739980     0.490657055    -0.074605144     0.060743124
   58    15.298982515    20.487997407    37.208069651     0.484448310    -0.098724830     0.074587147
   59    16.950712556    21.967027181    37.923183363     0.486867816    -0.089214615     0.070714085
   60    20.056018475    26.646342341    39.168804612     0.487224880    -0.090958006     0.065867730
   61    20.220895779    22.019838675    40.072214438     0.489888133    -0.076656103     0.064291985
   62    20.052664974    27.535749137    32.506376506     0.492278175    -0.058577569     0.065045116
   63    13.315244278    28.069380655    39.700212464     0.484509070    -0.092703860     0.081590166
   64    14.655203762    29.391072809    30.767031303     0.486773142    -0.076376097     0.084962344
   65    15.782149472    24.117696725    33.613983874     0.419641855    -0.147933242     0.228071194
   66    12.180459047    26.999444175    38.207339821     0.483323089    -0.096975340     0.083633575
   67    19.011442514    23.028348234    38.319135926     0.488619489    -0.092942797     0.051113910
   68    12.174483320    22.558834344    35.418503858     0.499564433     0.016902619    -0.012234307
   21    23.068345721    26.772144402    34.485006603    -0.489799961     0.070665953    -0.071430533
   22    30.400651391    22.155766857    36.524933323     0.498338692     0.016648712     0.037166761
   23    30.284724973    29.683092568    37.389772954     0.488190955    -0.083645921     0.068358986
   24    25.231515547    24.570806216    38.217884375     0.493025844    -0.065364374     0.051507431
   25    26.510174357    20.814656499    31.502900446     0.486720500    -0.087087894     0.074288986
   26    23.069400314    21.397034382    38.040045653    -0.164214397     0.425591508     0.204708328
   27    21.734023491    23.397292859    33.328249078     0.493808749    -0.075538299     0.021139640
   28    28.727184209    25.836106606    31.597527943     0.494270137    -0.054950672     0.051744132
   29    29.439814030    28.488919509    35.677042769     0.485276314    -0.091175375     0.078701655
   30    28.209780760    29.402580889    32.374088043     0.490830335    -0.074081394     0.059979404
   31    26.722149821    30.366331581    39.388479258     0.487300945    -0.096808570     0.056266243
   32    28.849024710    21.017318818    38.617407761     0.488049205    -0.093130664     0.055987972
   33    21.912248041    28.391645406    36.019625145     0.488007615    -0.088288487     0.063668757
   34    31.509552012    23.376411367    38.737857620     0.392998122     0.309047197    -0.006504365
   35    28.881841224    27.978055632    30.914070120     0.491911858    -0.071526511     0.053913651
   36    28.395609592    22.964815508    36.248140827     0.498505293    -0.003456390     0.038477605
   37    28.901168954    25.577695393    38.184852086     0.490193874    -0.078859469     0.059085957
   38    26.986217143    26.494902164    34.883990832     0.495329038    -0.050191958     0.046150961
   39    29.172723844    26.190242877    34.309516823     0.497027209    -0.038297621     0.038694259
   40    23.939134276    29.208998625    36.856481724     0.487678473    -0.091058656     0.062273814
   41    27.438506319    22.400903189    34.297458836     0.498787344    -0.007548999     0.033973486
   42    21.722616599    28.842490655    33.746492887     0.491345859    -0.063215418     0.067698287
   43    25.260427326    27.427181149    35.890883898     0.494376462    -0.055278521     0.050360688
   44    30.200822534    24.426522538    35.174222731     0.497508496    -0.036517085     0.033938158
   45    25.540253344    29.943229988    35.350047983     0.490002761    -0.074109167     0.066371118
   46    28.632279755    21.621733629    32.649789328     0.498968337    -0.018554173     0.026198125
   47    28.056743785    22.191467368    40.214554057     0.490532939    -0.075633672     0.060472994
   48    31.261658891    23.848317235    31.135656149     0.489123643    -0.085104148     0.059290355
   49    24.501125328    25.700475842    32.225550976    -0.496072671     0.030502571    -0.054603098
   50    27.655885353    29.774562178    37.346604888     0.485918310    -0.090061788     0.075975460
   51    30.932855456    26.208174556    31.274989773     0.492605691    -0.055616280     0.065164886
   52    30.640308026    29.970556314    31.976168401     0.486534143    -0.074410627     0.088020374
   53    29.909534690    24.650717933    39.899181208     0.489099438    -0.090799510     0.050370511
   54    26.068646922    22.757427221    40.210598946     0.486953268    -0.104331325     0.044626107
   55    24.514870068    30.425736449    33.112005480     0.486674483    -0.084778474     0.077204653
   56    27.626011601    24.418358099    40.076058193     0.491331877    -0.076926498     0.051723304
   57    26.515678119    26.344525803    37.705826849     0.492603294    -0.068425199     0.051575059
   58    25.388638464    20.632657619    37.496156521     0.488739345    -0.092205035     0.051303843
   59    27.040368505    22.111687393    38.211270233     0.490665027    -0.080925294     0.051951213
   60    30.145674425    26.791002553    39.456891482     0.488749068    -0.087019350     0.059598496
   61    30.310551729    22.164498887    40.360301308     0.493006798    -0.063977234     0.053396727
   62    30.142320924    27.680409349    32.794463376     0.493158603    -0.057686422     0.058880121
   63    23.404900228    28.214040866    39.988299333     0.484060121    -0.099284636     0.076343695
   64    24.744859712    29.535733020    31.055118173     0.487586113    -0.074582117     0.081836972
   65    25.871805421    24.262356936    33.902070743     0.398616951    -0.292825805     0.073195453
   66    22.270114997    27.144104387    38.495426691     0.482711339    -0.103392593     0.079370870
   67    29.101098464    23.173008446    38.607222795     0.490956718    -0.084928993     0.041815870
   68    22.264139270    22.703494556    35.706590728     0.490502169     0.021489636     0.094582333
   21    33.158001671    26.916804614    34.773093473    -0.489933303     0.068502908    -0.072613432
   22    40.490307341    22.300427068    36.813020193     0.495877033     0.018042232     0.061485335
   23    40.374380923    29.827752780    37.677859824     0.487195990    -0.084241108     0.074454705
   24    35.321171496    24.715466428    38.505971244     0.492035423    -0.069833368     0.054994942
   25    36.599830306    20.959316711    31.790987315     0.485909910    -0.090553652     0.075442660
   26    33.159056263    21.541694593    38.328132523     0.096575448     0.472486107    -0.132022957
   27    31.823679441    23.541953071    33.616335948     0.492448165    -0.082767000     0.025385599
   28    38.816840158    25.980766818    31.885614812     0.493688411    -0.062986788     0.048004343
   29    39.529469980    28.633579720    35.965129638     0.483884065    -0.093029074     0.084863440
   30    38.299436709    29.547241101    32.662174913     0.489504246    -0.081037634     0.061793970
   31    36.811805771    30.510991793    39.676566128     0.486764539    -0.097731329     0.059235721
   32    38.938680660    21.161979030    38.905494630     0.486721647    -0.097347910     0.060211485
   33    32.001903991    28.536305617    36.307712015     0.488331841    -0.087314246     0.062515882
   34    41.599207962    23.521071578    39.025944490     0.357001988     0.343112887     0.069448735
   35    38.971497174    28.122715844    31.202156989     0.490898250    -0.078720407     0.053122548
   36    38.485265542    23.109475720    36.536227697     0.497060401    -0.007057553     0.053676329
   37    38.990824903    25.722355604    38.472938955     0.489326875    -0.081623061     0.062425040
   38    37.075873093    26.639562375    35.172077702     0.494608857    -0.055320466     0.047976291
   39    39.262379794    26.334903089    34.597603692     0.496387609    -0.045059537     0.039610344
   40    34.028790226    29.353658837    37.144568593     0.487332583    -0.091472396     0.064340925
   41    37.528162269    22.545563401    34.585545706     0.497618956    -0.012445504     0.047122009
   42    31.812272549    28.987150867    34.034579756     0.492061492    -0.062133568     0.063363301
   43    35.350083276    27.571841361    36.178970767     0.493645745    -0.059677555     0.052463965
   44    40.290478484    24.571182750    35.462309601     0.496887503    -0.043619172     0.034643575
   45    35.629909294    30.087890199    35.638134852     0.489444941    -0.076178376     0.068121250
   46    38.721935704    21.766393840    32.937876197     0.497969933    -0.024092877     0.038019455
   47    38.146399734    22.336127579    40.502640927     0.489468435    -0.081377450     0.061630847
   48    41.351314841    23.992977447    31.423743018     0.488350540    -0.096509788     0.046900007
   49    34.590781278    25.845136054    32.513637846    -0.447189426    -0.052107799    -0.217500333
   50    37.745541302    29.919222390    37.634691757     0.485225914    -0.090563586     0.079712291
   51    41.022511406    26.352834768    31.563076642     0.491807068    -0.063008161     0.064465335
   52    40.729963976    30.115216526    32.264255271     0.484503105    -0.082704295     0.091742800
   53    39.999190640    24.795378145    40.187268077     0.488270440    -0.094430257     0.051719474
   54    36.158302871    22.902087433    40.498685816     0.485371625    -0.110782219     0.046278351
   55    34.604526017    30.570396660    33.400092350     0.485770129    -0.088480287     0.078731322
   56    37.715667550    24.563018311    40.364145063     0.490230887    -0.082130154     0.054113908
   57    36.605334069    26.489186015    37.993913719     0.491600984    -0.073039648     0.054714554
   58    35.478294414    20.777317830    37.784243390     0.486588194    -0.096804642     0.062135264
   59    37.130024455    22.256347604    38.499357102     0.489089550    -0.085252339     0.059358661
   60    40.235330374    26.935662764    39.744978351     0.488020138    -0.088350073     0.063487084
   61    40.400207679    22.309159099    40.648388178     0.491877078    -0.070334769     0.055767021
   62    40.231976874    27.825069560    33.082550245     0.492241408    -0.064214623     0.059790289
   63    33.494556177    28.358701078    40.276386203     0.484963867    -0.095560515     0.075354072
   64    34.834515662    29.680393232    31.343205042     0.486828409    -0.078391039     0.082782515
   65    35.961461371    24.407017148    34.190157613     0.412601569    -0.282403749     0.002840424
   66    32.359770947    27.288764599    38.783513561     0.483947289    -0.099861588     0.076306517
   67    39.190754413    23.317668658    38.895309665     0.489945141    -0.089756263     0.043561130
   68    32.353795220    22.848154768    35.994677597     0.496185613     0.052354367     0.032540090
   21     3.024109292    36.507917500    33.939458287    -0.488132232     0.076698833    -0.076447457
   22    10.356414963    31.891539954    35.979385008     0.499667617     0.002336498     0.018077977
   23    10.240488544    39.418865666    36.844224639     0.485426673    -0.089089828     0.080149533
   24     5.187279118    34.306579314    37.672336059     0.490279772    -0.072079993     0.066559895
   25     6.465937928    30.550429597    30.957352130     0.484815885    -0.096538474     0.075059178
   26     3.025163885    31.132807479    37.494497338    -0.179861736     0.390509801    -0.255248606
   27     1.689787062    33.133065957    32.782700763     0.489949417    -0.093062200     0.035902582
   28     8.682947780    35.571879704    31.051979627     0.492367138    -0.065544219     0.057258680
   29     9.395577601    38.224692606    35.131494453     0.481992330    -0.097944682     0.089945724
   30     8.165544331    39.138353987    31.828539727     0.488580593    -0.084110869     0.064918145
   31     6.677913393    40.102104679    38.842930943     0.485018411    -0.100474612     0.068278793
   32     8.804788281    30.753091916    38.071859445     0.485750707    -0.095961958     0.069552525
   33     1.868011613    38.127418504    35.474076830     0.486807443    -0.091523004     0.068132615
   34    11.465315584    33.112184464    38.192309305     0.376806992     0.309594863    -0.110306443
   35     8.837604795    37.713828730    30.368521804     0.489653231    -0.081572503     0.059880212
   36     8.351373164    32.700588606    35.702592511     0.498692092    -0.016002609     0.032405463
   37     8.856932525    35.313468491    37.639303770     0.487083012    -0.084462857     0.074941079
   38     6.941980715    36.230675261    34.338442517     0.493251946    -0.059618788     0.056108090
   39     9.128487415    35.926015975    33.763968507     0.495361803    -0.048845306     0.047231562
   40     3.894897847    38.944771723    36.310933408     0.485719253    -0.096311765     0.069288174
   41     7.394269891    32.136676287    33.751910521     0.498635229    -0.019910663     0.031088160
   42     1.678380170    38.578263753    33.200944571     0.490704143    -0.066502873     0.069186793
   43     5.216190898    37.162954247    35.345335582     0.492209980    -0.063932429     0.060348823
   44    10.156586106    34.162295636    34.628674415     0.495889282    -0.047818092     0.042511768
   45     5.496016916    39.679003085    34.804499667     0.487844889    -0.080492656     0.074352515
   46     8.588043326    31.357506726    32.104241012     0.498441141    -0.030558490     0.024952099
   47     8.012507356    31.927240465    39.669005741     0.488673788    -0.077946037     0.071570555
   48    11.217422462    33.584090333    30.590107833     0.486433778    -0.096290372     0.064111966
   49     4.456888900    35.436248940    31.680002661    -0.493075100     0.037890573    -0.073764828
   50     7.611648924    39.510335276    36.801056572     0.483026671    -0.094866255     0.087667719
   51    10.888619028    35.943947654    30.729441457     0.490433606    -0.065722271     0.071801542
   52    10.596071598    39.706329412    31.430620086     0.483805389    -0.084973369     0.093337411
   53     9.865298261    34.386491031    39.353632892     0.485864016    -0.095614064     0.069239506
   54     6.024410493    32.493200319    39.665050631     0.484372352    -0.108686500     0.059755077
   55     4.470633639    40.161509546    32.566457165     0.484298513    -0.093628761     0.081783893
   56     7.581775172    34.154131197    39.530509877     0.488867364    -0.080664108     0.067096962
   57     6.471441691    36.080298901    37.160278534     0.489818810    -0.075797988     0.065819440
   58     5.344402036    30.368430716    36.950608205     0.486023231    -0.092255108     0.072597614
   59     6.996132077    31.847460490    37.665721917     0.488199582    -0.083366852     0.068637717
   60    10.101437996    36.526775650    38.911343166     0.485669215    -0.091939229     0.075316611
   61    10.266315300    31.900271985    39.814752992     0.491766913    -0.066034106     0.061683065
   62    10.098084496    37.416182446    32.248915060     0.491015735    -0.067518789     0.065914799
   63     3.360663799    37.949813964    39.442751018     0.483038722    -0.097957721     0.084130125
   64     4.700623283    39.271506118    30.509569857     0.485473166    -0.083732361     0.085467521
   65     5.827568993    33.998130034    33.356522428     0.384008809    -0.248290058     0.202210984
   66     2.225878569    36.879877485    37.949878375     0.482141901    -0.101259354     0.085356492
   67     9.056862035    32.908781544    38.061674480     0.488551663    -0.089914319     0.056856729
   68     2.219902841    32.439267654    35.161042412     0.497195394     0.046845518     0.024540538
   21    13.113765242    36.652577711    34.227545157    -0.487754093     0.078318398    -0.077215113
   22    20.446070912    32.036200166    36.267471877     0.499461623    -0.003107489     0.022987618
   23    20.330144494    39.563525878    37.132311508     0.486099538    -0.093488812     0.070477525
   24    15.276935068    34.451239526    37.960422929     0.491303540    -0.066628126     0.064664708
   25    16.555593878    30.695089808    31.245439000     0.485563094    -0.086428122     0.082211078
   26    13.114819835    31.277467691    37.782584207    -0.182212174     0.375072303    -0.275897610
   27    11.779443012    33.277726168    33.070787632     0.489351425    -0.091256215     0.046983889
   28    18.772603730    35.716539915    31.340066497     0.493665054    -0.057482850     0.054685798
   29    19.485233551    38.369352818    35.419581323     0.482810840    -0.101447397     0.081253420
   30    18.255200281    39.283014198    32.116626597     0.489857751    -0.078892250     0.061768895
   31    16.767569342    40.246764891    39.131017812     0.485150827    -0.105151498     0.059764854
   32    18.894444231    30.897752128    38.359946314     0.486259409    -0.093791147     0.068956564
   33    11.957667562    38.272078715    35.762163699     0.485901111    -0.095215645     0.069527633
   34    21.554971534    33.256844676    38.480396174     0.401610431     0.283781678    -0.090426880
   35    18.927260745    37.858488942    30.656608674     0.491183350    -0.074001653     0.057119801
   36    18.441029114    32.845248818    35.990679381     0.498507916    -0.015772956     0.035228845
   37    18.946588475    35.458128702    37.927390640     0.488371847    -0.078831614     0.072653393
   38    17.031636665    36.375335473    34.626529386     0.494054467    -0.054465931     0.054255377
   39    19.218143365    36.070676187    34.052055377     0.496220267    -0.041601697     0.045108154
   40    13.984553797    39.089431934    36.599020277     0.485366270    -0.098015132     0.069373032
   41    17.483925841    32.281336498    34.039997390     0.498501347    -0.017542611     0.034476998
   42    11.768036120    38.722923965    33.489031441     0.489779071    -0.071119645     0.071122832
   43    15.305846847    37.307614458    35.633422452     0.492924003    -0.060124553     0.058403474
   44    20.246242056    34.306955847    34.916761285     0.496702698    -0.040155772     0.040913860
   45    15.585672865    39.823663297    35.092586537     0.488133342    -0.081341522     0.071480047
   46    18.677699276    31.502166938    32.392327882     0.498438847    -0.026657463     0.029122084
   47    18.102163306    32.071900677    39.957092611     0.489009344    -0.076192498     0.071165755
   48    21.307078412    33.728750544    30.878194703     0.488237214    -0.088823914     0.061112484
   49    14.546544850    35.580909152    31.968089530    -0.494760688     0.025229428    -0.067641245
   50    17.701304874    39.654995487    37.089143442     0.483704389    -0.097877222     0.080312600
   51    20.978274977    36.088607866    31.017528327     0.491788705    -0.058151507     0.069009217
   52    20.685727547    39.850989623    31.718706955     0.485248420    -0.078834628     0.091208950
   53    19.954954211    34.531151243    39.641719762     0.487172493    -0.090383140     0.067036186
   54    16.114066443    32.637860531    39.953137500     0.485358624    -0.105203419     0.057959012
   55    14.560289589    40.306169758    32.854544034     0.484896686    -0.092199935     0.079839686
   56    17.671431122    34.298791409    39.818596747     0.489648522    -0.077011657     0.065677468
   57    16.561097640    36.224959113    37.448365403     0.490902592    -0.070306574     0.063809334
   58    15.434057986    30.513090928    37.238695074     0.486437860    -0.089842036     0.072846530
   59    17.085788027    31.992120702    37.953808787     0.488675895    -0.080799786     0.068317378
   60    20.191093946    36.671435862    39.199430036     0.487090689    -0.085976699     0.073148259
   61    20.355971250    32.044932196    40.102839862     0.491862069    -0.065265751     0.061742097
   62    20.187740445    37.560842658    32.537001930     0.492256209    -0.060960048     0.062989663
   63    13.450319749    38.094474176    39.730837887     0.481967982    -0.101922996     0.085548624
   64    14.790279233    39.416166330    30.797656726     0.485983004    -0.082427597     0.083822499
   65    15.917224943    34.142790246    33.644609297     0.425797388    -0.204435200     0.164020833
   66    12.315534518    37.024537696    38.237965245     0.480575260    -0.106098319     0.088264184
   67    19.146517985    33.053441755    38.349761349     0.489346493    -0.086141318     0.055854127
   68    12.309558791    32.583927865    35.449129282     0.498540424     0.037819852    -0.005206167
   21    23.203421192    36.797237923    34.515632027    -0.489821635     0.070784496    -0.071164046
   22    30.535726862    32.180860378    36.555558747     0.499439668     0.001354243     0.023625928
   23    30.419800444    39.708186089    37.420398378     0.488925795    -0.073430267     0.074562476
   24    25.366591018    34.595899737    38.248509798     0.492464882    -0.063397475     0.058814114
   25    26.645249828    30.839750020    31.533525869     0.486332600    -0.087069969     0.076807697
   26    23.204475785    31.422127903    38.070671077    -0.044611116     0.442031362    -0.229386406
   27    21.869098962    33.422386380    33.358874502     0.492207162    -0.077336661     0.041846753
   28    28.862259680    35.861200127    31.628153366     0.494159735    -0.050324880     0.057215060
   29    29.574889501    38.514013030    35.707668192     0.485885281    -0.081161858     0.085605175
   30    28.344856231    39.427674410    32.404713467     0.491062193    -0.068032048     0.065035090
   31    26.857225292    40.391425102    39.419104682     0.488103368    -0.086907275     0.064824591
   32    28.984100181    31.042412339    38.648033184     0.487032732    -0.095154095     0.061194899
   33    22.047323512    38.416738927    36.050250569     0.488036835    -0.086816769     0.065443838
   34    31.644627483    33.401504888    38.768483044     0.402483205     0.292513670    -0.049426940
   35    29.016916695    38.003149153    30.944695543     0.491866212    -0.066510553     0.060365354
   36    28.530685063    32.989909029    36.278766251     0.498743233    -0.012109813     0.033294740
   37    29.036244425    35.602788914    38.215477509     0.489564783    -0.076341073     0.067069846
   38    27.121292614    36.519995685    34.914616256     0.495007446    -0.046790953     0.052708964
   39    29.307799315    36.215336398    34.340142246     0.496712195    -0.034425139     0.045737353
   40    24.074209747    39.234092146    36.887107147     0.488041681    -0.086069004     0.066388587
   41    27.573581790    32.425996710    34.328084260     0.498804272    -0.014504738     0.031367357
   42    21.857692070    38.867584176    33.777118310     0.491257654    -0.065103285     0.066539313
   43    25.395502797    37.452274670    35.921509321     0.494083026    -0.051641791     0.056701756
   44    30.335898005    34.451616059    35.204848155     0.497168524    -0.033497948     0.041247374
   45    25.675328815    39.968323509    35.380673406     0.490123437    -0.068095625     0.071707760
   46    28.767355226    31.646827150    32.680414751     0.498796658    -0.024139763     0.024883036
   47    28.191819256    32.216560889    40.245179481     0.489936804    -0.078822231     0.061228949
   48    31.396734362    33.873410756    31.166281572     0.488903776    -0.082050194     0.065121910
   49    24.636200799    35.725569363    32.256176400    -0.499894645     0.009814478    -0.003003283
   50    27.790960824    39.799655699    37.377230311     0.486445813    -0.079804508     0.083676233
   51    31.067930927    36.233268077    31.305615196     0.492298396    -0.050656893     0.071247233
   52    30.775383497    39.995649835    32.006793825     0.486360501    -0.068617812     0.093515018
   53    30.044610161    34.675811454    39.929806631     0.488359635    -0.089478710     0.059147507
   54    26.203722393    32.782520742    40.241224370     0.486182990    -0.105868402     0.049172978
   55    24.649945539    40.450829970    33.142630904     0.486988074    -0.079516665     0.080744755
   56    27.761087072    34.443451620    40.106683617     0.490647030    -0.077579035     0.056982324
   57    26.650753590    36.369619324    37.736452273     0.492106737    -0.066075773     0.058863837
   58    25.523713935    30.657751140    37.526781944     0.486872521    -0.092951243     0.065690297
   59    27.175443976    32.136780914    38.241895656     0.489393175    -0.082284976     0.061020515
   60    30.280749896    36.816096074    39.487516905     0.488417550    -0.083099596     0.067399955
   61    30.445627200    32.189592408    40.390926731     0.492597591    -0.068249453     0.051861598
   62    30.277396395    37.705502870    32.825088799     0.493104597    -0.052354415     0.064084881
   63    23.539975699    38.239134387    40.018924757     0.484149521    -0.091924035     0.084553022
   64    24.879935183    39.560826541    31.085743596     0.487784181    -0.070103059     0.084570407
   65    26.006880893    34.287450457    33.932696167     0.372805445    -0.140406677     0.302162317
   66    22.405190468    37.169197908    38.526052115     0.482749094    -0.097474846     0.086324772
   67    29.236173935    33.198101967    38.637848219     0.490218704    -0.086363458     0.047190845
   68    22.399214741    32.728588077    35.737216151     0.499319180     0.025921626     0.002902777
   21    33.293077142    36.941898135    34.803718896    -0.489831449     0.065492254    -0.075999451
   22    40.625382812    32.325520589    36.843645616     0.498497980     0.008779204     0.037718560
   23    40.509456394    39.852846301    37.708485247     0.488261226    -0.078845475     0.073378240
   24    35.456246967    34.740559949    38.536596668     0.491534291    -0.067149503     0.062329647
   25    36.734905777    30.984410232    31.821612739     0.484621370    -0.092869446     0.080730375
   26    33.294131734    31.566788114    38.358757946     0.020038254     0.493241675    -0.079442549
   27    31.958754912    33.567046592    33.646961372     0.493041206    -0.070813977     0.043540212
   28    38.951915629    36.005860339    31.916240236     0.493132918    -0.061891170     0.054675484
   29    39.664545451    38.658673241    35.995755062     0.484939115    -0.087842687     0.084366563
   30    38.434512180    39.572334622    32.692800336     0.489819079    -0.078218372     0.062921828
   31    36.946881242    40.536085314    39.707191551     0.488225619    -0.087979929     0.062412159
   32    39.073756131    31.187072551    38.936120054     0.486330509    -0.095551959     0.065973171
   33    32.136979462    38.561399138    36.338337439     0.488719912    -0.081806482     0.066787324
   34    41.734283433    33.546165099    39.056569913     0.377250046     0.323403282    -0.055612228
   35    39.106572645    38.147809365    31.232782413     0.490492468    -0.077595568     0.058275780
   36    38.620341013    33.134569241    36.566853120     0.497880802    -0.012075156     0.044372263
   37    39.125900374    35.747449126    38.503564379     0.488717513    -0.079105609     0.069982104
   38    37.210948564    36.664655896    35.202703125     0.494229680    -0.053330308     0.053785699
   39    39.397455265    36.359996610    34.628229116     0.495877856    -0.044747237     0.045856701
   40    34.163865697    39.378752358    37.175194017     0.488106521    -0.085722633     0.066360033
   41    37.663237740    32.570656922    34.616171130     0.497908299    -0.016914847     0.042440709
   42    31.947348020    39.012244388    34.065205180     0.492019420    -0.056372597     0.068840547
   43    35.485158747    37.596934882    36.209596191     0.493407337    -0.056611072     0.057830666
   44    40.425553955    34.596276271    35.492935024     0.496279233    -0.044466007     0.041589630
   45    35.764984765    40.112983720    35.668760276     0.489934161    -0.069889912     0.071273545
   46    38.857011175    31.791487361    32.968501621     0.497925541    -0.028422856     0.035528813
   47    38.281475205    32.361221100    40.533266350     0.489448774    -0.076273738     0.067986871
   48    41.486390312    34.018070968    31.454368442     0.487347750    -0.095713487     0.057715670
   49    34.725856749    35.870229575    32.544263269    -0.482564500     0.018736832    -0.129539316
   50    37.880616773    39.944315911    37.665317181     0.486451370    -0.081679578     0.081813884
   51    41.157586877    36.377928289    31.593702066     0.491165164    -0.062042341     0.070053761
   52    40.865039447    40.140310047    32.294880694     0.485052918    -0.079557238     0.091620480
   53    40.134266111    34.820471666    40.217893501     0.487615942    -0.091034648     0.062796387
   54    36.293378342    32.927180954    40.529311239     0.485348068    -0.106571053     0.055496516
   55    34.739601488    40.595490181    33.430717773     0.486492577    -0.083216731     0.079999679
   56    37.850743021    34.588111832    40.394770486     0.489898996    -0.078207740     0.062309895
   57    36.740409540    36.514279536    38.024539142     0.491149585    -0.070297373     0.061889937
   58    35.613369885    30.802411351    37.814868814     0.486381934    -0.095672287     0.065417336
   59    37.265099926    32.281441125    38.529982526     0.488703834    -0.084189540     0.063880229
   60    40.370405845    36.960756285    39.775603775     0.487507385    -0.085731971     0.070615710
   61    40.535283150    32.334252620    40.679013601     0.492332775    -0.063708151     0.059579445
   62    40.367052345    37.850163081    33.113175669     0.491867508    -0.062975960     0.064034236
   63    33.629631649    38.383794599    40.307011627     0.485094405    -0.090188103     0.080929129
   64    34.969591133    39.705486753    31.373830466     0.487380636    -0.073463924     0.084042654
   65    36.096536842    34.432110669    34.220783037     0.426521998    -0.147857184     0.214981949
   66    32.494846418    37.313858120    38.814138984     0.483836428    -0.094956035     0.082979888
   67    39.325829884    33.342762179    38.925935088     0.489539505    -0.086961796     0.052808323
   68    32.488870691    32.873248289    36.025303021     0.498910068     0.031697696     0.009165166
