CRYSTAL
PRIMVEC
    40.358642790     0.578641119     1.152348021
     0.540302138    40.100392953     0.122501752
     1.147485224     0.128543006    40.047960291
PRIMCOORD
 3072    1
   21     1.758269367     6.336229727     3.811625931     0.013144426    -0.020994900    -0.499386061
   22     9.090575037     1.719852182     5.851552651    -0.028771741    -0.141455478     0.478709238
   23     8.974648619     9.247177894     6.716392283    -0.018944878    -0.006348644     0.499600627
   24     3.921439192     4.134891542     7.544503703    -0.005734819     0.017122022     0.499673842
   25     5.200098002     0.378741824     0.829519774    -0.009886702     0.012449616     0.499747196
   26     1.759323959     0.961119707     7.366664982    -0.019606797    -0.419380560    -0.271542850
   27     0.423947137     2.961378184     2.654868407     0.038122244     0.049387015     0.496092347
   28     7.417107854     5.400191931     0.924147271     0.009857338     0.009683964     0.499809017
   29     8.129737675     8.053004834     5.003662097    -0.020559100    -0.009591358     0.499485064
   30     6.899704405     8.966666214     1.700707371    -0.004325815    -0.007382010     0.499926788
   31     5.412073467     9.930416906     8.715098586    -0.000292592     0.004015503     0.499983790
   32     7.538948355     0.581404143     7.944027089    -0.009939180    -0.000727379     0.499900674
   33     0.602171687     7.955730731     5.346244474    -0.010706280    -0.009014357     0.499804079
   34    10.199475658     2.940496692     8.064476948    -0.012294693    -0.423241915     0.265923150
   35     7.571764870     7.542140958     0.240689448     0.005368027     0.004518216     0.499950768
   36     7.085533238     2.528900833     5.574760155    -0.012715979    -0.093465110     0.491021972
   37     7.591092599     5.141780718     7.511471414    -0.011078665     0.005085102     0.499851383
   38     5.676140789     6.058987489     4.210610160    -0.000345127    -0.000125817     0.499999865
   39     7.862647489     5.754328203     3.636136151     0.016677065     0.002262048     0.499716678
   40     2.629057922     8.773083950     6.183101052    -0.008016839     0.005277629     0.499907868
   41     6.128429965     1.964988514     3.624078165    -0.005571532    -0.072078542     0.494746038
   42     0.412540245     8.406575980     3.073112215    -0.005779556     0.012130604     0.499819413
   43     3.950350972     6.991266474     5.217503226    -0.003218921     0.001313108     0.499987914
   44     8.890746180     3.990607863     4.500842059     0.019866066    -0.005850835     0.499570923
   45     4.230176990     9.507315313     4.676667311    -0.012574767     0.007881609     0.499779707
   46     7.322203400     1.185818954     1.976408656     0.004772620    -0.056630020     0.496759764
   47     6.746667430     1.755552693     9.541173385    -0.011681390     0.002966740     0.499854722
   48     9.951582536     3.412402560     0.462275477     0.005879753     0.011225316     0.499839395
   49     3.191048974     5.264561167     1.552170305     0.030207742    -0.035459157    -0.497825412
   50     6.345808998     9.338647503     6.673224216    -0.021082048     0.020952465     0.499115760
   51     9.622779102     5.772259882     0.601609101    -0.001772643     0.013672692     0.499809879
   52     9.330231672     9.534641639     1.302787729    -0.029774357     0.002925244     0.499104128
   53     8.599458335     4.214803259     9.225800536    -0.004343295     0.010014628     0.499880829
   54     4.758570567     2.321512547     9.537218274    -0.005395193    -0.024841384     0.499353379
   55     3.204793713     9.989821774     2.438624809    -0.013531505     0.006107678     0.499779546
   56     6.315935246     3.982443425     9.402677521    -0.006307999     0.007117556     0.499909541
   57     5.205601765     5.908611129     7.032446177    -0.006427363     0.007008110     0.499909567
   58     4.078562110     0.196742944     6.822775849    -0.007506301     0.006267169     0.499904369
   59     5.730292151     1.675772718     7.537889561    -0.007716537    -0.005382093     0.499911480
   60     8.835598070     6.355087878     8.783510810    -0.007423151     0.007228887     0.499892628
   61     9.000475374     1.728584212     9.686920636    -0.008496293    -0.025648343     0.499269442
   62     8.832244570     7.244494674     2.121082704     0.003259611     0.008617580     0.499915105
   63     2.094823873     7.778126192     9.314918662    -0.014298229     0.001839596     0.499792133
   64     3.434783357     9.099818346     0.381737501    -0.015319427     0.010764477     0.499649318
   65     4.561729067     3.826442261     3.228690072    -0.084781776     0.014710413     0.492540003
   66     0.960038643     6.708189712     7.822046019    -0.020789970     0.000036725     0.499567589
   67     7.791022109     2.737093771     7.933842124     0.001953122     0.002282642     0.499990975
   68     0.954062916     2.267579881     5.033210056    -0.057191190    -0.215622547     0.447477469
   21    11.847925316     6.480889939     4.099712801     0.007388668    -0.020079182    -0.499542024
   22    19.180230987     1.864512394     6.139639521    -0.033531565    -0.142987637     0.477943689
   23    19.064304568     9.391838105     7.004479152    -0.013789843    -0.005166963     0.499783096
   24    14.011095142     4.279551753     7.832590573    -0.003909451     0.016150709     0.499723794
   25    15.289753952     0.523402036     1.117606644    -0.014328730     0.007170406     0.499743207
   26    11.848979909     1.105779919     7.654751851     0.040284586    -0.415906109    -0.274589258
   27    10.513603086     3.106038396     2.942955276     0.040138628     0.049614790     0.495910539
   28    17.506763804     5.544852143     1.212234141     0.008383169     0.009261043     0.499843931
   29    18.219393625     8.197665046     5.291748967    -0.015984524    -0.009674068     0.499650785
   30    16.989360355     9.111326426     1.988794241    -0.004062585    -0.006942157     0.499935298
   31    15.501729417    10.075077118     9.003185456     0.005650210     0.007516059     0.499911576
   32    17.628604305     0.726064355     8.232113958    -0.009118840    -0.000538376     0.499916550
   33    10.691827637     8.100390943     5.634331343    -0.006399443    -0.009670532     0.499865510
   34    20.289131608     3.085156904     8.352563818    -0.057764278    -0.423338468     0.259707200
   35    17.661420819     7.686801169     0.528776317     0.004133492     0.004819022     0.499959690
   36    17.175189188     2.673561045     5.862847025    -0.010188384    -0.095565005     0.490676601
   37    17.680748549     5.286440930     7.799558284    -0.006200836     0.006034287     0.499925131
   38    15.765796739     6.203647701     4.498697030     0.005557604    -0.001225380     0.499967610
   39    17.952303439     5.898988414     3.924223021     0.019144819     0.002129319     0.499628804
   40    12.718713871     8.917744162     6.471187921    -0.003398490     0.005892029     0.499953732
   41    16.218085915     2.109648726     3.912165034    -0.000415229    -0.075161206     0.494318339
   42    10.502196194     8.551236192     3.361199084    -0.001258150     0.010670894     0.499884536
   43    14.040006922     7.135926686     5.505590095     0.001030152    -0.000752023     0.499998373
   44    18.980402130     4.135268075     4.788928929     0.023648186    -0.004702601     0.499418310
   45    14.319832940     9.651975525     4.964754181    -0.008398203     0.008626039     0.499855041
   46    17.411859350     1.330479165     2.264495525     0.009920480    -0.060341453     0.496246404
   47    16.836323380     1.900212905     9.829260255    -0.010859302     0.004501927     0.499861789
   48    20.041238486     3.557062772     0.750362347     0.002905950     0.008944289     0.499911547
   49    13.280704924     5.409221379     1.840257174     0.028308858    -0.028815697    -0.498365593
   50    16.435464948     9.483307715     6.961311085    -0.015504452     0.023292915     0.499216438
   51    19.712435052     5.916920093     0.889695971    -0.003365448     0.013780255     0.499798738
   52    19.419887622     9.679301851     1.590874599    -0.029340577     0.003769466     0.499124155
   53    18.689114285     4.359463470     9.513887405     0.001126871     0.010929632     0.499879259
   54    14.848226517     2.466172758     9.825305144    -0.007552145    -0.023590958     0.499386055
   55    13.294449663    10.134481985     2.726711678    -0.010313799     0.006770752     0.499847759
   56    16.405591196     4.127103636     9.690764391    -0.004850841     0.007981683     0.499912754
   57    15.295257715     6.053271340     7.320533047    -0.003812278     0.005819099     0.499951602
   58    14.168218060     0.341403156     7.110862718    -0.008151641     0.006274194     0.499894174
   59    15.819948101     1.820432930     7.825976431    -0.007132894    -0.006027565     0.499912783
   60    18.925254020     6.499748089     9.071597680    -0.002330844     0.007995336     0.499930637
   61    19.090131324     1.873244424     9.975007506    -0.009803911    -0.022963906     0.499376153
   62    18.921900520     7.389154886     2.409169573     0.002305865     0.009245721     0.499909191
   63    12.184479823     7.922786403     9.603005531    -0.011419096     0.002322922     0.499864190
   64    13.524439307     9.244478557     0.669824370    -0.012159367     0.011626300     0.499716899
   65    14.651385017     3.971102473     3.516776941    -0.091957817    -0.007798499     0.491409140
   66    11.049694593     6.852849924     8.110132889    -0.018391739     0.000034373     0.499661628
   67    17.880678059     2.881753983     8.221928993     0.007195596     0.002389167     0.499942512
   68    11.043718865     2.412240093     5.321296926    -0.043305862    -0.219917452     0.446946212
   21    21.937581266     6.625550151     4.387799670     0.007381143    -0.020460838    -0.499526649
   22    29.269886936     2.009172605     6.427726391    -0.030102736    -0.140639471     0.478867794
   23    29.153960518     9.536498317     7.292566022    -0.018332640    -0.003097594     0.499654200
   24    24.100751092     4.424211965     8.120677442    -0.002498938     0.016204916     0.499731084
   25    25.379409902     0.668062247     1.405693513    -0.014245225     0.008959731     0.499716717
   26    21.938635859     1.250440130     7.942838721    -0.035092403    -0.408761435    -0.285801701
   27    20.603259036     3.250698608     3.231042146     0.047635042     0.047729509     0.495431929
   28    27.596419754     5.689512354     1.500321010     0.008433596     0.008835645     0.499850784
   29    28.309049575     8.342325257     5.579835836    -0.020237925    -0.006645383     0.499546059
   30    27.079016305     9.255986637     2.276881110    -0.005438490    -0.007766447     0.499910097
   31    25.591385366    10.219737330     9.291272326     0.001310730     0.008279512     0.499929727
   32    27.718260255     0.870724567     8.520200828    -0.007052992     0.002564078     0.499943678
   33    20.781483586     8.245051154     5.922418213    -0.005268045    -0.009393440     0.499883998
   34    30.378787558     3.229817115     8.640650688    -0.035905176    -0.422248656     0.265361811
   35    27.751076769     7.831461381     0.816863187     0.003538010     0.004345138     0.499968601
   36    27.264845138     2.818221257     6.150933894    -0.010356828    -0.093674952     0.491037412
   37    27.770404499     5.431101141     8.087645153    -0.007453823     0.007224941     0.499892229
   38    25.855452689     6.348307912     4.786783900     0.005150541    -0.007541623     0.499916589
   39    28.041959389     6.043648626     4.212309890     0.018438681     0.000426840     0.499659717
   40    22.808369821     9.062404373     6.759274791    -0.003423165     0.005779399     0.499954878
   41    26.307741865     2.254308937     4.200251904    -0.001488940    -0.073218354     0.494607780
   42    20.591852144     8.695896404     3.649285954    -0.000815063     0.011158860     0.499874800
   43    24.129662871     7.280586898     5.793676965     0.002775358    -0.002840080     0.499984231
   44    29.070058080     4.279928286     5.077015799     0.022282842    -0.006502027     0.499460908
   45    24.409488889     9.796635736     5.252841050    -0.008998315     0.008134669     0.499852836
   46    27.501515300     1.475139377     2.552582395     0.009009631    -0.058444634     0.496490736
   47    26.925979330     2.044873116    10.117347125    -0.008012786     0.006817483     0.499889305
   48    30.130894436     3.701722983     1.038449216     0.002878085     0.009661512     0.499898361
   49    23.370360874     5.553881591     2.128344044     0.025571521    -0.029774248    -0.498457211
   50    26.525120898     9.627967926     7.249397955    -0.018456388     0.024622355     0.499052203
   51    29.802091001     6.061580305     1.177782840    -0.003151309     0.013589779     0.499805349
   52    29.509543571     9.823962063     1.878961469    -0.031268463     0.003889673     0.499006166
   53    28.778770235     4.504123682     9.801974275     0.000484021     0.013010500     0.499830464
   54    24.937882467     2.610832970    10.113392014    -0.006704491    -0.019206047     0.499586006
   55    23.384105613    10.279142197     3.014798548    -0.011733318     0.006230638     0.499823477
   56    26.495247146     4.271763848     9.978851261    -0.001114209     0.010770700     0.499882737
   57    25.384913664     6.197931552     7.608619917    -0.003099695     0.005058129     0.499964806
   58    24.257874010     0.486063367     7.398949588    -0.005142630     0.008114286     0.499907703
   59    25.909604051     1.965093141     8.114063300    -0.005508878    -0.002055012     0.499965428
   60    29.014909970     6.644408301     9.359684549    -0.004649578     0.010040419     0.499877556
   61    29.179787274     2.017904635    10.263094375    -0.005716693    -0.021770165     0.499493122
   62    29.011556469     7.533815097     2.697256443     0.002043797     0.008707319     0.499919999
   63    22.274135773     8.067446615     9.891092401    -0.009748751     0.002859754     0.499896773
   64    23.614095257     9.389138769     0.957911240    -0.013782182     0.010785881     0.499693622
   65    24.741040967     4.115762685     3.804863811    -0.080685518     0.000551202     0.493446596
   66    21.139350542     6.997510135     8.398219758    -0.015561753     0.000748905     0.499757212
   67    27.970334009     3.026414194     8.510015863     0.007262573     0.004411633     0.499927787
   68    21.133374815     2.556900304     5.609383795    -0.056215513    -0.220525971     0.445205697
   21    32.027237216     6.770210362     4.675886540     0.010751123    -0.021198235    -0.499434729
   22    39.359542886     2.153832817     6.715813260    -0.035759271    -0.138627287     0.479065496
   23    39.243616468     9.681158529     7.580652891    -0.023066605    -0.002470204     0.499461540
   24    34.190407042     4.568872177     8.408764312    -0.006673971     0.018120807     0.499626955
   25    35.469065852     0.812722459     1.693780383    -0.014928588     0.009824290     0.499680519
   26    32.028291809     1.395100342     8.230925590     0.001704701    -0.415851206    -0.277605599
   27    30.692914986     3.395358819     3.519129016     0.043500001     0.046716946     0.495908537
   28    37.686075704     5.834172566     1.788407880     0.006347118     0.009913086     0.499861426
   29    38.398705525     8.486985469     5.867922706    -0.024436354    -0.005689120     0.499370102
   30    37.168672255     9.400646849     2.564967980    -0.007619152    -0.007434760     0.499886660
   31    35.681041316    10.364397541     9.579359195    -0.002311511     0.007188628     0.499942977
   32    37.807916205     1.015384778     8.808287698    -0.010468202     0.001856466     0.499886957
   33    30.871139536     8.389711366     6.210505082    -0.008674696    -0.008776799     0.499847694
   34    40.468443507     3.374477327     8.928737557    -0.054140056    -0.419501037     0.266622832
   35    37.840732719     7.976121592     1.104950057     0.001057108     0.004775025     0.499976081
   36    37.354501087     2.962881468     6.439020764    -0.013159812    -0.092150857     0.491258627
   37    37.860060449     5.575761353     8.375732023    -0.011379820     0.006691282     0.499825696
   38    35.945108638     6.492968124     5.074870769    -0.002515817    -0.001910452     0.499990021
   39    38.131615339     6.188308837     4.500396760     0.011701381     0.005717274     0.499830362
   40    32.898025771     9.207064585     7.047361661    -0.007892271     0.006804810     0.499891395
   41    36.397397814     2.398969149     4.488338774    -0.002433869    -0.071593634     0.494841821
   42    30.681508094     8.840556615     3.937372824    -0.002850200     0.011430870     0.499861192
   43    34.219318821     7.425247109     6.081763835    -0.004971738     0.000895573     0.499974479
   44    39.159714029     4.424588498     5.365102668     0.015679244    -0.004683840     0.499732151
   45    34.499144839     9.941295948     5.540927920    -0.013761125     0.009236731     0.499725239
   46    37.591171250     1.619799589     2.840669265     0.007646492    -0.056660712     0.496720339
   47    37.015635280     2.189533328    10.405433994    -0.012011991     0.005210965     0.499828529
   48    40.220550386     3.846383195     1.326536086     0.002802552     0.011547647     0.499858778
   49    33.460016823     5.698541802     2.416430913     0.025496407    -0.030362607    -0.498425566
   50    36.614776848     9.772628138     7.537484825    -0.023058110     0.023478285     0.498915918
   51    39.891746951     6.206240517     1.465869710    -0.005461632     0.014764828     0.499752109
   52    39.599199521     9.968622274     2.167048338    -0.034058071     0.004389101     0.498819390
   53    38.868426185     4.648783894    10.090061145    -0.003069883     0.011559441     0.499856935
   54    35.027538417     2.755493182    10.401478883    -0.008030482    -0.019907316     0.499538998
   55    33.473761563    10.423802409     3.302885417    -0.015472864     0.006830471     0.499713853
   56    36.584903096     4.416424060    10.266938130    -0.004745773     0.010635120     0.499864353
   57    35.474569614     6.342591764     7.896706786    -0.007652386     0.007500936     0.499885164
   58    34.347529959     0.630723579     7.687036458    -0.008018716     0.008829647     0.499857717
   59    35.999260000     2.109753353     8.402150170    -0.008020433    -0.002270393     0.499930513
   60    39.104565920     6.789068513     9.647771419    -0.008384311     0.008173078     0.499862885
   61    39.269443224     2.162564847    10.551181245    -0.009375052    -0.023557815     0.499356724
   62    39.101212419     7.678475309     2.985343313    -0.000610035     0.010860978     0.499881653
   63    32.363791723     8.212106827    10.179179270    -0.013108787     0.003418036     0.499816443
   64    33.703751207     9.533798980     1.245998110    -0.017050031     0.011454654     0.499577909
   65    34.830696916     4.260422896     4.092950681    -0.092766469     0.003643338     0.491305514
   66    31.229006492     7.142170347     8.686306628    -0.018559811     0.001834960     0.499652045
   67    38.059989959     3.171074406     8.798102732     0.002686560     0.003877985     0.499977743
   68    31.223030765     2.701560516     5.897470665    -0.048573913    -0.218469065     0.447115022
   21     1.893344838    16.361323248     3.842251355     0.014156644    -0.021470990    -0.499338148
   22     9.225650508    11.744945703     5.882178075    -0.033123471    -0.140335262     0.478757611
   23     9.109724090    19.272271415     6.747017706    -0.017947523    -0.006419631     0.499636543
   24     4.056514663    14.159985063     7.575129127    -0.006550794     0.016906670     0.499671143
   25     5.335173473    10.403835345     0.860145198    -0.012605706     0.010779625     0.499724820
   26     1.894399430    10.986213228     7.397290405    -0.054415525    -0.406584161    -0.285881568
   27     0.559022608    12.986471705     2.685493830     0.034615097     0.054943667     0.495765054
   28     7.552183325    15.425285452     0.954772694     0.010031640     0.009278134     0.499813248
   29     8.264813147    18.078098355     5.034287521    -0.019982348    -0.009642421     0.499507487
   30     7.034779876    18.991759735     1.731332795    -0.003007751    -0.008840853     0.499912785
   31     5.547148938    19.955510427     8.745724010     0.000440729     0.004878168     0.499976009
   32     7.674023826    10.606497664     7.974652512    -0.010010864    -0.000734605     0.499899233
   33     0.737247158    17.980824252     5.376869897    -0.010522279    -0.007563726     0.499832043
   34    10.334551129    12.965590213     8.095102372    -0.042973944    -0.421116702     0.266108932
   35     7.706840341    17.567234479     0.271314871     0.005620237     0.004296461     0.499949951
   36     7.220608709    12.553994354     5.605385579    -0.011903519    -0.093231224     0.491086800
   37     7.726168070    15.166874239     7.542096838    -0.010486588     0.006037305     0.499853561
   38     5.811216260    16.084081010     4.241235584    -0.000708467    -0.000327333     0.499999391
   39     7.997722960    15.779421724     3.666761575     0.017100782     0.002715588     0.499700099
   40     2.764133393    18.798177471     6.213726475    -0.007035590     0.006201976     0.499912028
   41     6.263505436    11.990082035     3.654703588    -0.002762909    -0.072303699     0.494736841
   42     0.547615716    18.431669501     3.103737638    -0.007010104     0.013276691     0.499774537
   43     4.085426443    17.016359995     5.248128649    -0.003456591     0.001358134     0.499986207
   44     9.025821651    14.015701384     4.531467483     0.021848186    -0.004788591     0.499499476
   45     4.365252461    19.532408834     4.707292735    -0.012177078     0.008396271     0.499781174
   46     7.457278871    11.210912475     2.007034079     0.009243248    -0.057324758     0.496616990
   47     6.881742901    11.780646214     9.571798809    -0.012179099     0.003907659     0.499836373
   48    10.086658007    13.437496081     0.492900900     0.005374986     0.010616446     0.499858381
   49     3.326124445    15.289654688     1.582795728     0.028989988    -0.030095298    -0.498250794
   50     6.480884469    19.363741024     6.703849639    -0.020099478     0.021727484     0.499123159
   51     9.757854573    15.797353403     0.632234525    -0.002570165     0.013712109     0.499805334
   52     9.465307143    19.559735160     1.333413153    -0.029187707     0.002969913     0.499138515
   53     8.734533807    14.239896780     9.256425959    -0.002844223     0.010891917     0.499873260
   54     4.893646038    12.346606068     9.567843698    -0.005054017    -0.024569545     0.499370398
   55     3.339869184    20.014915295     2.469250232    -0.013378073     0.005606959     0.499789545
   56     6.451010717    14.007536946     9.433302945    -0.006137394     0.007648047     0.499903831
   57     5.340677236    15.933704650     7.063071601    -0.007241441     0.006711362     0.499902510
   58     4.213637581    10.221836465     6.853401272    -0.007241738     0.005947178     0.499912181
   59     5.865367622    11.700866239     7.568514984    -0.006904303    -0.006279037     0.499912897
   60     8.970673541    16.380181399     8.814136233    -0.006525419     0.008045719     0.499892674
   61     9.135550845    11.753677733     9.717546060    -0.010273676    -0.023854136     0.499324976
   62     8.967320041    17.269588195     2.151708127     0.002255889     0.008931796     0.499915127
   63     2.229899344    17.803219713     9.345544085    -0.012655246     0.003112086     0.499830131
   64     3.569858828    19.124911867     0.412362924    -0.015329764     0.010284331     0.499659115
   65     4.696804538    13.851535782     3.259315495    -0.095146108     0.001213659     0.490862247
   66     1.095114114    16.733283233     7.852671443    -0.018935406     0.001761951     0.499638215
   67     7.926097580    12.762187292     7.964467547     0.002474130     0.003182275     0.499983752
   68     1.089138387    12.292673402     5.063835480    -0.071340658    -0.212311472     0.447028354
   21    11.983000787    16.505983460     4.130338224     0.006397766    -0.018817112    -0.499604829
   22    19.315306458    11.889605915     6.170264945    -0.021882082    -0.139618789     0.479612102
   23    19.199380039    19.416931626     7.035104576    -0.013165983    -0.004234153     0.499808692
   24    14.146170613    14.304645274     7.863215996    -0.000371374     0.014737809     0.499782612
   25    15.424829423    10.548495557     1.148232067    -0.010814555     0.011170483     0.499758207
   26    11.984055380    11.130873440     7.685377275     0.002374919    -0.412723076    -0.282230442
   27    10.648678557    13.131131917     2.973580700     0.047297078     0.045842476     0.495642466
   28    17.641839275    15.569945664     1.242859564     0.015546761     0.011172811     0.499633332
   29    18.354469096    18.222758567     5.322374390    -0.014534022    -0.007859540     0.499726915
   30    17.124435826    19.136419947     2.019419664     0.004744270    -0.001694162     0.499974621
   31    15.636804888    20.100170639     9.033810880     0.006970568     0.006770228     0.499905566
   32    17.763679776    10.751157876     8.262739382    -0.003863611     0.001217115     0.499983591
   33    10.826903108    18.125484464     5.664956767    -0.005101211    -0.010832536     0.499856613
   34    20.424207079    13.110250425     8.383189242    -0.026685895    -0.419013303     0.271506381
   35    17.796496290    17.711894690     0.559401741     0.011507422     0.006458234     0.499825840
   36    17.310264659    12.698654566     5.893472448    -0.005395550    -0.092275416     0.491381863
   37    17.815824020    15.311534451     7.830183707    -0.003555794     0.005204056     0.499960273
   38    15.900872210    16.228741222     4.529322454     0.008449702    -0.008754288     0.499851943
   39    18.087378910    15.924081935     3.954848444     0.023685611     0.001323000     0.499436924
   40    12.853789342    18.942837683     6.501813345    -0.002219218     0.004205482     0.499977388
   41    16.353161386    12.134742247     3.942790458    -0.000180118    -0.071224954     0.494900973
   42    10.637271665    18.576329713     3.391824508    -0.001151817     0.010364792     0.499891233
   43    14.175082393    17.161020207     5.536215519     0.004645305    -0.005300643     0.499950322
   44    19.115477601    14.160361596     4.819554353     0.027792582    -0.005784845     0.499193457
   45    14.454908411    19.677069046     4.995379604    -0.006510652     0.006623051     0.499913739
   46    17.546934821    11.355572686     2.295120949     0.012644279    -0.056121385     0.496679487
   47    16.971398851    11.925306426     9.859885678    -0.004820413     0.004462634     0.499956847
   48    20.176313957    13.582156293     0.780987770     0.008939438     0.011010841     0.499798807
   49    13.415780395    15.434314900     1.870882598    -0.006675145    -0.011638508    -0.499819955
   50    16.570540419    19.508401236     6.991936509    -0.014090979     0.022608219     0.499289808
   51    19.847510523    15.942013614     0.920321394     0.002847837     0.015286084     0.499758167
   52    19.554963093    19.704395372     1.621500023    -0.023524175     0.005919072     0.499411231
   53    18.824189756    14.384556991     9.544512829     0.003876350     0.010744028     0.499869523
   54    14.983301988    12.491266279     9.855930568    -0.001692812    -0.022414820     0.499494455
   55    13.429525134    20.159575507     2.757337102    -0.008180641     0.005288609     0.499905099
   56    16.540666667    14.152197157     9.721389815    -0.001550521     0.008649842     0.499922770
   57    15.430333186    16.078364861     7.351158471    -0.000571884     0.003383920     0.499988222
   58    14.303293531    10.366496677     7.141488142    -0.003440130     0.009313883     0.499901407
   59    15.955023572    11.845526451     7.856601854    -0.002031550     0.000282271     0.499995793
   60    19.060329491    16.524841611     9.102223103     0.000136230     0.008152255     0.499933518
   61    19.225206795    11.898337945    10.005632929    -0.001823951    -0.024038195     0.499418500
   62    19.056975991    17.414248407     2.439794997     0.007820326     0.010232393     0.499834113
   63    12.319555294    17.947879924     9.633630955    -0.010544509     0.001571608     0.499886330
   64    13.659514778    19.269572078     0.700449794    -0.010184241     0.010205872     0.499792078
   65    14.786460488    13.996195994     3.547402365    -0.066052089     0.016988962     0.495326657
   66    11.184770064    16.877943445     8.140758312    -0.017503001    -0.000177025     0.499693520
   67    18.015753530    12.906847504     8.252554417     0.011332791     0.001684447     0.499868713
   68    11.178794336    12.437333614     5.351922349    -0.053213174    -0.217651049     0.446985882
   21    22.072656737    16.650643672     4.418425094     0.005678276    -0.022095207    -0.499479288
   22    29.404962407    12.034266126     6.458351814    -0.033297205    -0.140358109     0.478738861
   23    29.289035989    19.561591838     7.323191445    -0.015309450    -0.003416030     0.499753891
   24    24.235826563    14.449305486     8.151302866    -0.002568988     0.016279469     0.499728305
   25    25.514485373    10.693155768     1.436318937    -0.013916971     0.010116955     0.499703877
   26    22.073711330    11.275533651     7.973464144     0.002948911    -0.422136236    -0.267940856
   27    20.738334507    13.275792129     3.261667569     0.050440073     0.046791232     0.495243758
   28    27.731495225    15.714605876     1.530946434     0.010782037     0.009750606     0.499788629
   29    28.444125046    18.367418778     5.610461260    -0.016922428    -0.007384996     0.499658977
   30    27.214091776    19.281080158     2.307506534    -0.004178470    -0.002323653     0.499977141
   31    25.726460837    20.244830851     9.321897749     0.004328317     0.008328576     0.499911893
   32    27.853335726    10.895818088     8.550826252    -0.007634396     0.003082679     0.499932208
   33    20.916559057    18.270144675     5.953043636    -0.004153593    -0.008210154     0.499915334
   34    30.513863029    13.254910636     8.671276111    -0.051974757    -0.421927452     0.263203058
   35    27.886152240    17.856554902     0.847488611     0.006137479     0.005516806     0.499931892
   36    27.399920609    12.843314778     6.181559318    -0.012025068    -0.093175692     0.491094378
   37    27.905479970    15.456194662     8.118270577    -0.006585118     0.007333162     0.499902852
   38    25.990528160    16.373401433     4.817409323     0.005563081    -0.007670120     0.499910213
   39    28.177034860    16.068742147     4.242935314     0.020007928     0.001105128     0.499598300
   40    22.943445292    19.087497894     6.789900215    -0.002161792     0.006207749     0.499956789
   41    26.442817336    12.279402459     4.230877327    -0.003803891    -0.072528716     0.494696994
   42    20.726927615    18.720989925     3.679911378     0.002439503     0.012561907     0.499836220
   43    24.264738342    17.305680419     5.824302389     0.003076148    -0.003054623     0.499981206
   44    29.205133551    14.305021807     5.107641222     0.024064193    -0.005811784     0.499386762
   45    24.544564360    19.821729257     5.283466474    -0.007539874     0.008424839     0.499872156
   46    27.636590771    11.500232898     2.583207819     0.006623033    -0.057733958     0.496611443
   47    27.061054801    12.069966637    10.147972548    -0.009039820     0.006284395     0.499878773
   48    30.265969907    13.726816504     1.069074640     0.003908406     0.010007756     0.499884556
   49    23.505436345    15.578975112     2.158969467     0.022972091    -0.027302083    -0.498725254
   50    26.660196369    19.653061447     7.280023379    -0.016308373     0.024101284     0.499152447
   51    29.937166472    16.086673826     1.208408264    -0.000968017     0.014357273     0.499792889
   52    29.644619042    19.849055584     1.909586892    -0.028778066     0.005868792     0.499136635
   53    28.913845706    14.529217203     9.832599699     0.000453815     0.013244940     0.499824335
   54    25.072957938    12.635926491    10.144017437     0.002274970    -0.021292590     0.499541240
   55    23.519181084    20.304235718     3.045423971    -0.009459411     0.006824919     0.499863922
   56    26.630322617    14.296857369    10.009476684    -0.003623383     0.009888402     0.499889078
   57    25.519989135    16.223025073     7.639245340    -0.002705074     0.005223183     0.499965400
   58    24.392949481    10.511156888     7.429575012    -0.006235667     0.009225898     0.499875984
   59    26.044679522    11.990186662     8.144688724    -0.005928912    -0.001112640     0.499963609
   60    29.149985441    16.669501822     9.390309973    -0.003057228     0.010247409     0.499885631
   61    29.314862745    12.042998156    10.293719799    -0.007245965    -0.021131076     0.499500724
   62    29.146631940    17.558908618     2.727881867     0.004253842     0.009629728     0.499889161
   63    22.409211244    18.092540136     9.921717824    -0.007354165     0.003488616     0.499933741
   64    23.749170728    19.414232290     0.988536664    -0.011114546     0.011715532     0.499739145
   65    24.876116438    14.140856206     3.835489234    -0.078729522     0.000422592     0.493762578
   66    21.274426013    17.022603656     8.428845182    -0.013231848     0.001274239     0.499823263
   67    28.105409480    13.051507715     8.540641286     0.007253115     0.004648438     0.499925779
   68    21.268450286    12.581993825     5.640009219    -0.038130477    -0.217460115     0.448616947
   21    32.162312687    16.795303883     4.706511964     0.008881640    -0.022192980    -0.499428261
   22    39.494618357    12.178926338     6.746438684    -0.047166682    -0.135758953     0.478899583
   23    39.378691939    19.706252050     7.611278315    -0.019038428    -0.002507223     0.499631116
   24    34.325482513    14.593965698     8.439389735    -0.007747549     0.018717378     0.499589467
   25    35.604141323    10.837815980     1.724405806    -0.016633779     0.011305096     0.499595348
   26    32.163367280    11.420193863     8.261551014    -0.023569274    -0.413088021    -0.280718322
   27    30.827990457    13.420452340     3.549754439     0.048789782     0.045324209     0.495545430
   28    37.821151175    15.859266087     1.819033303     0.003500433     0.011171823     0.499862919
   29    38.533780996    18.512078990     5.898548129    -0.021239873    -0.006296346     0.499508983
   30    37.303747726    19.425740370     2.595593404    -0.008714330    -0.006851291     0.499877105
   31    35.816116787    20.389491062     9.609984619     0.000240644     0.009158045     0.499916065
   32    37.942991676    11.040478299     8.838913121    -0.011940573     0.002687977     0.499850175
   33    31.006215007    18.414804887     6.241130506    -0.007234032    -0.007447605     0.499892190
   34    40.603518978    13.399570848     8.959362981    -0.080187690    -0.416698706     0.264446825
   35    37.975808190    18.001215114     1.135575480    -0.000577503     0.005198505     0.499972641
   36    37.489576558    12.987974989     6.469646188    -0.024292089    -0.088944298     0.491425280
   37    37.995135920    15.600854874     8.406357446    -0.009906664     0.008516665     0.499829295
   38    36.080184109    16.518061645     5.105496193    -0.003679844    -0.001242109     0.499984916
   39    38.266690810    16.213402359     4.531022183     0.005869430     0.008890164     0.499886502
   40    33.033101242    19.232158106     7.077987084    -0.006231643     0.007444680     0.499905734
   41    36.532473285    12.424062670     4.518964197    -0.014221645    -0.069247855     0.494977251
   42    30.816583565    18.865650136     3.967998247    -0.000584492     0.012407529     0.499845688
   43    34.354394292    17.450340630     6.112389258    -0.005429310     0.001320840     0.499968777
   44    39.294789500    14.449682019     5.395728092     0.008158097     0.004360621     0.499914423
   45    34.634220310    19.966389469     5.571553343    -0.012598777     0.009347704     0.499753831
   46    37.726246721    11.644893110     2.871294688    -0.002569899    -0.054833628     0.496977534
   47    37.150710751    12.214626849    10.436059418    -0.013475564     0.006328271     0.499778313
   48    40.355625857    13.871476716     1.357161509    -0.000657725     0.012528500     0.499842579
   49    33.595092294    15.723635323     2.447056337     0.018453402    -0.029954906    -0.498760640
   50    36.749852319    19.797721659     7.568110248    -0.020179155     0.024883412     0.498972562
   51    40.026822422    16.231334038     1.496495133    -0.008610903     0.015826124     0.499675281
   52    39.734274992    19.993715795     2.197673762    -0.035411538     0.004185232     0.498726886
   53    39.003501656    14.673877415    10.120686568    -0.001001599     0.013516600     0.499816265
   54    35.162613888    12.780586703    10.432104307    -0.003343697    -0.022410648     0.499486319
   55    33.608837034    20.448895930     3.333510841    -0.014301696     0.005975725     0.499759694
   56    36.719978567    14.441517581    10.297563554    -0.006970291     0.010064908     0.499850090
   57    35.609645085    16.367685285     7.927332210    -0.008332503     0.008225903     0.499862885
   58    34.482605430    10.655817100     7.717661881    -0.010261792     0.008547067     0.499821611
   59    36.134335471    12.134846874     8.432775593    -0.010254502    -0.001698945     0.499891947
   60    39.239641391    16.814162034     9.678396842    -0.005828453     0.010466293     0.499856465
   61    39.404518695    12.187658368    10.581806669    -0.012519302    -0.020949686     0.499404023
   62    39.236287890    17.703568830     3.015968736    -0.004850011     0.012559289     0.499818709
   63    32.498867194    18.237200348    10.209804694    -0.010739954     0.004558980     0.499863851
   64    33.838826678    19.558892502     1.276623533    -0.015860511     0.010549542     0.499637020
   65    34.965772388    14.285516417     4.123576104    -0.095421562     0.006682488     0.490764781
   66    31.364081963    17.167263868     8.716932052    -0.016472269     0.002685971     0.499721372
   67    38.195065430    13.196167927     8.828728156     0.002860597     0.005046747     0.499966346
   68    31.358106236    12.726654037     5.928096088    -0.054632545    -0.217990183     0.446649264
   21     2.028420309    26.386416769     3.872876778     0.010279316    -0.018251240    -0.499561035
   22     9.360725979    21.770039224     5.912803499    -0.034500016    -0.143739552     0.477649129
   23     9.244799561    29.297364936     6.777643130    -0.012500994    -0.006984582     0.499794899
   24     4.191590134    24.185078584     7.605754550    -0.001654417     0.014042380     0.499800034
   25     5.470248944    20.428928866     0.890770621    -0.011894530     0.009297683     0.499772021
   26     2.029474901    21.011306749     7.427915829     0.010167017    -0.414679108    -0.279173547
   27     0.694098079    23.011565226     2.716119254     0.040078240     0.050373310     0.495838950
   28     7.687258796    25.450378973     0.985398118     0.015127672     0.004861259     0.499747458
   29     8.399888618    28.103191876     5.064912944    -0.013578689    -0.011683480     0.499679012
   30     7.169855347    29.016853256     1.761958218    -0.000113129    -0.012906900     0.499833371
   31     5.682224409    29.980603948     8.776349434     0.005451769     0.007413420     0.499915312
   32     7.809099297    20.631591185     8.005277936    -0.008344007     0.000108852     0.499930361
   33     0.872322629    28.005917773     5.407495321    -0.007852697    -0.010019424     0.499837920
   34    10.469626600    22.990683734     8.125727796    -0.055355861    -0.423308212     0.260280399
   35     7.841915812    27.592328000     0.301940295     0.010405208    -0.000516454     0.499891453
   36     7.355684180    22.579087875     5.636011002    -0.011631984    -0.096754075     0.490411405
   37     7.861243541    25.191967760     7.572722261    -0.006020429     0.006121141     0.499926281
   38     5.946291731    26.109174531     4.271861008     0.006287925    -0.010543048     0.499849283
   39     8.132798432    25.804515245     3.697386998     0.022490501    -0.004537938     0.499473307
   40     2.899208864    28.823270992     6.244351899    -0.003260674     0.005155012     0.499962792
   41     6.398580907    22.015175556     3.685329012    -0.002554168    -0.075993108     0.494184706
   42     0.682691187    28.456763022     3.134363062    -0.004995261     0.009705835     0.499880830
   43     4.220501914    27.041453516     5.278754073     0.004723826    -0.003819809     0.499963093
   44     9.160897122    24.040794905     4.562092906     0.026987874    -0.010533218     0.499160000
   45     4.500327932    29.557502355     4.737918158    -0.007321222     0.006882590     0.499899019
   46     7.592354342    21.236005996     2.037659503     0.009040617    -0.060912559     0.496193437
   47     7.016818372    21.805739735     9.602424232    -0.009291659     0.004386182     0.499894415
   48    10.221733479    23.462589602     0.523526324     0.009217902     0.006983009     0.499866250
   49     3.461199916    25.314748209     1.613421152     0.024274094    -0.026584351    -0.498702357
   50     6.615959940    29.388834545     6.734475063    -0.015439387     0.023049215     0.499229766
   51     9.892930044    25.822446924     0.662859948     0.002878639     0.009468440     0.499902052
   52     9.600382614    29.584828681     1.364038577    -0.025112250    -0.001656207     0.499366230
   53     8.869609278    24.264990301     9.287051383     0.000845855     0.011694249     0.499862510
   54     5.028721509    22.371699589     9.598469122    -0.001209524    -0.024964324     0.499374929
   55     3.474944655    30.040008816     2.499875656    -0.009478596     0.003518932     0.499897763
   56     6.586086188    24.032630467     9.463928369    -0.003165596     0.007651455     0.499931430
   57     5.475752707    25.958798171     7.093697025    -0.001801988     0.003265018     0.499986092
   58     4.348713052    20.246929986     6.884026696    -0.008218062     0.006631558     0.499888473
   59     6.000443093    21.725959760     7.599140408    -0.006648544    -0.005514150     0.499925385
   60     9.105749012    26.405274920     8.844761657    -0.002852359     0.008790862     0.499914577
   61     9.270626317    21.778771254     9.748171483    -0.007180449    -0.023481646     0.499396689
   62     9.102395512    27.294681716     2.182333551     0.007616854     0.004292771     0.499923550
   63     2.364974815    27.828313234     9.376169509    -0.010719634     0.003571824     0.499872315
   64     3.704934300    29.150005388     0.442988348    -0.011736272     0.008313762     0.499793098
   65     4.831880009    23.876629303     3.289940919    -0.082628165    -0.003141654     0.493115317
   66     1.230189585    26.758376754     7.883296866    -0.017478506     0.001349181     0.499692587
   67     8.061173051    22.787280813     7.995092971     0.006891667     0.003515110     0.499940145
   68     1.224213858    22.317766923     5.094460903    -0.046578601    -0.217440007     0.447828401
   21    12.118076258    26.531076981     4.160963648     0.002992569    -0.017747332    -0.499675972
   22    19.450381929    21.914699436     6.200890368    -0.027061262    -0.140471177     0.479098671
   23    19.334455510    29.442025147     7.065729999    -0.015794430    -0.005668657     0.499718323
   24    14.281246084    24.329738795     7.893841420    -0.000929822     0.014136169     0.499799264
   25    15.559904894    20.573589078     1.178857491    -0.007831096     0.010716029     0.499823810
   26    12.119130851    21.155966961     7.716002698    -0.024551642    -0.411997958    -0.282231996
   27    10.783754028    23.156225438     3.004206123     0.053864597     0.041041724     0.495392957
   28    17.776914746    25.595039185     1.273484988     0.014362692     0.006598862     0.499750106
   29    18.489544567    28.247852088     5.352999814    -0.018309770    -0.008699291     0.499588906
   30    17.259511297    29.161513468     2.050045088     0.001483366    -0.012247547     0.499847774
   31    15.771880359    30.125264160     9.064436303     0.004017400     0.006868706     0.499936677
   32    17.898755247    20.776251397     8.293364805    -0.002827341     0.001488694     0.499989790
   33    10.961978579    28.150577985     5.695582190    -0.004671629    -0.010574135     0.499866346
   34    20.559282550    23.135343946     8.413814665    -0.044003678    -0.420223623     0.267349553
   35    17.931571761    27.736988211     0.590027165     0.009834916     0.001309882     0.499901549
   36    17.445340130    22.723748087     5.924097872    -0.006095504    -0.093714904     0.491101172
   37    17.950899491    25.336627972     7.860809131    -0.004395986     0.004156539     0.499963397
   38    16.035947681    26.253834743     4.559947877     0.008607417    -0.008438006     0.499854691
   39    18.222454381    25.949175456     3.985473868     0.023283716    -0.000176956     0.499457543
   40    12.988864813    28.967931204     6.532438768     0.000377113     0.003772371     0.499985627
   41    16.488236857    22.159835768     3.973415881     0.002055878    -0.072638288     0.494691270
   42    10.772347136    28.601423234     3.422449932     0.003525314     0.007639133     0.499929211
   43    14.310157864    27.186113728     5.566840943     0.002902891    -0.006328893     0.499951516
   44    19.250553072    24.185455117     4.850179776     0.027718158    -0.007801429     0.499170153
   45    14.589983882    29.702162567     5.026005028    -0.005757568     0.005818280     0.499932994
   46    17.682010292    21.380666207     2.325746373     0.013722112    -0.057538353     0.496488712
   47    17.106474322    21.950399947     9.890511102    -0.003831593     0.004562333     0.499964503
   48    20.311389428    23.607249814     0.811613194     0.009288181     0.008172489     0.499846917
   49    13.550855866    25.459408421     1.901508021     0.024556568    -0.029875812    -0.498502167
   50    16.705615890    29.533494757     7.022561933    -0.016146054     0.022907464     0.499213935
   51    19.982585994    25.967107135     0.950946818     0.001667443     0.011488103     0.499865225
   52    19.690038564    29.729488893     1.652125446    -0.025902301     0.000058841     0.499328617
   53    18.959265227    24.409650512     9.575138253     0.003929279     0.010115462     0.499882224
   54    15.118377459    22.516359800     9.886555991    -0.004459190    -0.020941120     0.499541375
   55    13.564600605    30.184669028     2.787962525    -0.007140396     0.002828639     0.499941010
   56    16.675742138    24.177290678     9.752015238    -0.000845772     0.008909936     0.499919891
   57    15.565408657    26.103458382     7.381783894    -0.001534498     0.002578712     0.499990995
   58    14.438369002    20.391590198     7.172113565    -0.002378959     0.008205647     0.499927003
   59    16.090099043    21.870619972     7.887227278    -0.001904034    -0.000096171     0.499996365
   60    19.195404962    26.549935132     9.132848527    -0.000975931     0.007195470     0.499947270
   61    19.360282266    21.923431466    10.036258353    -0.000876508    -0.023502035     0.499446580
   62    19.192051462    27.439341928     2.470420421     0.006477314     0.006697479     0.499913181
   63    12.454630765    27.972973445     9.664256378    -0.008517867     0.002757486     0.499919836
   64    13.794590249    29.294665599     0.731075218    -0.008891293     0.007459296     0.499865286
   65    14.921535959    24.021289515     3.578027788    -0.043838816     0.024144661     0.497488888
   66    11.319845535    26.903036966     8.171383736    -0.014946137     0.000447448     0.499776363
   67    18.150829001    22.931941025     8.283179840     0.012106567     0.000081513     0.499853403
   68    11.313869807    22.462427135     5.382547773    -0.056887894    -0.220932857     0.444918465
   21    22.207732208    26.675737193     4.449050518     0.007047878    -0.018274889    -0.499616209
   22    29.540037878    22.059359647     6.488977238    -0.024284541    -0.141382945     0.478979252
   23    29.424111460    29.586685359     7.353816869    -0.016968498    -0.002772189     0.499704298
   24    24.370902034    24.474399007     8.181928289    -0.002014115     0.016051693     0.499738218
   25    25.649560844    20.718249289     1.466944360    -0.010878198     0.012506218     0.499725184
   26    22.208786801    21.300627172     8.004089568    -0.010344229    -0.415423181    -0.278058586
   27    20.873409978    23.300885650     3.292292993     0.053075356     0.043403805     0.495276808
   28    27.866570696    25.739699397     1.561571857     0.011609558     0.010701015     0.499750644
   29    28.579200517    28.392512299     5.641086683    -0.018816126    -0.006042062     0.499609294
   30    27.349167247    29.306173679     2.338131958    -0.003057864    -0.001173047     0.499989273
   31    25.861536308    30.269924372     9.352523173     0.001990195     0.008334149     0.499926576
   32    27.988411197    20.920911609     8.581451675    -0.005315687     0.002657724     0.499964679
   33    21.051634528    28.295238196     5.983669060    -0.004959940    -0.010603365     0.499862949
   34    30.648938500    23.280004157     8.701901535    -0.027593170    -0.422485155     0.265979155
   35    28.021227711    27.881648423     0.878114034     0.006985502     0.006213372     0.499912589
   36    27.534996080    22.868408299     6.212184742    -0.007247018    -0.093472050     0.491131812
   37    28.040555441    25.481288183     8.148896000    -0.006881440     0.006546404     0.499909782
   38    26.125603631    26.398494954     4.848034747     0.005635055    -0.007800206     0.499907394
   39    28.312110331    26.093835668     4.273560737     0.020419571     0.001835575     0.499579495
   40    23.078520763    29.112591416     6.820525638    -0.003313381     0.005172391     0.499962266
   41    26.577892807    22.304495980     4.261502751     0.001953769    -0.072801516     0.494667689
   42    20.862003086    28.746083446     3.710536801    -0.000140088     0.009423860     0.499911163
   43    24.399813813    27.330773940     5.854927812     0.002803495    -0.003801391     0.499977689
   44    29.340209022    24.330115329     5.138266646     0.024814612    -0.004777104     0.499361006
   45    24.679639831    29.846822778     5.314091897    -0.008204659     0.007912514     0.499870059
   46    27.771666242    21.525326419     2.613833242     0.011383664    -0.057646481     0.496535291
   47    27.196130272    22.095060158    10.178597972    -0.006353302     0.006989315     0.499910777
   48    30.401045378    23.751910026     1.099700063     0.006169214     0.010759412     0.499846152
   49    23.640511816    25.604068633     2.189594891     0.008543769    -0.020549200    -0.499504489
   50    26.795271840    29.678154968     7.310648802    -0.018515052     0.024119057     0.499074608
   51    30.072241943    26.111767347     1.239033687    -0.000572468     0.014804058     0.499780464
   52    29.779694513    29.874149105     1.940212316    -0.028442586     0.006183780     0.499152061
   53    29.048921177    24.554310724     9.863225122     0.001081102     0.012668747     0.499838308
   54    25.208033409    22.661020012    10.174642861    -0.007423850    -0.018674419     0.499595989
   55    23.654256555    30.329329239     3.076049395    -0.009559819     0.006207099     0.499870065
   56    26.765398088    24.321950890    10.040102108    -0.001318641     0.010952035     0.499878299
   57    25.655064606    26.248118594     7.669870764    -0.002485453     0.004778758     0.499970985
   58    24.528024952    20.536250409     7.460200435    -0.004748535     0.009028252     0.499895931
   59    26.179754993    22.015280183     8.175314147    -0.004173584    -0.000463823     0.499982366
   60    29.285060912    26.694595343     9.420935396    -0.004068210     0.009536422     0.499892495
   61    29.449938216    22.068091677    10.324345223    -0.004211096    -0.021513579     0.499519201
   62    29.281707411    27.584002139     2.758507290     0.004104929     0.010106580     0.499880992
   63    22.544286715    28.117633657     9.952343248    -0.009206408     0.003130903     0.499905431
   64    23.884246199    29.439325811     1.019162087    -0.011017356     0.011048923     0.499756480
   65    25.011191909    24.165949727     3.866114658    -0.024464433    -0.063545278     0.495341790
   66    21.409501484    27.047697177     8.459470606    -0.014817101     0.000555504     0.499780097
   67    28.240484951    23.076601236     8.571266710     0.009099930     0.003281257     0.499906416
   68    21.403525757    22.607087346     5.670634642    -0.048252522    -0.217797546     0.447477288
   21    32.297388158    26.820397404     4.737137387     0.009390103    -0.020835752    -0.499477424
   22    39.629693828    22.204019859     6.777064107    -0.029024509    -0.139473384     0.479275237
   23    39.513767410    29.731345571     7.641903738    -0.022010231    -0.005136296     0.499488907
   24    34.460557984    24.619059219     8.470015159    -0.005031153     0.018279979     0.499640401
   25    35.739216794    20.862909501     1.755031230    -0.016698318     0.009343310     0.499633735
   26    32.298442751    21.445287384     8.292176437     0.003328736    -0.417957664    -0.274409021
   27    30.963065928    23.445545861     3.580379863     0.046867968     0.047634224     0.495514252
   28    37.956226646    25.884359608     1.849658727     0.004254571     0.007945544     0.499918760
   29    38.668856467    28.537172511     5.929173553    -0.024311582    -0.009082459     0.499326002
   30    37.438823197    29.450833891     2.626218827    -0.008074943    -0.010065819     0.499833447
   31    35.951192258    30.414584583     9.640610042    -0.001635287     0.005936671     0.499962080
   32    38.078067147    21.065571820     8.869538545    -0.008647413     0.003314066     0.499914232
   33    31.141290478    28.439898408     6.271755930    -0.007673097    -0.008618879     0.499866821
   34    40.738594449    23.424664369     8.989988404    -0.029107726    -0.421199283     0.267850525
   35    38.110883661    28.026308635     1.166200904    -0.000091299     0.002534622     0.499993567
   36    37.624652029    23.013068510     6.500271611    -0.011238765    -0.092142802     0.491307841
   37    38.130211391    25.625948395     8.436982870    -0.009035110     0.007157641     0.499867117
   38    36.215259580    26.543155166     5.136121616    -0.002106337    -0.001608733     0.499992975
   39    38.401766281    26.238495880     4.561647607     0.014531977     0.001882092     0.499785233
   40    33.168176713    29.257251627     7.108612508    -0.006596483     0.005910607     0.499921545
   41    36.667548756    22.449156191     4.549589621    -0.002588328    -0.072199623     0.494752984
   42    30.951659036    28.890743657     3.998623671    -0.001227937     0.012239066     0.499848675
   43    34.489469763    27.475434151     6.143014682    -0.004171152     0.000788094     0.499981980
   44    39.429864971    24.474775540     5.426353515     0.019176947    -0.002205544     0.499627241
   45    34.769295781    29.991482990     5.602178767    -0.012659716     0.008098753     0.499774091
   46    37.861322192    21.669986631     2.901920112     0.006919524    -0.057811985     0.496598323
   47    37.285786222    22.239720370    10.466684841    -0.007638918     0.007658150     0.499882986
   48    40.490701328    23.896570237     1.387786933     0.000115048     0.009181905     0.499915672
   49    33.730167765    25.748728844     2.477681760     0.021568795    -0.024754324    -0.498920846
   50    36.884927790    29.822815180     7.598735672    -0.022577694     0.022443364     0.498985514
   51    40.161897893    26.256427559     1.527120557    -0.006479144     0.012547174     0.499800549
   52    39.869350463    30.018809316     2.228299185    -0.034039453     0.001776859     0.498836805
   53    39.138577127    24.698970936    10.151311992    -0.000329239     0.012132328     0.499852677
   54    35.297689359    22.805680224    10.462729730     0.000245974    -0.021971116     0.499516976
   55    33.743912505    30.473989451     3.364136264    -0.013947743     0.004959210     0.499780819
   56    36.855054038    24.466611102    10.328188977    -0.001260039     0.010884339     0.499879929
   57    35.744720556    26.392778806     7.957957633    -0.006181731     0.007542509     0.499904888
   58    34.617680902    20.680910621     7.748287305    -0.008191797     0.010068895     0.499831483
   59    36.269410942    22.159940395     8.463401017    -0.007062123    -0.000329021     0.499950016
   60    39.374716862    26.839255555     9.709022266    -0.005742399     0.008983506     0.499886309
   61    39.539594166    22.212751889    10.612432092    -0.006109312    -0.022554025     0.499453694
   62    39.371363361    27.728662351     3.046594160    -0.001239259     0.007872638     0.499936482
   63    32.633942665    28.262293869    10.240430118    -0.011752296     0.003229839     0.499851430
   64    33.973902149    29.583986023     1.307248957    -0.015445778     0.009420747     0.499672570
   65    35.100847859    24.310609938     4.154201528    -0.066106798     0.001405244     0.495608632
   66    31.499157434    27.192357389     8.747557475    -0.017540890     0.001501374     0.499689967
   67    38.330140901    23.221261448     8.859353579     0.005364489     0.005201279     0.499944166
   68    31.493181707    22.751747558     5.958721512    -0.041683001    -0.219762016     0.447176904
   21     2.163495780    36.411510290     3.903502202     0.009152665    -0.018409723    -0.499577132
   22     9.495801450    31.795132745     5.943428922    -0.019894960    -0.144497083     0.478251799
   23     9.379875032    39.322458457     6.808268553    -0.017938673    -0.007472801     0.499622219
   24     4.326665605    34.210172105     7.636379974    -0.002203063     0.014536281     0.499783796
   25     5.605324415    30.454022387     0.921396045    -0.007844191     0.006644352     0.499894310
   26     2.164550372    31.036400270     7.458541252    -0.047676642    -0.406400820    -0.287341802
   27     0.829173550    33.036658747     2.746744677     0.046500010     0.038289663     0.496358389
   28     7.822334267    35.475472494     1.016023542     0.012826444     0.008667102     0.499760306
   29     8.534964089    38.128285397     5.095538368    -0.019727318    -0.010296369     0.499504572
   30     7.304930818    39.041946777     1.792583642    -0.002484499    -0.000564085     0.499993509
   31     5.817299880    40.005697469     8.806974857    -0.000605409     0.004062990     0.499983125
   32     7.944174769    30.656684706     8.035903359    -0.004130791     0.001405277     0.499980961
   33     1.007398100    38.031011294     5.438120744    -0.008527748    -0.010249301     0.499822198
   34    10.604702071    33.015777255     8.156353219    -0.008806651    -0.424170679     0.264578302
   35     7.976991283    37.617421521     0.332565719     0.007779619     0.004896870     0.499915491
   36     7.490759651    32.604181396     5.666636426    -0.002922563    -0.096867825     0.490518178
   37     7.996319012    35.217061281     7.603347685    -0.008585191     0.003021269     0.499917160
   38     6.081367202    36.134268052     4.302486431     0.006025516    -0.008695105     0.499888076
   39     8.267873903    35.829608766     3.728012422     0.021366511    -0.000253580     0.499543199
   40     3.034284335    38.848364513     6.274977322    -0.005437395     0.004582349     0.499949434
   41     6.533656378    32.040269077     3.715954435     0.004326739    -0.076426973     0.494105451
   42     0.817766658    38.481856543     3.164988486    -0.003332057     0.009848332     0.499891896
   43     4.355577385    37.066547037     5.309379497     0.003548325    -0.003598049     0.499974463
   44     9.295972593    34.065888426     4.592718330     0.025484345    -0.008107614     0.499284303
   45     4.635403403    39.582595876     4.768543582    -0.010012788     0.006795193     0.499853548
   46     7.727429813    31.261099517     2.068284927     0.014369260    -0.061680780     0.495972787
   47     7.151893843    31.830833256     9.633049656    -0.007314431     0.003399944     0.499934935
   48    10.356808950    33.487683123     0.554151748     0.007534241     0.007829104     0.499881926
   49     3.596275387    35.339841730     1.644046575     0.022839683    -0.031132504    -0.498506887
   50     6.751035411    39.413928066     6.765100486    -0.021339326     0.020255944     0.499133579
   51    10.028005515    35.847540445     0.693485372     0.000926739     0.012550564     0.499841599
   52     9.735458085    39.609922202     1.394664000    -0.028204969     0.006819251     0.499157267
   53     9.004684749    34.290083822     9.317676806    -0.003064009     0.005918482     0.499955581
   54     5.163796980    32.396793110     9.629094545    -0.001030371    -0.024291926     0.499408491
   55     3.610020126    40.065102337     2.530501079    -0.011305382     0.006207379     0.499833629
   56     6.721161659    34.057723988     9.494553792    -0.003463620     0.006968256     0.499939443
   57     5.610828178    35.983891692     7.124322448    -0.002605347     0.003268921     0.499982526
   58     4.483788523    30.272023507     6.914652119    -0.002582246     0.008620809     0.499919007
   59     6.135518564    31.751053281     7.629765832    -0.002130820     0.000031857     0.499995459
   60     9.240824483    36.430368441     8.875387081    -0.005910563     0.003928987     0.499949626
   61     9.405701788    31.803864775     9.778796907    -0.004111851    -0.025633063     0.499325584
   62     9.237470983    37.319775237     2.212958975     0.005432408     0.007750161     0.499910416
   63     2.500050287    37.853406755     9.406794932    -0.014366413     0.002054655     0.499789340
   64     3.840009771    39.175098909     0.473613771    -0.013184467     0.011254157     0.499699423
   65     4.966955480    33.901722824     3.320566342    -0.074050273    -0.004624002     0.494464534
   66     1.365265056    36.783470275     7.913922290    -0.020491371     0.000227838     0.499579875
   67     8.196248522    32.812374334     8.025718394     0.007961491     0.000030980     0.499936610
   68     1.359289329    32.342860444     5.125086327    -0.064133199    -0.220442650     0.444175608
   21    12.253151729    36.556170502     4.191589072     0.008635236    -0.018175069    -0.499594936
   22    19.585457400    31.939792957     6.231515792    -0.030940557    -0.143485672     0.477969187
   23    19.469530981    39.467118668     7.096355423    -0.019159087    -0.006325670     0.499592749
   24    14.416321555    34.354832316     7.924466843    -0.005288615     0.015538267     0.499730520
   25    15.694980365    30.598682599     1.209482914    -0.007807355     0.004830109     0.499915708
   26    12.254206322    31.181060482     7.746628122     0.021259989    -0.415571516    -0.277215310
   27    10.918829499    33.181318959     3.034831547     0.044351589     0.045555244     0.495941182
   28    17.911990217    35.620132706     1.304110411     0.007645672     0.004771934     0.499918766
   29    18.624620038    38.272945609     5.383625237    -0.021416061    -0.009837983     0.499444258
   30    17.394586768    39.186606989     2.080670512    -0.004438519    -0.011782323     0.499841451
   31    15.906955830    40.150357681     9.095061727    -0.000232881     0.004336298     0.499981142
   32    18.033830718    30.801344918     8.323990229    -0.005608891     0.001861636     0.499965073
   33    11.097054050    38.175671506     5.726207614    -0.006206459    -0.011543161     0.499828206
   34    20.694358021    33.160437467     8.444440089    -0.045720707    -0.423450297     0.261914992
   35    18.066647233    37.762081732     0.620652588     0.003905100     0.000693585     0.499984269
   36    17.580415601    32.748841608     5.954723296    -0.010168342    -0.096882440     0.490418594
   37    18.085974962    35.361721493     7.891434554    -0.008126898     0.005833973     0.499899908
   38    16.171023152    36.278928264     4.590573301     0.000669945    -0.008141418     0.499933264
   39    18.357529852    35.974268977     4.016099291     0.016056190    -0.005495184     0.499711919
   40    13.123940284    38.993024725     6.563064192    -0.004731041     0.004349042     0.499958701
   41    16.623312328    32.184929289     4.004041305    -0.000468959    -0.076844303     0.494059443
   42    10.907422607    38.626516755     3.453075355    -0.000730700     0.009473784     0.499909705
   43    14.445233335    37.211207249     5.597466366    -0.003519012    -0.001327169     0.499985855
   44    19.385628543    34.210548638     4.880805200     0.021787754    -0.010407912     0.499416629
   45    14.725059353    39.727256088     5.056630451    -0.011014872     0.006913397     0.499830849
   46    17.817085763    31.405759728     2.356371796     0.010913978    -0.062415584     0.495968930
   47    17.241549793    31.975493468     9.921136526    -0.007036771     0.005501725     0.499920209
   48    20.446464899    33.632343335     0.842238617     0.001747578     0.004675163     0.499975088
   49    13.685931337    35.484501942     1.932133445    -0.005759779    -0.013879072    -0.499774145
   50    16.840691361    39.558588278     7.053187356    -0.020326695     0.021000631     0.499145068
   51    20.117661465    35.992200656     0.981572241    -0.003457077     0.009694477     0.499894055
   52    19.825114035    39.754582414     1.682750870    -0.031535845     0.000359323     0.499004370
   53    19.094340698    34.434744033     9.605763676    -0.000046256     0.011123098     0.499876259
   54    15.253452930    32.541453321     9.917181415    -0.001419914    -0.022296816     0.499500586
   55    13.699676076    40.209762549     2.818587949    -0.012819795     0.003981148     0.499819771
   56    16.810817609    34.202384199     9.782640662    -0.002668445     0.009213037     0.499907991
   57    15.700484128    36.128551903     7.412409318    -0.006039431     0.004500383     0.499943269
   58    14.573444473    30.416683719     7.202738989    -0.004178916     0.007713628     0.499923031
   59    16.225174514    31.895713493     7.917852701    -0.004758224    -0.001734006     0.499974352
   60    19.330480433    36.575028653     9.163473950    -0.004901741     0.008169379     0.499909226
   61    19.495357737    31.948524987    10.066883776    -0.006929035    -0.021966209     0.499469192
   62    19.327126933    37.464435449     2.501045844     0.001034029     0.004543904     0.499978283
   63    12.589706236    37.998066966     9.694881802    -0.012525785     0.000497137     0.499842833
   64    13.929665720    39.319759120     0.761700641    -0.014229175     0.008748499     0.499720916
   65    15.056611430    34.046383036     3.608653212    -0.060033355    -0.007758055     0.496322283
   66    11.454921006    36.928130487     8.202009160    -0.018863078    -0.002076583     0.499639742
   67    18.285904472    32.957034546     8.313805264     0.008273833     0.002487728     0.499925349
   68    11.448945278    32.487520656     5.413173196    -0.034738866    -0.222936528     0.446197844
   21    22.342807679    36.700830714     4.479675941     0.010179445    -0.018959025    -0.499536720
   22    29.675113349    32.084453168     6.519602661    -0.026571386    -0.139043606     0.479542320
   23    29.559186931    39.611778880     7.384442292    -0.017492416    -0.003763370     0.499679750
   24    24.505977505    34.499492528     8.212553713    -0.003400021     0.017773044     0.499672451
   25    25.784636315    30.743342810     1.497569784    -0.010639973     0.012577291     0.499728529
   26    22.343862272    31.325720693     8.034714991    -0.016034614    -0.414100476    -0.279756479
   27    21.008485449    33.325979171     3.322918417     0.045218062     0.041257957     0.496238962
   28    28.001646167    35.764792918     1.592197281     0.009021922     0.009851463     0.499821522
   29    28.714275988    38.417605820     5.671712107    -0.019737226    -0.007218203     0.499558144
   30    27.484242718    39.331267200     2.368757381    -0.005152464    -0.007765937     0.499913135
   31    25.996611779    40.295017893     9.383148596     0.001906449     0.007399741     0.499941606
   32    28.123486668    30.946005130     8.612077099    -0.007354772     0.003424856     0.499934173
   33    21.186710000    38.320331717     6.014294484    -0.006974459    -0.011499752     0.499819080
   34    30.784013971    33.305097678     8.732526958    -0.030090533    -0.422415419     0.265819062
   35    28.156303182    37.906741944     0.908739458     0.003938064     0.005022497     0.499959265
   36    27.670071551    32.893501820     6.242810165    -0.005624928    -0.091785901     0.491470964
   37    28.175630912    35.506381704     8.179521424    -0.008955625     0.007349854     0.499865758
   38    26.260679102    36.423588475     4.878660170     0.005028223    -0.006064995     0.499937929
   39    28.447185802    36.118929189     4.304186161     0.019307006     0.002103061     0.499622674
   40    23.213596234    39.137684937     6.851151062    -0.004713309     0.004461433     0.499957879
   41    26.712968278    32.329589501     4.292128175     0.002794107    -0.071033703     0.494920606
   42    20.997078557    38.771176967     3.741162225    -0.002721229     0.008115829     0.499926723
   43    24.534889284    37.355867461     5.885553236     0.002191050    -0.001550455     0.499992795
   44    29.475284493    34.355208850     5.168892069     0.024323770    -0.004195270     0.499390382
   45    24.814715302    39.871916299     5.344717321    -0.009687343     0.007104215     0.499855665
   46    27.906741713    31.550419940     2.644458666     0.011761534    -0.056211715     0.496690960
   47    27.331205743    32.120153679    10.209223395    -0.008964192     0.008718800     0.499843601
   48    30.536120849    33.777003547     1.130325487     0.005613816     0.011305570     0.499840644
   49    23.775587287    35.629162154     2.220220314     0.028077898    -0.027033791    -0.498478491
   50    26.930347311    39.703248490     7.341274226    -0.018157915     0.023457470     0.499119262
   51    30.207317415    36.136860868     1.269659111    -0.002581155     0.014269456     0.499789676
   52    29.914769984    39.899242626     1.970837739    -0.031356967     0.003967296     0.499000001
   53    29.183996648    34.579404245     9.893850546    -0.001276473     0.013891975     0.499805346
   54    25.343108880    32.686113533    10.205268284    -0.002234618     0.000092002     0.499994998
   55    23.789332026    40.354422760     3.106674818    -0.012895901     0.004019615     0.499817505
   56    26.900473559    34.347044411    10.070727531    -0.003894811     0.014486036     0.499774935
   57    25.790140077    36.273212115     7.700496187    -0.003953623     0.006399678     0.499943410
   58    24.663100423    30.561343930     7.490825859    -0.005699980     0.008844749     0.499889268
   59    26.314830464    32.040373704     8.205939571    -0.005267579    -0.000588860     0.499971905
   60    29.420136383    36.719688864     9.451560820    -0.005806440     0.009729491     0.499871606
   61    29.585013687    32.093185198    10.354970646    -0.006260666    -0.019797868     0.499568662
   62    29.416782882    37.609095660     2.789132714     0.002200562     0.009460702     0.499905644
   63    22.679362186    38.142727178     9.982968672    -0.011424191     0.001573980     0.499866993
   64    24.019321670    39.464419332     1.049787511    -0.014903633     0.008469972     0.499706055
   65    25.146267380    34.191043248     3.896740082    -0.065445877     0.028293584     0.494890200
   66    21.544576955    37.072790698     8.490096029    -0.017557978    -0.000237654     0.499691566
   67    28.375560422    33.101694757     8.601892133     0.006497186     0.005476449     0.499927790
   68    21.538601228    32.632180867     5.701260066    -0.051643764    -0.220792618     0.445627133
   21    32.432463629    36.845490925     4.767762811     0.009771207    -0.020442703    -0.499486356
   22    39.764769299    32.229113380     6.807689531    -0.040329486    -0.143844542     0.477160644
   23    39.648842881    39.756439092     7.672529162    -0.020558832    -0.003774480     0.499562897
   24    34.595633455    34.644152740     8.500640582    -0.006260923     0.017103896     0.499668147
   25    35.874292265    30.888003022     1.785656654    -0.016038076     0.008190038     0.499675598
   26    32.433518222    31.470380905     8.322801861     0.019178664    -0.414154699    -0.279478200
   27    31.098141399    33.470639382     3.611005286     0.047429194     0.047534265     0.495470448
   28    38.091302117    35.909453129     1.880284150     0.005926044     0.007938277     0.499901856
   29    38.803931938    38.562266032     5.959798976    -0.022811262    -0.006322236     0.499439361
   30    37.573898668    39.475927412     2.656844251    -0.006159830    -0.009193226     0.499877526
   31    36.086267729    40.439678104     9.671235466    -0.000285646     0.007081993     0.499949761
   32    38.213142618    31.090665341     8.900163968    -0.011796931     0.000833958     0.499860117
   33    31.276365949    38.464991929     6.302381353    -0.007689887    -0.009073908     0.499858510
   34    40.873669920    33.449757890     9.020613828    -0.067878175    -0.422676939     0.258334586
   35    38.245959132    38.051402156     1.196826327     0.001209962     0.003318454     0.499987524
   36    37.759727501    33.038162031     6.530897035    -0.017503261    -0.097464090     0.490096304
   37    38.265286862    35.651041916     8.467608294    -0.011495814     0.005907496     0.499832920
   38    36.350335051    36.568248687     5.166747040     0.003092801    -0.000582548     0.499990095
   39    38.536841752    36.263589401     4.592273030     0.015306478    -0.004067271     0.499749106
   40    33.303252184    39.282345148     7.139237931    -0.005884665     0.006221311     0.499926661
   41    36.802624227    32.474249712     4.580215044    -0.008415531    -0.076781465     0.493997759
   42    31.086734507    38.915837178     4.029249094    -0.002470663     0.011460345     0.499862537
   43    34.624545234    37.500527672     6.173640105    -0.000921574     0.000437731     0.499998959
   44    39.564940442    34.499869061     5.456978939     0.018913999    -0.012860567     0.499476592
   45    34.904371252    40.016576511     5.632804190    -0.011421249     0.008591275     0.499795703
   46    37.996397663    31.695080152     2.932545535     0.002494307    -0.061586671     0.496186316
   47    37.420861693    32.264813891    10.497310265    -0.013070355     0.004878677     0.499805326
   48    40.625776799    33.921663758     1.418412356     0.001819156     0.007711831     0.499937214
   49    33.865243236    35.773822365     2.508307184     0.024955429    -0.028109105    -0.498585103
   50    37.020003261    39.847908701     7.629361095    -0.020883798     0.023661314     0.499003015
   51    40.296973364    36.281521080     1.557745980    -0.004580194     0.012136063     0.499831709
   52    40.004425934    40.043902837     2.258924609    -0.033356464     0.001503251     0.498883841
   53    39.273652598    34.724064457    10.181937415    -0.002984919     0.011269385     0.499864073
   54    35.432764830    32.830773745    10.493355154    -0.001079866    -0.022864365     0.499475780
   55    33.878987976    40.499082972     3.394761688    -0.013159654     0.006191441     0.499788445
   56    36.990129509    34.491704623    10.358814401    -0.006048605     0.008875764     0.499884622
   57    35.879796027    36.417872327     7.988583057    -0.006673890     0.006561625     0.499912397
   58    34.752756373    30.706004142     7.778912728    -0.009770280     0.007569805     0.499847216
   59    36.404486414    32.185033916     8.494026440    -0.009259762    -0.003957067     0.499898588
   60    39.509792333    36.864349076     9.739647689    -0.008113051     0.008183682     0.499867188
   61    39.674669637    32.237845410    10.643057516    -0.011526544    -0.023179546     0.499329398
   62    39.506438832    37.753755872     3.077219583     0.000334637     0.006519135     0.499957387
   63    32.769018136    38.287387390    10.271055541    -0.013177343     0.003604020     0.499813334
   64    34.108977620    39.609079544     1.337874380    -0.014946228     0.010716901     0.499661644
   65    35.235923330    34.335703459     4.184826951    -0.080097546    -0.044904784     0.491495619
   66    31.634232905    37.217450910     8.778182899    -0.018924459     0.001735289     0.499638723
   67    38.465216372    33.246354969     8.889979003     0.001418107     0.002792627     0.499990190
   68    31.628257178    32.776841079     5.989346936    -0.046143237    -0.217108348     0.448034337
   21     2.045140537     6.368365464    13.823611293     0.009284757    -0.017888136    -0.499593643
   22     9.377446208     1.751987918    15.863538013    -0.032991215    -0.140279207     0.478783170
   23     9.261519789     9.279313630    16.728377644    -0.016063785    -0.004859028     0.499718265
   24     4.208310363     4.167027278    17.556489065    -0.000736617     0.016665026     0.499721657
   25     5.486969173     0.410877561    10.841505136    -0.015179173     0.007441675     0.499714132
   26     2.046195130     0.993255443    17.378650343    -0.038579319    -0.410137151    -0.283371053
   27     0.710818307     2.993513921    12.666853769     0.044254756     0.042832015     0.496192438
   28     7.703979025     5.432327668    10.936132633     0.006778979     0.008533041     0.499881219
   29     8.416608846     8.085140570    15.015647459    -0.018600530    -0.009382937     0.499565792
   30     7.186575576     8.998801951    11.712692733    -0.004008890    -0.010137001     0.499881156
   31     5.698944638     9.962552643    18.727083948     0.005214218     0.007457671     0.499917188
   32     7.825819526     0.613539880    17.956012451    -0.004559785     0.003817778     0.499964632
   33     0.889042858     7.987866467    15.358229835    -0.007922509    -0.009887051     0.499839454
   34    10.486346829     2.972632428    18.076462310    -0.049495422    -0.422154483     0.263316911
   35     7.858636041     7.574276694    10.252674810     0.003125546     0.003280767     0.499979467
   36     7.372404409     2.561036570    15.586745517    -0.011867553    -0.093633665     0.491011098
   37     7.877963770     5.173916455    17.523456776    -0.003715868     0.007308595     0.499932772
   38     5.963011960     6.091123225    14.222595522     0.005287997    -0.007710654     0.499912575
   39     8.149518660     5.786463939    13.648121513     0.018278267     0.001118104     0.499664542
   40     2.915929093     8.805219687    16.195086414    -0.004582725     0.005163836     0.499952331
   41     6.415301136     1.997124251    13.636063527    -0.004050263    -0.073746303     0.494514993
   42     0.699411415     8.438711717    13.085097577    -0.003818910     0.010246063     0.499880420
   43     4.237222143     7.023402211    15.229488588     0.002536910    -0.003780144     0.499979274
   44     9.177617351     4.022743600    14.512827421     0.022207143    -0.006505593     0.499464233
   45     4.517048161     9.539451049    14.688652673    -0.009209679     0.007110377     0.499864606
   46     7.609074571     1.217954690    11.988394018     0.006733078    -0.059356851     0.496418604
   47     7.033538601     1.787688429    19.553158747    -0.006123008     0.005456245     0.499932734
   48    10.238453707     3.444538297    10.474260839    -0.000790042     0.007544354     0.499942455
   49     3.477920145     5.296696904    11.564155666     0.024604335     0.003749858    -0.499380181
   50     6.632680169     9.370783240    16.685209578    -0.015325078     0.023399045     0.499217014
   51     9.909650273     5.804395618    10.613594463    -0.003885972     0.012698151     0.499823625
   52     9.617102843     9.566777376    11.314773091    -0.030899282     0.002412012     0.499038492
   53     8.886329506     4.246938995    19.237785898     0.002617373     0.013551471     0.499809471
   54     5.045441738     2.353648283    19.549203636    -0.000510774    -0.020485977     0.499579887
   55     3.491664884    10.021957510    12.450610170    -0.013090423     0.004370007     0.499809508
   56     6.602806417     4.014579161    19.414662883    -0.000446932     0.010560151     0.499888271
   57     5.492472936     5.940746865    17.044431539    -0.001332235     0.005288442     0.499970257
   58     4.365433281     0.228878680    16.834761211    -0.004453335     0.009895824     0.499882227
   59     6.017163322     1.707908454    17.549874923    -0.003357325     0.000428075     0.499988545
   60     9.122469241     6.387223614    18.795496172     0.000021349     0.009600470     0.499907822
   61     9.287346545     1.760719949    19.698905998     0.001112104    -0.020926904     0.499560635
   62     9.119115741     7.276630410    12.133068066     0.002023990     0.007923964     0.499933110
   63     2.381695044     7.810261928    19.326904024    -0.012355275     0.003555567     0.499834678
   64     3.721654528     9.131954082    10.393722863    -0.015365639     0.009274707     0.499677773
   65     4.848600238     3.858577998    13.240675434    -0.089029021    -0.007826918     0.491947734
   66     1.246909814     6.740325449    17.834031381    -0.019351173     0.001820448     0.499622075
   67     8.077893280     2.769229508    17.945827485     0.009745365     0.005239173     0.499877564
   68     1.240934086     2.299715618    15.045195418    -0.064957939    -0.216461101     0.446010154
   21    12.134796487     6.513025675    14.111698163     0.007871968    -0.019355055    -0.499563223
   22    19.467102157     1.896648130    16.151624883    -0.031275190    -0.139421922     0.479148610
   23    19.351175739     9.423973842    17.016464514    -0.012068934    -0.005073424     0.499828572
   24    14.297966313     4.311687490    17.844575934    -0.000677309     0.016307288     0.499733543
   25    15.576625123     0.555537772    11.129592005    -0.013819773     0.008552274     0.499735803
   26    12.135851080     1.137915655    17.666737213    -0.024537991    -0.415424139    -0.277165423
   27    10.800474257     3.138174132    12.954940638     0.045306686     0.043757720     0.496016699
   28    17.793634975     5.576987879    11.224219502     0.012900127     0.008943910     0.499753532
   29    18.506264796     8.229800782    15.303734328    -0.013738200    -0.009611441     0.499718803
   30    17.276231526     9.143462162    12.000779603     0.001309185    -0.009226747     0.499913146
   31    15.788600587    10.107212855    19.015170818     0.007486115     0.005488712     0.499913825
   32    17.915475476     0.758200091    18.244099320    -0.002667377     0.003377132     0.499981480
   33    10.978698808     8.132526679    15.646316705    -0.003935983    -0.010542595     0.499873346
   34    20.576002779     3.117292640    18.364549180    -0.042584930    -0.419976584     0.267966775
   35    17.948291990     7.718936906    10.540761679     0.008753763     0.003646453     0.499910067
   36    17.462060359     2.705696781    15.874832387    -0.011372315    -0.092904668     0.491161270
   37    17.967619720     5.318576666    17.811543646    -0.004461260     0.007496740     0.499923890
   38    16.052667910     6.235783437    14.510682392     0.008099334    -0.007159278     0.499883132
   39    18.239174610     5.931124151    13.936208382     0.021720696     0.000149200     0.499527966
   40    13.005585042     8.949879898    16.483173283    -0.001172347     0.004104472     0.499981779
   41    16.504957086     2.141784462    13.924150396    -0.005241171    -0.072437033     0.494697288
   42    10.789067365     8.583371928    13.373184446    -0.001249186     0.010053878     0.499897349
   43    14.326878093     7.168062422    15.517575457     0.002941569    -0.004896113     0.499967374
   44    19.267273301     4.167403811    14.800914291     0.025507958    -0.007866121     0.499286960
   45    14.606704110     9.684111261    14.976739542    -0.006236098     0.006554538     0.499918142
   46    17.698730521     1.362614902    12.276480887     0.005810183    -0.057801381     0.496613776
   47    17.123194551     1.932348641    19.841245617    -0.004583169     0.005409660     0.499949728
   48    20.328109657     3.589198508    10.762347708     0.005652425     0.009433134     0.499879051
   49    13.567576095     5.441357116    11.852242536     0.022229402    -0.032079121    -0.498474456
   50    16.722336119     9.515443451    16.973296447    -0.013333257     0.021696912     0.499351047
   51    19.999306223     5.949055830    10.901681332     0.000756482     0.013339305     0.499821459
   52    19.706758793     9.711437587    11.602859961    -0.025796999     0.001774667     0.499330918
   53    18.975985456     4.391599207    19.525872767     0.003670128     0.013921426     0.499792681
   54    15.135097688     2.498308495    19.837290506     0.000419462    -0.021527155     0.499536191
   55    13.581320834    10.166617722    12.738697040    -0.009235486     0.005071193     0.499888976
   56    16.692462367     4.159239373    19.702749753    -0.000417697     0.010313206     0.499893452
   57    15.582128885     6.085407077    17.332518409    -0.001208768     0.005033290     0.499973204
   58    14.455089231     0.373538892    17.122848080    -0.001650273     0.008961415     0.499916963
   59    16.106819272     1.852568666    17.837961792    -0.000194451     0.000107293     0.499999951
   60    19.212125191     6.531883826    19.083583041    -0.001366401     0.009772551     0.499902621
   61    19.377002495     1.905380160    19.986992868     0.005607540    -0.018598327     0.499622515
   62    19.208771690     7.421290622    12.421154935     0.005885366     0.008402482     0.499894750
   63    12.471350994     7.954922140    19.614990893    -0.006470358     0.003696995     0.499944464
   64    13.811310478     9.276614294    10.681809732    -0.011583717     0.010143241     0.499762876
   65    14.938256188     4.003238210    13.528762303    -0.084932242     0.019245536     0.492357719
   66    11.336565763     6.884985660    18.122118251    -0.012839463     0.001608925     0.499832532
   67    18.167549230     2.913889719    18.233914355     0.010124013     0.006312004     0.499857643
   68    11.330590036     2.444375829    15.333282288    -0.053284192    -0.217794250     0.446907663
   21    22.224452437     6.657685887    14.399785032     0.007133152    -0.020980066    -0.499508714
   22    29.556758107     2.041308342    16.439711752    -0.027285324    -0.139785300     0.479286533
   23    29.440831689     9.568634053    17.304551384    -0.017423856    -0.002971859     0.499687480
   24    24.387622263     4.456347701    18.132662804    -0.001744349     0.015574901     0.499754319
   25    25.666281073     0.700197984    11.417678875    -0.012697309     0.011505943     0.499706305
   26    22.225507030     1.282575867    17.954824083    -0.022827887    -0.413737383    -0.279821847
   27    20.890130207     3.282834344    13.243027508     0.050773564     0.041601059     0.495672671
   28    27.883290925     5.721648091    11.512306372     0.010313109     0.011628638     0.499758356
   29    28.595920746     8.374460994    15.591821198    -0.019443487    -0.006196993     0.499583375
   30    27.365887476     9.288122374    12.288866472    -0.003894402    -0.001175888     0.499983451
   31    25.878256537    10.251873066    19.303257687     0.002782672     0.008376863     0.499922079
   32    28.005131426     0.902860303    18.532186190    -0.003658206     0.002361361     0.499981041
   33    21.068354757     8.277186891    15.934403575    -0.005974460    -0.007717265     0.499904741
   34    30.665658728     3.261952852    18.652636049    -0.033234153    -0.422184164     0.265812006
   35    28.037947940     7.863597117    10.828848549     0.005830538     0.006996751     0.499917043
   36    27.551716309     2.850356993    16.162919256    -0.007917130    -0.092565672     0.491293105
   37    28.057275670     5.463236878    18.099630515    -0.006498326     0.006024176     0.499921475
   38    26.142323859     6.380443649    14.798769261     0.006237639    -0.007397681     0.499906357
   39    28.328830560     6.075784362    14.224295252     0.020136127     0.002096126     0.499589975
   40    23.095240992     9.094540110    16.771260153    -0.003147771     0.006526918     0.499947488
   41    26.594613035     2.286444674    14.212237266     0.000250797    -0.071806410     0.494816912
   42    20.878723315     8.728032140    13.661271316     0.000929817     0.011309167     0.499871222
   43    24.416534042     7.312722634    15.805662327     0.002643992    -0.003789168     0.499978651
   44    29.356929250     4.312064023    15.089001160     0.024665096    -0.005297152     0.499363168
   45    24.696360060     9.828771473    15.264826412    -0.008371646     0.008538727     0.499856985
   46    27.788386471     1.507275113    12.564567757     0.009943147    -0.056908884     0.496651299
   47    27.212850501     2.077008853    20.129332486    -0.005248887     0.006143191     0.499934706
   48    30.417765607     3.733858720    11.050434578     0.006185419     0.011163779     0.499837084
   49    23.657232044     5.586017327    12.140329406     0.022078708    -0.030522723    -0.498578874
   50    26.811992069     9.660103663    17.261383317    -0.017792206     0.024335653     0.499090386
   51    30.088962172     6.093716041    11.189768202    -0.001777137     0.015479186     0.499757178
   52    29.796414742     9.856097799    11.890946830    -0.030068873     0.006096971     0.499057802
   53    29.065641406     4.536259418    19.813959637     0.001677072     0.011934604     0.499854732
   54    25.224753638     2.642968706    20.125377375    -0.005723675    -0.020435580     0.499549424
   55    23.670976784    10.311277934    13.026783910    -0.010373571     0.006767169     0.499846571
   56    26.782118317     4.303899584    19.990836622    -0.000612456     0.010144568     0.499896702
   57    25.671784835     6.230067288    17.620605278    -0.002427374     0.004286124     0.499975736
   58    24.544745181     0.518199104    17.410934950    -0.001758026     0.009290006     0.499910597
   59    26.196475222     1.997228878    18.126048662    -0.001418465     0.000146569     0.499997966
   60    29.301781141     6.676544038    19.371669911    -0.003852264     0.009123150     0.499901919
   61    29.466658445     2.050040372    20.275079737    -0.003584407    -0.022277512     0.499490605
   62    29.298427640     7.565950834    12.709241805     0.003238061     0.010564406     0.499877893
   63    22.561006944     8.099582351    19.903077763    -0.008443889     0.004672408     0.499906861
   64    23.900966428     9.421274505    10.969896602    -0.012260682     0.011383566     0.499720012
   65    25.027912138     4.147898421    13.816849173    -0.066267730     0.006157033     0.495550884
   66    21.426221713     7.029645872    18.410205120    -0.014565769     0.002513608     0.499781472
   67    28.257205180     3.058549931    18.522001224     0.010137124     0.002559358     0.499890676
   68    21.420245986     2.589036041    15.621369157    -0.051530162    -0.216574433     0.447705436
   21    32.314108387     6.802346099    14.687871902     0.009993505    -0.021990366    -0.499416213
   22    39.646414057     2.185968553    16.727798622    -0.041134970    -0.139933231     0.478253704
   23    39.530487639     9.713294265    17.592638253    -0.022388638    -0.002529673     0.499492092
   24    34.477278212     4.601007913    18.420749674    -0.006160665     0.019180147     0.499594003
   25    35.755937022     0.844858196    11.705765745    -0.014834983     0.010761476     0.499664001
   26    32.315162980     1.427236078    18.242910952    -0.006238078    -0.413536881    -0.280977462
   27    30.979786157     3.427494556    13.531114377     0.048156299     0.045543934     0.495587249
   28    37.972946874     5.866308303    11.800393242     0.006320344     0.008346989     0.499890369
   29    38.685576696     8.519121205    15.879908068    -0.024729565    -0.005764951     0.499354798
   30    37.455543426     9.432782586    12.576953342    -0.007712227    -0.008062611     0.499875500
   31    35.967912487    10.396533278    19.591344557    -0.002182384     0.007603028     0.499937427
   32    38.094787376     1.047520515    18.820273059    -0.011998579     0.004296007     0.499837552
   33    31.158010707     8.421847102    16.222490444    -0.007718090    -0.008189950     0.499873340
   34    40.755314678     3.406613063    18.940722919    -0.069699850    -0.419644333     0.262755712
   35    38.127603890     8.008257329    11.116935418     0.001046254     0.003809276     0.499984395
   36    37.641372258     2.995017205    16.451006126    -0.017724242    -0.094139419     0.490737833
   37    38.146931619     5.607897089    18.387717385    -0.011281235     0.008462089     0.499801087
   38    36.231979809     6.525103860    15.086856131     0.003872540    -0.001286912     0.499983347
   39    38.418486510     6.220444574    14.512382122     0.015648506    -0.002264372     0.499749934
   40    33.184896942     9.239200322    17.059347022    -0.006507951     0.006678049     0.499913043
   41    36.684268985     2.431104886    14.500324135    -0.007845540    -0.073656385     0.494482744
   42    30.968379265     8.872692352    13.949358185    -0.001853331     0.012687834     0.499835557
   43    34.506189992     7.457382846    16.093749196    -0.000522261     0.000298390     0.499999638
   44    39.446585200     4.456724235    15.377088030     0.018369504    -0.010998345     0.499541387
   45    34.786016010     9.973431684    15.552913282    -0.012096922     0.008992859     0.499772741
   46    37.878042420     1.651935325    12.852654626     0.003847816    -0.058749109     0.496521638
   47    37.302506451     2.221669064    20.417419356    -0.014774758     0.008287920     0.499712935
   48    40.507421557     3.878518932    11.338521447     0.002876078     0.009372903     0.499903868
   49    33.746887994     5.730677539    12.428416275     0.024887385    -0.031556373    -0.498382196
   50    36.901648019     9.804763875    17.549470186    -0.022674648     0.023978456     0.498909705
   51    40.178618122     6.238376253    11.477855072    -0.005068665     0.012751963     0.499811661
   52    39.886070692    10.000758011    12.179033700    -0.033090731     0.003539887     0.498891243
   53    39.155297356     4.680919630    20.102046506    -0.004079276     0.013779520     0.499793442
   54    35.314409587     2.787628918    20.413464245    -0.012926280    -0.014240888     0.499629971
   55    33.760632733    10.455938145    13.314870779    -0.014219771     0.006746634     0.499752220
   56    36.871774267     4.448559796    20.278923492    -0.008097928     0.012829728     0.499769769
   57    35.761440785     6.374727500    17.908692148    -0.006304829     0.008269790     0.499891848
   58    34.634401130     0.662859315    17.699021819    -0.009607919     0.009832347     0.499810977
   59    36.286131171     2.141889089    18.414135532    -0.009813877    -0.000189384     0.499903643
   60    39.391437091     6.821204249    19.659756781    -0.008168336     0.010085996     0.499831523
   61    39.556314395     2.194700584    20.563166607    -0.013763289    -0.020144315     0.499404424
   62    39.388083590     7.710611045    12.997328674     0.000096708     0.007416586     0.499944982
   63    32.650662894     8.244242563    20.191164632    -0.013016356     0.003426074     0.499818804
   64    33.990622378     9.565934717    11.257983471    -0.015985938     0.011264954     0.499617404
   65    35.117568087     4.292558633    14.104936042    -0.089802410     0.001468950     0.491867227
   66    31.515877663     7.174306084    18.698291990    -0.018148872     0.001487690     0.499668295
   67    38.346861130     3.203210143    18.810088094     0.001896210     0.005079940     0.499970598
   68    31.509901936     2.733696253    15.909456027    -0.045473198    -0.217814587     0.447759974
   21     2.180216008    16.393458985    13.854236717     0.009858422    -0.019301858    -0.499530029
   22     9.512521679    11.777081439    15.894163437    -0.038633917    -0.140601537     0.478266273
   23     9.396595261    19.304407151    16.759003068    -0.016467459    -0.004158348     0.499711448
   24     4.343385834    14.192120799    17.587114488    -0.001362855     0.016211962     0.499735245
   25     5.622044644    10.435971082    10.872130559    -0.014582060     0.008195819     0.499720114
   26     2.181270601    11.018348964    17.409275767    -0.052059939    -0.408717784    -0.283265840
   27     0.845893778    13.018607442    12.697479192     0.050026800     0.045851242     0.495373579
   28     7.839054496    15.457421189    10.966758056     0.008101375     0.009073827     0.499852011
   29     8.551684317    18.110234091    15.046272882    -0.019651212    -0.007174443     0.499562166
   30     7.321651047    19.023895472    11.743318157    -0.004257903    -0.008896622     0.499902711
   31     5.834020109    19.987646164    18.757709372     0.004593682     0.005577552     0.499947786
   32     7.960894997    10.638633401    17.986637874    -0.004257890     0.001958346     0.499978035
   33     1.024118329    18.012959989    15.388855259    -0.007026389    -0.010014103     0.499850325
   34    10.621422300    12.997725949    18.107087734    -0.071016452    -0.419669576     0.262362555
   35     7.993711512    17.599370215    10.283300233     0.003736669     0.004152199     0.499968796
   36     7.507479880    12.586130091    15.617370941    -0.015060338    -0.094057579     0.490842498
   37     8.013039241    15.199009976    17.554082199    -0.004029350     0.005284806     0.499955833
   38     6.098087431    16.116216746    14.253220946     0.007376748    -0.004527330     0.499925081
   39     8.284594131    15.811557460    13.678746936     0.019159265     0.002269848     0.499627632
   40     3.051004564    18.830313208    16.225711837    -0.003810619     0.004737918     0.499963030
   41     6.550376607    12.022217772    13.666688950    -0.006490988    -0.073753648     0.494487883
   42     0.834486886    18.463805238    13.115723000    -0.003323652     0.011131803     0.499865018
   43     4.372297614    17.048495732    15.260114011     0.002978672    -0.002480923     0.499984972
   44     9.312692822    14.047837121    14.543452845     0.022969733    -0.006300027     0.499432379
   45     4.652123632    19.564544570    14.719278096    -0.008952450     0.006947985     0.499871563
   46     7.744150042    11.243048211    12.019019441     0.004187654    -0.059021735     0.496486554
   47     7.168614072    11.812781950    19.583784171    -0.005119242     0.005364030     0.499945018
   48    10.373529178    13.469631818    10.504886262     0.002998482     0.009177154     0.499906780
   49     3.612995616    15.321790425    11.594781090     0.024331557    -0.028330699    -0.498603396
   50     6.767755640    19.395876761    16.715835001    -0.016524942     0.022305782     0.499228784
   51    10.044725744    15.829489139    10.644219886    -0.003691995     0.013349423     0.499808125
   52     9.752178314    19.591870897    11.345398515    -0.030216275     0.002779910     0.499078399
   53     9.021404977    14.272032516    19.268411321     0.004859864     0.011287630     0.499848948
   54     5.180517209    12.378741804    19.579829060    -0.006211742    -0.020916202     0.499523700
   55     3.626740355    20.047051031    12.481235594    -0.012168665     0.004655507     0.499830221
   56     6.737881888    14.039672682    19.445288307    -0.001003473     0.009671418     0.499905448
   57     5.627548407    15.965840386    17.075056963    -0.001681013     0.005061463     0.499971555
   58     4.500508752    10.253972201    16.865386634    -0.003152292     0.008799278     0.499912628
   59     6.152238793    11.733001975    17.580500346    -0.003394629    -0.000180107     0.499988444
   60     9.257544712    16.412317135    18.826121595    -0.000241584     0.007577306     0.499942523
   61     9.422422016    11.785813470    19.729531422    -0.002742663    -0.023007582     0.499462840
   62     9.254191212    17.301723931    12.163693489     0.002296777     0.008769838     0.499917808
   63     2.516770515    17.835355449    19.357529447    -0.011378048     0.001958046     0.499866688
   64     3.856729999    19.157047603    10.424348286    -0.014289964     0.009746235     0.499700718
   65     4.983675709    13.883671519    13.271300857    -0.103114201     0.006953349     0.489202527
   66     1.381985285    16.765418970    17.864656805    -0.018563305     0.000477983     0.499655056
   67     8.212968751    12.794323029    17.976452909     0.011438864     0.001625872     0.499866491
   68     1.376009558    12.324809139    15.075820841    -0.068604579    -0.214403632     0.446457718
   21    12.269871958    16.538119196    14.142323586     0.006507494    -0.017112919    -0.499664688
   22    19.602177629    11.921741651    16.182250306    -0.021932272    -0.143017028     0.478607465
   23    19.486251210    19.449067363    17.047089938    -0.011538145    -0.005351503     0.499838206
   24    14.433041784    14.336781011    17.875201358     0.000288616     0.013121620     0.499827710
   25    15.711700594    10.580631293    11.160217429    -0.008829792     0.009914141     0.499823714
   26    12.270926551    11.163009176    17.697362637    -0.050528801    -0.408423102    -0.283967269
   27    10.935549728    13.163267653    12.985566062     0.049713401     0.045278989     0.495457759
   28    17.928710446    15.602081400    11.254844926     0.016035996     0.009332125     0.499655640
   29    18.641340267    18.254894303    15.334359752    -0.012536075    -0.009384958     0.499754709
   30    17.411306997    19.168555683    12.031405026     0.005381818    -0.006490457     0.499928905
   31    15.923676059    20.132306376    19.045796241     0.009561320     0.005169628     0.499881842
   32    18.050550947    10.783293613    18.274724744    -0.000924236     0.000711427     0.499998640
   33    11.113774279    18.157620200    15.676942129    -0.004103506    -0.011348419     0.499854353
   34    20.711078250    13.142386161    18.395174603    -0.020841856    -0.424254997     0.263767539
   35    18.083367461    17.744030427    10.571387103     0.011723363     0.004840574     0.499839106
   36    17.597135830    12.730790302    15.905457810    -0.002570430    -0.095443448     0.490799288
   37    18.102695191    15.343670187    17.842169069    -0.003079944     0.004170379     0.499973121
   38    16.187743381    16.260876958    14.541307815     0.009454861    -0.009822019     0.499814099
   39    18.374250081    15.956217672    13.966833806     0.024821518    -0.000163203     0.499383486
   40    13.140660513    18.974973419    16.513798707    -0.001335685     0.003087869     0.499988681
   41    16.640032557    12.166877983    13.954775820     0.005945746    -0.074479447     0.494385942
   42    10.924142836    18.608465450    13.403809870    -0.001048930     0.010172156     0.499895416
   43    14.461953564    17.193155943    15.548200881     0.005364765    -0.006491789     0.499929071
   44    19.402348772    14.192497332    14.831539714     0.029259463    -0.007512815     0.499086607
   45    14.741779581    19.709204782    15.007364966    -0.005647426     0.005404951     0.499938889
   46    17.833805992    11.387708423    12.307106311     0.014067304    -0.059841102     0.496206765
   47    17.258270022    11.957442162    19.871871040    -0.003347923     0.003623950     0.499975658
   48    20.463185128    13.614292029    10.792973132     0.009701406     0.008922214     0.499826247
   49    13.702651566    15.466450637    11.882867960     0.024814162    -0.029256159    -0.498526162
   50    16.857411590    19.540536972    17.003921871    -0.011683861     0.021285781     0.499410055
   51    20.134381694    15.974149351    10.932306756     0.004002271     0.013571070     0.499799768
   52    19.841834264    19.736531108    11.633485384    -0.022862551     0.005037655     0.499451625
   53    19.111060927    14.416692728    19.556498191     0.003634304     0.009778531     0.499891160
   54    15.270173159    12.523402016    19.867915929     0.001364194    -0.024834270     0.499381015
   55    13.716396305    20.191711243    12.769322464    -0.008243856     0.004273027     0.499913773
   56    16.827537838    14.184332894    19.733375176     0.000633321     0.007311182     0.499946143
   57    15.717204356    16.110500598    17.363143832    -0.000433159     0.001909756     0.499996165
   58    14.590164702    10.398632413    17.153473504    -0.001241039     0.005919862     0.499963414
   59    16.241894743    11.877662187    17.868587216     0.001605364    -0.004699296     0.499975339
   60    19.347200662    16.556977347    19.114208465    -0.000186459     0.006714478     0.499954879
   61    19.512077966    11.930473681    20.017618291    -0.000643377    -0.024666642     0.499390772
   62    19.343847161    17.446384143    12.451780359     0.008872777     0.008701612     0.499845532
   63    12.606426465    17.980015661    19.645616317    -0.005979999     0.002259962     0.499959131
   64    13.946385949    19.301707815    10.712435156    -0.010638827     0.009290606     0.499800460
   65    15.073331659    14.028331731    13.559387727    -0.043920023     0.033791459     0.496919681
   66    11.471641234    16.910079181    18.152743674    -0.012692948     0.000031444     0.499838862
   67    18.302624701    12.938983240    18.264539778     0.012620319     0.000949825     0.499839800
   68    11.465665507    12.469469350    15.363907711    -0.063117483    -0.217276280     0.445878012
   21    22.359527908    16.682779408    14.430410456     0.005061301    -0.021236857    -0.499523152
   22    29.691833578    12.066401863    16.470337176    -0.029988112    -0.139053064     0.479338042
   23    29.575907160    19.593727574    17.335176807    -0.014176122    -0.003888081     0.499783874
   24    24.522697734    14.481441222    18.163288228    -0.002867693     0.015565916     0.499749416
   25    25.801356544    10.725291505    11.448304299    -0.012620950     0.012351150     0.499688063
   26    22.360582501    11.307669388    17.985449506     0.013900959    -0.415135808    -0.278332578
   27    21.025205678    13.307927865    13.273652931     0.051869171     0.045612788     0.495206081
   28    28.018366396    15.746741612    11.542931795     0.012350227     0.011644367     0.499711798
   29    28.730996217    18.399554515    15.622446622    -0.015827593    -0.008004311     0.499685319
   30    27.500962947    19.313215895    12.319491896     0.000811263    -0.000103128     0.499999331
   31    26.013332008    20.276966587    19.333883111     0.005218633     0.008513443     0.499900277
   32    28.140206897    10.927953824    18.562811613    -0.007117559     0.003121119     0.499939595
   33    21.203430228    18.302280412    15.965028998    -0.005102767    -0.007344881     0.499920008
   34    30.800734199    13.287046373    18.683261473    -0.032989646    -0.422051699     0.266052714
   35    28.173023411    17.888690638    10.859473972     0.008431814     0.007074539     0.499878841
   36    27.686791780    12.875450514    16.193544680    -0.008916812    -0.091915682     0.491398004
   37    28.192351141    15.488330399    18.130255939    -0.007647637     0.006304190     0.499901761
   38    26.277399330    16.405537170    14.829394685     0.006473939    -0.007652013     0.499899525
   39    28.463906031    16.100877883    14.254920676     0.020903092     0.001671752     0.499560072
   40    23.230316463    19.119633631    16.801885576    -0.001766050     0.006674619     0.499952328
   41    26.729688506    12.311538195    14.242862689     0.002275744    -0.071033197     0.494923333
   42    21.013798786    18.753125661    13.691896739     0.003187611     0.011728438     0.499852261
   43    24.551609513    17.337816155    15.836287750     0.003113942    -0.003903555     0.499975065
   44    29.492004722    14.337157544    15.119626584     0.024980005    -0.005481439     0.499345525
   45    24.831435531    19.853864994    15.295451836    -0.007007901     0.008588760     0.499877107
   46    27.923461942    11.532368635    12.595193180     0.011348254    -0.056097531     0.496713483
   47    27.347925972    12.102102374    20.159957910    -0.009092823     0.005918727     0.499882275
   48    30.552841078    13.758952241    11.081060001     0.005059592     0.012142539     0.499826929
   49    23.792307516    15.611110848    12.170954829     0.021809690    -0.030777818    -0.498575033
   50    26.947067540    19.685197184    17.292008740    -0.015781100     0.024093238     0.499169784
   51    30.224037643    16.118809562    11.220393626    -0.000143305     0.015579246     0.499757208
   52    29.931490213    19.881191320    11.921572254    -0.026919624     0.006846298     0.499227866
   53    29.200716877    14.561352939    19.844585060    -0.000442325     0.012154992     0.499852039
   54    25.359829109    12.668062227    20.156002799     0.002566180    -0.021257551     0.499541321
   55    23.806052255    20.336371455    13.057409333    -0.008647623     0.006734415     0.499879852
   56    26.917193788    14.328993105    20.021462046    -0.003800364     0.009392442     0.499897329
   57    25.806860306    16.255160809    17.651230702    -0.003024397     0.004453935     0.499971015
   58    24.679820652    10.543292625    17.441560373    -0.005970564     0.009297301     0.499877898
   59    26.331550693    12.022322399    18.156674085    -0.005094532    -0.000445065     0.499973847
   60    29.436856612    16.701637559    19.402295334    -0.004177541     0.009303835     0.499895976
   61    29.601733916    12.075133893    20.305705161    -0.007306942    -0.021761608     0.499472763
   62    29.433503111    17.591044355    12.739867228     0.004966222     0.010510533     0.499864847
   63    22.696082415    18.124675872    19.933703186    -0.007698189     0.003320807     0.499929705
   64    24.036041899    19.446368026    11.000522025    -0.010247450     0.011694671     0.499758166
   65    25.162987609    14.172991942    13.847474596    -0.077662813     0.014089584     0.493730667
   66    21.561297184    17.054739393    18.440830544    -0.013634833     0.000961178     0.499813133
   67    28.392280651    13.083643452    18.552626648     0.006589900     0.004512201     0.499936209
   68    21.555321457    12.614129562    15.651994581    -0.039707034    -0.221458345     0.446519376
   21    32.449183858    16.827439620    14.718497325     0.008431312    -0.021760212    -0.499455109
   22    39.781489528    12.211062074    16.758424046    -0.043370147    -0.138061362     0.478600137
   23    39.665563110    19.738387786    17.623263677    -0.018955222    -0.004447105     0.499620779
   24    34.612353683    14.626101434    18.451375097    -0.005550626     0.017479491     0.499663545
   25    35.891012493    10.869951717    11.736391168    -0.016673660     0.010235860     0.499617070
   26    32.450238451    11.452329599    18.273536376     0.003208380    -0.417144483    -0.275645037
   27    31.114861628    13.452588077    13.561739801     0.048392205     0.045361781     0.495580975
   28    38.108022345    15.891401824    11.831018665     0.010574755     0.011593466     0.499753705
   29    38.820652167    18.544214726    15.910533491    -0.021361424    -0.008089062     0.499477984
   30    37.590618897    19.457876107    12.607578765    -0.001331841     0.000244456     0.499998166
   31    36.102987958    20.421626799    19.621969981    -0.002005951     0.007572496     0.499938630
   32    38.229862847    11.072614036    18.850898483    -0.011864294     0.002997926     0.499850229
   33    31.293086178    18.446940623    16.253115868    -0.006633392    -0.007457619     0.499900372
   34    40.890390149    13.431706584    18.971348343    -0.077317781    -0.418419919     0.262577098
   35    38.262679361    18.033350850    11.147560842     0.006116373     0.007372990     0.499908221
   36    37.776447729    13.020110726    16.481631549    -0.018621538    -0.092087132     0.491093880
   37    38.282007090    15.632990610    18.418342808    -0.010907703     0.006904225     0.499833326
   38    36.367055280    16.550197381    15.117481555     0.004867764    -0.002332214     0.499970865
   39    38.553561981    16.245538095    14.543007545     0.018101459     0.003814972     0.499657666
   40    33.319972413    19.264293843    17.089972446    -0.004818585     0.007613195     0.499918814
   41    36.819344456    12.456198407    14.530949559    -0.009160082    -0.071508417     0.494775342
   42    31.103454736    18.897785873    13.979983609    -0.000245782     0.012605936     0.499841005
   43    34.641265463    17.482476367    16.124374620     0.000403936    -0.000434859     0.499999648
   44    39.581660671    14.481817756    15.407713454     0.021444499    -0.006009871     0.499503769
   45    34.921091481    19.998525205    15.583538705    -0.010534855     0.009762230     0.499793673
   46    38.013117892    11.677028846    12.883280050     0.002186710    -0.056552275     0.496786733
   47    37.437581922    12.246762585    20.448044779    -0.013589248     0.006272363     0.499775940
   48    40.642497028    13.903612453    11.369146871     0.004046412     0.011815352     0.499844000
   49    33.881963465    15.755771060    12.459041699     0.034229318    -0.045726381    -0.496726738
   50    37.036723490    19.829857396    17.580095610    -0.021169346     0.024460667     0.498952437
   51    40.313693593    16.263469774    11.508480495    -0.002934801     0.015484037     0.499751570
   52    40.021146163    20.025851532    12.209659124    -0.028899606     0.005342435     0.499135524
   53    39.290372827    14.706013151    20.132671930    -0.002866628     0.012396764     0.499838076
   54    35.449485059    12.812722439    20.444089669    -0.002319214    -0.022745670     0.499476982
   55    33.895708204    20.481031666    13.345496203    -0.011936137     0.007789627     0.499796809
   56    37.006849738    14.473653317    20.309548916    -0.006781972     0.009443210     0.499864812
   57    35.896516256    16.399821021    17.939317572    -0.005616494     0.006756767     0.499922795
   58    34.769476601    10.687952836    17.729647243    -0.009954495     0.008875329     0.499822105
   59    36.421206642    12.166982610    18.444760955    -0.009638664    -0.001607450     0.499904503
   60    39.526512562    16.846297770    19.690382204    -0.007725314     0.009034371     0.499858680
   61    39.691389866    12.219794105    20.593792030    -0.012852473    -0.021172435     0.499386165
   62    39.523159061    17.735704566    13.027954098     0.002507402     0.010527194     0.499882877
   63    32.785738365    18.269336084    20.221790056    -0.012209947     0.003983580     0.499835021
   64    34.125697849    19.591028238    11.288608895    -0.013479623     0.012717230     0.499656454
   65    35.252643558    14.317652154    14.135561466    -0.078612064    -0.000464382     0.493781255
   66    31.650953134    17.199399605    18.728917413    -0.017655129     0.001995858     0.499684213
   67    38.481936601    13.228303664    18.840713518     0.001959974     0.004322951     0.499977470
   68    31.644977407    12.758789774    15.940081450    -0.048832964    -0.217006849     0.447798357
   21     2.315291480    26.418552506    13.884862140     0.009494291    -0.020087276    -0.499506116
   22     9.647597150    21.802174960    15.924788860    -0.034678375    -0.141071083     0.478431144
   23     9.531670732    29.329500672    16.789628491    -0.013060720    -0.004952662     0.499804851
   24     4.478461305    24.217214320    17.617739912    -0.000627228     0.014219465     0.499797372
   25     5.757120115    20.461064603    10.902755983    -0.013362759     0.009012784     0.499740139
   26     2.316346072    21.043442485    17.439901190     0.009273817    -0.418667888    -0.273187108
   27     0.980969250    23.043700963    12.728104616     0.048965957     0.039484603     0.496027521
   28     7.974129967    25.482514710    10.997383480     0.011745921     0.010548026     0.499750710
   29     8.686759788    28.135327612    15.076898306    -0.015715109    -0.008046645     0.499688190
   30     7.456726518    29.048988993    11.773943580    -0.003805147    -0.001671046     0.499982728
   31     5.969095580    30.012739685    18.788334795     0.008472696     0.005471788     0.499898263
   32     8.095970468    20.663726922    18.017263298    -0.004945963     0.001654722     0.499972799
   33     1.159193800    28.038053510    15.419480683    -0.006380042    -0.009953449     0.499860204
   34    10.756497771    23.022819470    18.137713157    -0.062403937    -0.420047983     0.263942115
   35     8.128786983    27.624463736    10.313925657     0.007059692     0.006035511     0.499913726
   36     7.642555351    22.611223612    15.647996364    -0.011780489    -0.094482115     0.490850639
   37     8.148114712    25.224103497    17.584707623    -0.002877864     0.003651263     0.499978386
   38     6.233162902    26.141310267    14.283846369     0.006716825    -0.007998249     0.499890900
   39     8.419669602    25.836650981    13.709372360     0.020892316     0.000744580     0.499562766
   40     3.186080035    28.855406729    16.256337261    -0.002366911     0.004603493     0.499973205
   41     6.685452078    22.047311293    13.697314374    -0.003287792    -0.073750859     0.494519970
   42     0.969562358    28.488898759    13.146348424    -0.002574358     0.010957118     0.499873298
   43     4.507373085    27.073589253    15.290739435     0.004258118    -0.002846668     0.499973764
   44     9.447768293    24.072930642    14.574078268     0.024915721    -0.006554155     0.499335809
   45     4.787199103    29.589638091    14.749903520    -0.006673327     0.007226859     0.499903230
   46     7.879225513    21.268141732    12.049644865     0.007514929    -0.058798500     0.496473828
   47     7.303689543    21.837875471    19.614409594    -0.005512815     0.003802291     0.499955149
   48    10.508604649    23.494725339    10.535511686     0.006389775     0.010090815     0.499857326
   49     3.748071087    25.346883946    11.625406514     0.023331309    -0.028181638    -0.498659649
   50     6.902831111    29.420970282    16.746460425    -0.013153277     0.022110252     0.499337689
   51    10.179801215    25.854582660    10.674845310     0.000905314     0.014262109     0.499795731
   52     9.887253785    29.616964418    11.376023938    -0.028470129     0.004592701     0.499167666
   53     9.156480448    24.297126037    19.299036745     0.004826421     0.008507276     0.499904323
   54     5.315592680    22.403835325    19.610454483    -0.008488505    -0.021086541     0.499483036
   55     3.761815826    30.072144552    12.511861017    -0.009638331     0.006257299     0.499867931
   56     6.872957359    24.064766203    19.475913730    -0.002078936     0.007761649     0.499935431
   57     5.762623878    25.990933907    17.105682386    -0.001049669     0.003099831     0.499989289
   58     4.635584223    20.279065722    16.896012058    -0.005593021     0.007127904     0.499917904
   59     6.287314264    21.758095496    17.611125770    -0.005164176    -0.003006019     0.499964294
   60     9.392620183    26.437410656    18.856747019    -0.000059459     0.004972646     0.499975269
   61     9.557497487    21.810906991    19.760156845    -0.002830785    -0.024650071     0.499383981
   62     9.389266683    27.326817452    12.194318913     0.005033190     0.009249209     0.499889107
   63     2.651845986    27.860448970    19.388154871    -0.011233906     0.001152660     0.499872454
   64     3.991805470    29.182141124    10.454973710    -0.011867754     0.011313434     0.499731090
   65     5.118751180    23.908765040    13.301926281    -0.093538082    -0.004600717     0.491151159
   66     1.517060756    26.790512491    17.895282228    -0.018454038    -0.000023836     0.499659332
   67     8.348044222    22.819416550    18.007078332     0.011515077    -0.000341686     0.499867269
   68     1.511085029    22.349902660    15.106446265    -0.038295167    -0.221780069     0.446483013
   21    12.404947429    26.563212718    14.172949010     0.005708966    -0.018536490    -0.499623665
   22    19.737253100    21.946835172    16.212875730    -0.028911474    -0.139302216     0.479331847
   23    19.621326681    29.474160884    17.077715361    -0.011267227    -0.004572306     0.499852122
   24    14.568117255    24.361874532    17.905826782     0.000555464     0.013184667     0.499825826
   25    15.846776065    20.605724814    11.190842853    -0.007178095     0.009936105     0.499849726
   26    12.406002022    21.188102697    17.727988060    -0.041515609    -0.410462315    -0.282483879
   27    11.070625199    23.188361175    13.016191485     0.050335740     0.045362676     0.495387264
   28    18.063785917    25.627174921    11.285470349     0.015013189     0.008478146     0.499702637
   29    18.776415738    28.279987824    15.364985175    -0.012776921    -0.008809831     0.499759079
   30    17.546382468    29.193649204    12.062030450     0.002429455    -0.008524141     0.499921431
   31    16.058751530    30.157399897    19.076421665     0.008725919     0.003939595     0.499908330
   32    18.185626418    20.808387134    18.305350167    -0.000095789     0.000089099     0.499999983
   33    11.248849750    28.182713721    15.707567552    -0.003670703    -0.011056292     0.499864266
   34    20.846153721    23.167479682    18.425800027    -0.036935224    -0.419873699     0.268964433
   35    18.218442932    27.769123948    10.602012526     0.010317161     0.003593601     0.499880628
   36    17.732211301    22.755883824    15.936083234    -0.006687769    -0.092621335     0.491300887
   37    18.237770662    25.368763708    17.872794493    -0.002962896     0.003902675     0.499975990
   38    16.322818852    26.285970479    14.571933239     0.009328393    -0.009334011     0.499825827
   39    18.509325552    25.981311193    13.997459230     0.023279904    -0.000490638     0.499457511
   40    13.275735984    29.000066940    16.544424130    -0.000517552     0.003099556     0.499990125
   41    16.775108028    22.191971504    13.985401243     0.004906418    -0.071433683     0.494846599
   42    11.059218307    28.633558971    13.434435293     0.000155908     0.010671306     0.499886086
   43    14.597029035    27.218249464    15.578826304     0.004889890    -0.006511402     0.499933686
   44    19.537424243    24.217590853    14.862165138     0.026760308    -0.006709624     0.499238287
   45    14.876855053    29.734298303    15.037990389    -0.005035930     0.005719358     0.499941925
   46    17.968881463    21.412801944    12.337731734     0.017300406    -0.056384759     0.496509270
   47    17.393345493    21.982535683    19.902496464    -0.001839322     0.003365789     0.499985288
   48    20.598260599    23.639385550    10.823598555     0.011522795     0.007734510     0.499807365
   49    13.837727037    25.491544158    11.913493383     0.010985949    -0.033664283    -0.498744449
   50    16.992487061    29.565630493    17.034547294    -0.011499997     0.020600239     0.499443070
   51    20.269457165    25.999242872    10.962932180     0.002982273     0.012952974     0.499823295
   52    19.976909735    29.761624629    11.664110808    -0.026127689     0.003738597     0.499302881
   53    19.246136398    24.441786249    19.587123614     0.004425208     0.009642315     0.499887431
   54    15.405248630    22.548495537    19.898541353    -0.005152202    -0.022063354     0.499486399
   55    13.851471776    30.216804764    12.799947887    -0.007909944     0.005112566     0.499911287
   56    16.962613309    24.209426415    19.764000600     0.002351883     0.007706100     0.499935080
   57    15.852279828    26.135594119    17.393769256    -0.000482568     0.001843633     0.499996368
   58    14.725240173    20.423725934    17.184098927    -0.000277116     0.006727289     0.499954665
   59    16.376970214    21.902755708    17.899212639     0.002660548    -0.001796884     0.499989693
   60    19.482276133    26.582070868    19.144833888    -0.000229271     0.006827134     0.499953335
   61    19.647153437    21.955567202    20.048243715     0.000021911    -0.024573664     0.499395769
   62    19.478922633    27.471477664    12.482405782     0.007755379     0.008367507     0.499869822
   63    12.741501936    28.005109182    19.676241740    -0.003683063    -0.000993357     0.499985448
   64    14.081461420    29.326801336    10.743060579    -0.009907783     0.010404726     0.499793535
   65    15.208407130    24.053425252    13.590013150    -0.006767332     0.017281631     0.499655430
   66    11.606716706    26.935172702    18.183369098    -0.011401828    -0.002909437     0.499861514
   67    18.437700172    22.964076761    18.295165202     0.013018758    -0.001284639     0.499828832
   68    11.600740978    22.494562871    15.394533135    -0.058177923    -0.217908202     0.446241353
   21    22.494603379    26.707872929    14.461035879     0.005338922    -0.023118261    -0.499436725
   22    29.826909049    22.091495384    16.500962600    -0.023309149    -0.140922476     0.479163374
   23    29.710982631    29.618821095    17.365802231    -0.012758172    -0.003263805     0.499826547
   24    24.657773205    24.506534743    18.193913651    -0.001145178     0.015732613     0.499751112
   25    25.936432015    20.750385026    11.478929722    -0.009339037     0.012976516     0.499744327
   26    22.495657972    21.332762909    18.016074930     0.001588046    -0.416575664    -0.276517981
   27    21.160281149    23.333021386    13.304278355     0.047689815     0.048115624     0.495389310
   28    28.153441867    25.771835133    11.573557219     0.011502341     0.011240128     0.499741289
   29    28.866071688    28.424648036    15.653072045    -0.015103844    -0.006209928     0.499733240
   30    27.636038418    29.338309416    12.350117319    -0.002894881    -0.000867710     0.499990867
   31    26.148407479    30.302060108    19.364508535     0.006059209     0.008438100     0.499892073
   32    28.275282368    20.953047345    18.593437037    -0.004037956     0.002456994     0.499977658
   33    21.338505699    28.327373933    15.995654422    -0.005576633    -0.004309206     0.499950329
   34    30.935809670    23.312139894    18.713886897    -0.021334909    -0.423732868     0.264566208
   35    28.308098882    27.913784159    10.890099396     0.006861260     0.006689217     0.499908169
   36    27.821867251    22.900544035    16.224170103    -0.005073146    -0.093144694     0.491221263
   37    28.327426612    25.513423920    18.160881362    -0.005063175     0.005655009     0.499942382
   38    26.412474801    26.430630691    14.860020109     0.005863589    -0.007590337     0.499907997
   39    28.598981502    26.125971404    14.285546099     0.020893861     0.002462726     0.499557185
   40    23.365391934    29.144727152    16.832511000    -0.001867131     0.008101026     0.499930882
   41    26.864763978    22.336631716    14.273488113     0.001403468    -0.072092814     0.494773338
   42    21.148874257    28.778219182    13.722522163     0.002598559     0.012685553     0.499832296
   43    24.686684984    27.362909676    15.866913174     0.002517118    -0.003663310     0.499980244
   44    29.627080193    24.362251065    15.150252007     0.025771710    -0.005037100     0.499309970
   45    24.966511002    29.878958515    15.326077259    -0.007188450     0.009614302     0.499855871
   46    28.058537413    21.557462156    12.625818604     0.010691019    -0.056944842     0.496631641
   47    27.483001443    22.127195895    20.190583333    -0.004662970     0.006549874     0.499935352
   48    30.687916549    23.784045762    11.111685425     0.006411947     0.011311526     0.499830908
   49    23.927382987    25.636204369    12.201580253     0.021453682    -0.033728499    -0.498399566
   50    27.082143011    29.710290705    17.322634164    -0.015248652     0.024316059     0.499175528
   51    30.359113114    26.143903083    11.251019049    -0.000501453     0.015361022     0.499763732
   52    30.066565684    29.906284841    11.952197678    -0.029195103     0.006291852     0.499107262
   53    29.335792348    24.586446460    19.875210484     0.002438690     0.011751193     0.499855941
   54    25.494904580    22.693155748    20.186628223    -0.004300998    -0.020643185     0.499555162
   55    23.941127726    30.361464976    13.088034757    -0.009965308     0.007588259     0.499843086
   56    27.052269259    24.354086626    20.052087469     0.000615638     0.010267832     0.499894181
   57    25.941935777    26.280254330    17.681856126    -0.001929018     0.004352329     0.499977336
   58    24.814896123    20.568386146    17.472185797    -0.004417139     0.009392329     0.499892261
   59    26.466626164    22.047415920    18.187299509    -0.002660162     0.000329343     0.499992815
   60    29.571932083    26.726731080    19.432920758    -0.002008886     0.008088594     0.499930534
   61    29.736809387    22.100227414    20.336330584    -0.002504871    -0.021770616     0.499519535
   62    29.568578582    27.616137876    12.770492652     0.004750441     0.010627069     0.499864480
   63    22.831157886    28.149769393    19.964328610    -0.006177428     0.003546223     0.499949261
   64    24.171117370    29.471461547    11.031147449    -0.011879343     0.012222436     0.499709409
   65    25.298063080    24.198085463    13.878100020    -0.080631203     0.017956114     0.493128976
   66    21.696372655    27.079832914    18.471455967    -0.012867075     0.001126678     0.499833141
   67    28.527356122    23.108736973    18.583252072     0.010684885     0.002024211     0.499881722
   68    21.690396928    22.639223083    15.682620004    -0.048949963    -0.216761823     0.447904246
   21    32.584259329    26.852533141    14.749122749     0.007765860    -0.021173705    -0.499491107
   22    39.916564999    22.236155595    16.789049469    -0.024602002    -0.143806439     0.478240995
   23    39.800638581    29.763481307    17.653889100    -0.021522505    -0.002758687     0.499528950
   24    34.747429155    24.651194955    18.482000521    -0.004961328     0.016295232     0.499709766
   25    36.026087965    20.895045238    11.767016592    -0.011762373     0.013968346     0.499666421
   26    32.585313922    21.477423120    18.304161799     0.002174922    -0.411588595    -0.283883952
   27    31.249937099    23.477681598    13.592365224     0.048746262     0.045434411     0.495539621
   28    38.243097817    25.916495345    11.861644089     0.009347986     0.009664633     0.499819177
   29    38.955727638    28.569308247    15.941158915    -0.023639821    -0.005806826     0.499407088
   30    37.725694368    29.482969628    12.638204189    -0.006702788    -0.006507618     0.499912716
   31    36.238063429    30.446720320    19.652595404    -0.001466399     0.007894125     0.499935528
   32    38.364938318    21.097707557    18.881523906    -0.010440493     0.002596309     0.499884242
   33    31.428161649    28.472034144    16.283741291    -0.006400356    -0.007814401     0.499897960
   34    41.025465620    23.456800105    19.001973766    -0.008847331    -0.422505870     0.267227459
   35    38.397754832    28.058444371    11.178186266     0.003885918     0.005061500     0.499959279
   36    37.911523200    23.045204247    16.512256973    -0.010264153    -0.096281442     0.490534944
   37    38.417082561    25.658084132    18.448968232    -0.010340880     0.006974302     0.499844401
   38    36.502130751    26.575290902    15.148106978     0.004771323    -0.007661594     0.499918528
   39    38.688637452    26.270631616    14.573632969     0.019350206    -0.000963932     0.499624499
   40    33.455047884    29.289387364    17.120597869    -0.004446380     0.006660608     0.499935862
   41    36.954419927    22.481291928    14.561574982    -0.003526933    -0.075501096     0.494254130
   42    31.238530207    28.922879394    14.010609033    -0.000250729     0.012836689     0.499835129
   43    34.776340934    27.507569888    16.155000044     0.002458293    -0.002024052     0.499989860
   44    39.716736142    24.506911277    15.438338877     0.023796378    -0.009767110     0.499337898
   45    35.056166952    30.023618726    15.614164129    -0.010065906     0.008779267     0.499821570
   46    38.148193363    21.702122367    12.913905474     0.004487097    -0.059786144     0.496392469
   47    37.572657393    22.271856106    20.478670203    -0.012200563     0.006036532     0.499814672
   48    40.777572499    23.928705974    11.399772295     0.007052030     0.008608348     0.499876150
   49    34.017038936    25.780864581    12.489667122     0.024597991    -0.031128606    -0.498423463
   50    37.171798961    29.854950917    17.610721034    -0.022108605     0.024202093     0.498924311
   51    40.448769064    26.288563295    11.539105919    -0.001908893     0.013866814     0.499804029
   52    40.156221634    30.050945053    12.240284547    -0.032141866     0.003587858     0.498952931
   53    39.425448298    24.731106672    20.163297354    -0.004483924     0.011693900     0.499843123
   54    35.584560530    22.837815960    20.474715092    -0.010654446    -0.019309006     0.499513408
   55    34.030783676    30.506125187    13.376121626    -0.012460854     0.006377734     0.499804013
   56    37.141925209    24.498746838    20.340174339    -0.006300694     0.010705950     0.499845660
   57    36.031591727    26.424914542    17.969942995    -0.004863699     0.005313459     0.499948109
   58    34.904552072    20.713046357    17.760272666    -0.008752243     0.009487332     0.499833361
   59    36.556282113    22.192076131    18.475386379    -0.008773255    -0.000885262     0.499922240
   60    39.661588033    26.871391291    19.721007628    -0.007550942     0.008430450     0.499871894
   61    39.826465337    22.244887626    20.624417454    -0.009022274    -0.022666344     0.499404481
   62    39.658234532    27.760798087    13.058579522     0.002498682     0.008421011     0.499922837
   63    32.920813836    28.294429605    20.252415479    -0.012121522     0.003568613     0.499840308
   64    34.260773320    29.616121759    11.319234319    -0.014418765     0.010913928     0.499672878
   65    35.387719029    24.342745675    14.166186889    -0.082427717     0.027087884     0.492414376
   66    31.786028605    27.224493126    18.759542837    -0.016894229     0.001205398     0.499713050
   67    38.617012072    23.253397185    18.871338941     0.002291409     0.003380023     0.499983325
   68    31.780052878    22.783883295    15.970706874    -0.039701852    -0.219612157     0.447430736
   21     2.450366951    36.443646027    13.915487564     0.011145176    -0.021617082    -0.499408137
   22     9.782672621    31.827268481    15.955414284    -0.030941944    -0.143189288     0.478057971
   23     9.666746203    39.354594193    16.820253915    -0.016501528    -0.003188347     0.499717454
   24     4.613536776    34.242307841    17.648365336    -0.001268999     0.015719965     0.499751210
   25     5.892195586    30.486158124    10.933381407    -0.010716142     0.011276433     0.499757948
   26     2.451421543    31.068536007    17.470526614    -0.043576878    -0.407590923    -0.286305248
   27     1.116044721    33.068794484    12.758730039     0.047683649     0.045196027     0.495664795
   28     8.109205438    35.507608231    11.028008903     0.006637869    -0.001842389     0.499952542
   29     8.821835260    38.160421133    15.107523729    -0.020273350    -0.007198632     0.499536957
   30     7.591801989    39.074082514    11.804569004    -0.005432064    -0.012671491     0.499809890
   31     6.104171051    40.037833206    18.818960219     0.003738440     0.008426819     0.499915006
   32     8.231045939    30.688820443    18.047888721    -0.000837650     0.000994081     0.499998310
   33     1.294269271    38.063147031    15.450106106    -0.008588969    -0.007806724     0.499865267
   34    10.891573242    33.047912991    18.168338581    -0.057098364    -0.423190109     0.260095959
   35     8.263862454    37.649557257    10.344551080     0.002986598    -0.001572130     0.499988609
   36     7.777630822    32.636317133    15.678621788    -0.008864741    -0.096427531     0.490533534
   37     8.283190183    35.249197018    17.615333047    -0.003941171     0.005819059     0.499950603
   38     6.368238373    36.166403788    14.314471793     0.001935727    -0.006961772     0.499947784
   39     8.554745073    35.861744502    13.739997784     0.016787851    -0.003523029     0.499705670
   40     3.321155506    38.880500250    16.286962684    -0.005254216     0.007156395     0.499921173
   41     6.820527549    32.072404814    13.727939797    -0.000528255    -0.075738669     0.494230083
   42     1.104637829    38.513992280    13.176973847    -0.004104390     0.012185367     0.499834643
   43     4.642448556    37.098682774    15.321364858    -0.000795762     0.000041113     0.499999365
   44     9.582843764    34.098024163    14.604703692     0.022036068    -0.010118553     0.499411680
   45     4.922274574    39.614731612    14.780528943    -0.010518509     0.009010898     0.499808128
   46     8.014300984    31.293235253    12.080270288     0.008905295    -0.060626364     0.496230934
   47     7.438765014    31.862968992    19.645035018    -0.003987452     0.002777868     0.499976383
   48    10.643680120    33.519818860    10.566137109     0.001149215     0.006296922     0.499959026
   49     3.883146558    35.371977467    11.656031937    -0.002107260    -0.025611648    -0.499339166
   50     7.037906582    39.446063803    16.777085848    -0.016613447     0.024766251     0.499109834
   51    10.314876686    35.879676181    10.705470734    -0.005110576     0.008315893     0.499904719
   52    10.022329256    39.642057939    11.406649362    -0.031400427     0.000776631     0.499012435
   53     9.291555919    34.322219558    19.329662168     0.003592945     0.011099550     0.499863872
   54     5.450668151    32.428928846    19.641079907     0.001855906    -0.025258310     0.499358161
   55     3.896891297    40.097238073    12.542486441    -0.013652880     0.005667982     0.499781425
   56     7.008032830    34.089859724    19.506539154     0.001129254     0.007795894     0.499937945
   57     5.897699349    36.016027428    17.136307810    -0.002488468     0.004881006     0.499969982
   58     4.770659694    30.304159243    16.926637481     0.000271762     0.007129046     0.499949100
   59     6.422389735    31.783189017    17.641751193     0.002520714    -0.002441110     0.499987687
   60     9.527695654    36.462504177    18.887372442    -0.000816612     0.008352056     0.499929571
   61     9.692572958    31.836000512    19.790782269    -0.001401175    -0.024912280     0.499377027
   62     9.524342154    37.351910974    12.224944336     0.000247209     0.004629545     0.499978506
   63     2.786921457    37.885542491    19.418780294    -0.011686097     0.004001163     0.499847403
   64     4.126880941    39.207234645    10.485599133    -0.015762741     0.010163232     0.499648121
   65     5.253826651    33.933858561    13.332551704    -0.050334244    -0.029042056     0.496611541
   66     1.652136227    36.815606012    17.925907652    -0.018705696     0.001870117     0.499646475
   67     8.483119693    32.844510071    18.037703756     0.012298899     0.001659789     0.499845958
   68     1.646160500    32.374996181    15.137071689    -0.069150445    -0.216287725     0.445463619
   21    12.540022900    36.588306239    14.203574433     0.007258719    -0.018033801    -0.499621950
   22    19.872328571    31.971928693    16.243501154    -0.023177702    -0.140258631     0.479364486
   23    19.756402152    39.499254405    17.108340785    -0.014421171    -0.002548958     0.499785487
   24    14.703192726    34.386968053    17.936452205     0.000554364     0.013294911     0.499822907
   25    15.981851536    30.630818335    11.221468276    -0.009116592     0.010322483     0.499810298
   26    12.541077493    31.213196218    17.758613484    -0.050608998    -0.407716118    -0.284967185
   27    11.205700670    33.213454696    13.046816909     0.045639220     0.041274028     0.496199069
   28    18.198861388    35.652268442    11.316095773     0.009424927     0.009045141     0.499829327
   29    18.911491209    38.305081345    15.395610599    -0.016900175    -0.006509894     0.499671898
   30    17.681457939    39.218742725    12.092655873    -0.003631710    -0.009015290     0.499905526
   31    16.193827001    40.182493418    19.107047089     0.006311962     0.008378483     0.499889948
   32    18.320701889    30.833480655    18.335975591     0.000227770    -0.000574774     0.499999618
   33    11.383925221    38.207807242    15.738192976    -0.004746529    -0.011026773     0.499855860
   34    20.981229192    33.192573203    18.456425451    -0.029595679    -0.422445042     0.265827542
   35    18.353518403    37.794217469    10.632637950     0.004700498     0.004424934     0.499958324
   36    17.867286772    32.780977345    15.966708657    -0.004019989    -0.093463388     0.491170474
   37    18.372846133    35.393857229    17.903419916    -0.002958698     0.005004457     0.499966200
   38    16.457894323    36.311064000    14.602558662     0.006459728    -0.009666659     0.499864809
   39    18.644401023    36.006404714    14.028084653     0.018983315    -0.001005295     0.499638492
   40    13.410811455    39.025160461    16.575049554    -0.002288677     0.004355233     0.499975793
   41    16.910183499    32.217065025    14.016026667     0.005564926    -0.071893145     0.494773087
   42    11.194293778    38.658652492    13.465060717    -0.002219097     0.008542341     0.499922098
   43    14.732104506    37.243342985    15.609451728     0.003841977    -0.005490039     0.499955097
   44    19.672499714    34.242684374    14.892790561     0.021805927    -0.009707943     0.499429932
   45    15.011930524    39.759391824    15.068615813    -0.007276688     0.006753384     0.499901432
   46    18.103956934    31.437895465    12.368357158     0.016253544    -0.056664352     0.496512813
   47    17.528420964    32.007629204    19.933121887    -0.003636558     0.002559310     0.499980225
   48    20.733336070    33.664479071    10.854223979     0.006361777     0.009377865     0.499871567
   49    13.972802508    35.516637679    11.944118807     0.021793098    -0.042387916    -0.497723141
   50    17.127562532    39.590724014    17.065172718    -0.014330781     0.023986963     0.499218644
   51    20.404532636    36.024336393    10.993557603    -0.002413048     0.013066672     0.499823408
   52    20.111985206    39.786718150    11.694736231    -0.030460152     0.002791208     0.499063511
   53    19.381211869    34.466879770    19.617749038     0.004230948     0.010253718     0.499876945
   54    15.540324101    32.573589058    19.929166776     0.004959237    -0.024728685     0.499363493
   55    13.986547247    40.241898285    12.830573311    -0.011600023     0.004228673     0.499847535
   56    17.097688780    34.234519936    19.794626023     0.002321153     0.006922364     0.499946690
   57    15.987355299    36.160687640    17.424394680    -0.000530610     0.002308509     0.499994389
   58    14.860315644    30.448819455    17.214724351    -0.000178778     0.005116068     0.499973793
   59    16.512045685    31.927849229    17.929838063     0.002600088    -0.005384193     0.499964249
   60    19.617351604    36.607164389    19.175459312    -0.000400816     0.008259976     0.499931607
   61    19.782228908    31.980660723    20.078869138    -0.003447184    -0.024246584     0.499399860
   62    19.613998104    37.496571185    12.513031206     0.003498737     0.007970310     0.499924227
   63    12.876577407    38.030202703    19.706867164    -0.006905954     0.003414487     0.499940646
   64    14.216536891    39.351894857    10.773686003    -0.013871259     0.008915061     0.499728036
   65    15.343482601    34.078518773    13.620638574    -0.058864496     0.034749860     0.495305379
   66    11.741792177    36.960266223    18.213994521    -0.013404971     0.001118721     0.499819022
   67    18.572775643    32.989170282    18.325790626     0.012807443     0.000478780     0.499835713
   68    11.735816449    32.519656392    15.425158558    -0.053252391    -0.220608941     0.445528762
   21    22.629678850    36.732966450    14.491661303     0.006277440    -0.021366844    -0.499503806
   22    29.961984520    32.116588905    16.531588023    -0.013549976    -0.139132771     0.480060903
   23    29.846058102    39.643914616    17.396427654    -0.014680433    -0.003766075     0.499770249
   24    24.792848676    34.531628264    18.224539075    -0.000740629     0.016300251     0.499733682
   25    26.071507486    30.775478547    11.509555146    -0.012547756     0.013204780     0.499668077
   26    22.630733443    31.357856430    18.046700353    -0.001632884    -0.417762895    -0.274720763
   27    21.295356620    33.358114907    13.334903778     0.039126013     0.045003959     0.496431061
   28    28.288517338    35.796928654    11.604182643     0.009210978     0.010801386     0.499798447
   29    29.001147159    38.449741557    15.683697469    -0.016846056    -0.007483407     0.499660093
   30    27.771113889    39.363402937    12.380742743    -0.005364493    -0.004099982     0.499954410
   31    26.283482950    40.327153629    19.395133958     0.007050896     0.007778075     0.499889774
   32    28.410357839    30.978140866    18.624062460    -0.003575611     0.002642717     0.499980231
   33    21.473581170    38.352467454    16.026279845    -0.005173202    -0.008698295     0.499897567
   34    31.070885142    33.337233415    18.744512320     0.012296859    -0.420447090     0.270320239
   35    28.443174353    37.938877680    10.920724820     0.004541746     0.006077121     0.499942438
   36    27.956942722    32.925637556    16.254795527    -0.000376189    -0.091299213     0.491593645
   37    28.462502083    35.538517441    18.191506786    -0.006228790     0.006268007     0.499921908
   38    26.547550273    36.455724212    14.890645532     0.005747449    -0.007868682     0.499905042
   39    28.734056973    36.151064925    14.316171523     0.020387217     0.000861073     0.499583446
   40    23.500467405    39.169820673    16.863136423    -0.002497045     0.005743056     0.499960781
   41    26.999839449    32.361725237    14.304113536     0.005830655    -0.069925382     0.495051961
   42    21.283949728    38.803312703    13.753147587    -0.000458811     0.011264078     0.499872894
   43    24.821760455    37.388003197    15.897538598     0.003237861    -0.003179807     0.499979405
   44    29.762155664    34.387344586    15.180877431     0.025345113    -0.005725050     0.499324393
   45    25.101586473    39.904052036    15.356702683    -0.007597986     0.007866340     0.499880377
   46    28.193612884    31.582555677    12.656444028     0.015037007    -0.054539503     0.496789021
   47    27.618076914    32.152289416    20.221208757    -0.004505421     0.005460080     0.499949886
   48    30.822992020    33.809139283    11.142310849     0.004410722     0.012432924     0.499825938
   49    24.062458458    35.661297890    12.232205676     0.028095943    -0.026501015    -0.498506082
   50    27.217218482    39.735384226    17.353259587    -0.014706673     0.023725702     0.499220197
   51    30.494188585    36.168996604    11.281644473    -0.002316417     0.014700030     0.499778494
   52    30.201641155    39.931378362    11.982823101    -0.030106200     0.004527079     0.499072262
   53    29.470867819    34.611539981    19.905835907     0.000027180     0.011187894     0.499874815
   54    25.629980051    32.718249269    20.217253646    -0.003695933    -0.020272575     0.499575182
   55    24.076203197    40.386558497    13.118660180    -0.010890509     0.005768247     0.499848101
   56    27.187344730    34.379180147    20.082712893    -0.001591820     0.009776564     0.499901875
   57    26.077011248    36.305347851    17.712481549    -0.001606135     0.004987029     0.499972549
   58    24.949971594    30.593479667    17.502811220    -0.002553185     0.010274328     0.499887907
   59    26.601701635    32.072509441    18.217924933    -0.001334546     0.000342110     0.499998102
   60    29.707007554    36.751824601    19.463546182    -0.003017510     0.008949467     0.499910794
   61    29.871884858    32.125320935    20.366956008    -0.001299717    -0.024251504     0.499409827
   62    29.703654053    37.641231397    12.801118076     0.003704187     0.009488905     0.499896229
   63    22.966233357    38.174862914    19.994954033    -0.007665859     0.003729106     0.499927323
   64    24.306192841    39.496555068    11.061772872    -0.013034748     0.010479445     0.499720198
   65    25.433138551    34.223178984    13.908725443    -0.060672834     0.002354130     0.496299572
   66    21.831448126    37.104926435    18.502081391    -0.013748192     0.001454126     0.499808836
   67    28.662431593    33.133830494    18.613877495     0.009218066     0.003973362     0.499899229
   68    21.825472399    32.664316604    15.713245428    -0.040901098    -0.218363947     0.447933351
   21    32.719334800    36.877626662    14.779748173     0.007679515    -0.021829946    -0.499464191
   22    40.051640470    32.261249116    16.819674893    -0.044065416    -0.139655317     0.478073877
   23    39.935714052    39.788574828    17.684514524    -0.022214733    -0.001426072     0.499504226
   24    34.882504626    34.676288476    18.512625944    -0.004703384     0.017673656     0.499665408
   25    36.161163436    30.920138759    11.797642015    -0.015254329     0.010344989     0.499660171
   26    32.720389393    31.502516641    18.334787223     0.050638908    -0.412598023    -0.277846311
   27    31.385012570    33.502775119    13.622990648     0.044166227     0.045041826     0.496004615
   28    38.378173288    35.941588866    11.892269512     0.007315559     0.008742720     0.499870031
   29    39.090803109    38.594401768    15.971784338    -0.024409570    -0.004581990     0.499382797
   30    37.860769839    39.508063149    12.668829613    -0.006176847    -0.008245002     0.499893855
   31    36.373138900    40.471813841    19.683220828    -0.002400893     0.008625542     0.499919829
   32    38.500013789    31.122801078    18.912149330    -0.011201581     0.003346829     0.499863305
   33    31.563237120    38.497127665    16.314366715    -0.007012561    -0.007536530     0.499894013
   34    41.160541091    33.481893626    19.032599190    -0.075236165    -0.420438105     0.259944838
   35    38.532830303    38.083537892    11.208811689     0.001931933     0.004239173     0.499978297
   36    38.046598671    33.070297768    16.542882397    -0.019357618    -0.093463604     0.490805295
   37    38.552158033    35.683177653    18.479593655    -0.010338586     0.007140252     0.499842106
   38    36.637206222    36.600384423    15.178732402     0.005307546    -0.004264651     0.499953641
   39    38.823712923    36.295725137    14.604258392     0.017331095     0.000846234     0.499698826
   40    33.590123355    39.314480885    17.151223293    -0.005565835     0.007578504     0.499911580
   41    37.089495398    32.506385449    14.592200406    -0.010074490    -0.073007159     0.494538633
   42    31.373605678    38.947972915    14.041234456    -0.000692033     0.012200247     0.499850653
   43    34.911416405    37.532663409    16.185625467     0.001225719    -0.000888379     0.499997708
   44    39.851811613    34.532004798    15.468964301     0.020634153    -0.007294822     0.499520788
   45    35.191242423    40.048712247    15.644789552    -0.011197886     0.009635043     0.499781726
   46    38.283268834    31.727215888    12.944530897     0.000449792    -0.058072561     0.496615923
   47    37.707732864    32.296949627    20.509295627    -0.013718411     0.005934017     0.499776543
   48    40.912647970    33.953799495    11.430397718     0.003404608     0.009782475     0.499892700
   49    34.152114407    35.805958102    12.520292546     0.027359148    -0.033969262    -0.498093933
   50    37.306874432    39.880044438    17.641346457    -0.022845450     0.024832383     0.498860139
   51    40.583844535    36.313656816    11.569731342    -0.004797025     0.013604310     0.499791868
   52    40.291297105    40.076038574    12.270909971    -0.032080936     0.003463249     0.498957733
   53    39.560523769    34.756200193    20.193922777    -0.002547537     0.012409686     0.499839484
   54    35.719636001    32.862909481    20.505340516    -0.006269151    -0.021625150     0.499492793
   55    34.165859147    40.531218708    13.406747050    -0.013597556     0.006979273     0.499766342
   56    37.277000680    34.523840359    20.370799763    -0.006759514     0.010089518     0.499852489
   57    36.166667198    36.450008063    18.000568419    -0.004848494     0.006789752     0.499930387
   58    35.039627543    30.738139878    17.790898090    -0.009948611     0.009123837     0.499817748
   59    36.691357584    32.217169652    18.506011802    -0.009297066    -0.000663115     0.499913117
   60    39.796663504    36.896484812    19.751633051    -0.007441885     0.009568066     0.499853049
   61    39.961540808    32.269981147    20.655042877    -0.012659456    -0.022398806     0.499337593
   62    39.793310003    37.785891608    13.089204945     0.000430356     0.009013508     0.499918565
   63    33.055889307    38.319523126    20.283040903    -0.012111066     0.004885179     0.499829428
   64    34.395848791    39.641215280    11.349859742    -0.015424653     0.011698269     0.499625090
   65    35.522794500    34.367839196    14.196812313    -0.092216594     0.000236135     0.491422470
   66    31.921104076    37.249586647    18.790168261    -0.017349014     0.002158936     0.499694257
   67    38.752087543    33.278490706    18.901964365     0.002471185     0.004271177     0.499975650
   68    31.915128349    32.808976816    16.001332297    -0.024018395    -0.218054320     0.449305497
   21     2.332011708     6.400501200    23.835596655     0.011330419    -0.021906208    -0.499391369
   22     9.664317379     1.784123655    25.875523375    -0.029716367    -0.136098941     0.480202057
   23     9.548390960     9.311449367    26.740363006    -0.010508175    -0.003673812     0.499876066
   24     4.495181534     4.199163015    27.568474427    -0.000885452     0.017647931     0.499687669
   25     5.773840344     0.443013297    20.853490498    -0.011054523     0.010260453     0.499772469
   26     2.333066301     1.025391180    27.390635705    -0.070148780    -0.404889370    -0.284857415
   27     0.997689478     3.025649657    22.678839130     0.047298630     0.041110134     0.496057251
   28     7.990850196     5.464463404    20.948117995     0.014197459     0.010889193     0.499679755
   29     8.703480017     8.117276307    25.027632821    -0.012763657    -0.008191762     0.499769931
   30     7.473446747     9.030937687    21.724678095     0.002195280    -0.007705366     0.499935804
   31     5.985815809     9.994688379    28.739069310     0.008250131     0.006266350     0.499892657
   32     8.112690697     0.645675616    27.967997812    -0.000194475     0.000696473     0.499999477
   33     1.175914029     8.020002204    25.370215197    -0.008396159    -0.007477861     0.499873570
   34    10.773218000     3.004768165    28.088447672    -0.048478174    -0.416231433     0.272765945
   35     8.145507211     7.606412431    20.264660171     0.010484997     0.005331836     0.499861617
   36     7.659275580     2.593172306    25.598730879    -0.009776713    -0.089952277     0.491744856
   37     8.164834941     5.206052191    27.535442138    -0.003585382     0.005837994     0.499953061
   38     6.249883131     6.123258962    24.234580884     0.002679617     0.001132675     0.499991537
   39     8.436389831     5.818599676    23.660106875     0.020401891     0.005634876     0.499551810
   40     3.202800263     8.837355423    26.207071775    -0.003800491     0.006602936     0.499941954
   41     6.702172307     2.029259987    23.648048888    -0.001788774    -0.069387531     0.495158733
   42     0.986282586     8.470847453    23.097082939    -0.004404373     0.012456778     0.499825400
   43     4.524093314     7.055537947    25.241473950    -0.000498808     0.001884209     0.499996201
   44     9.464488522     4.054879336    24.524812783     0.024540938    -0.003086363     0.499387842
   45     4.803919332     9.571586786    24.700638035    -0.008550186     0.008696089     0.499851250
   46     7.895945742     1.250090427    22.000379380     0.010696355    -0.054901771     0.496861534
   47     7.320409772     1.819824166    29.565144109    -0.002584355     0.004053231     0.499976892
   48    10.525324878     3.476674033    20.486246201     0.009831316     0.013161783     0.499730040
   49     3.764791316     5.328832640    21.576141028     0.026382683    -0.035267297    -0.498056394
   50     6.919551340     9.402918976    26.697194939    -0.013082289     0.022375780     0.499327726
   51    10.196521444     5.836531355    20.625579825     0.002298015     0.016005897     0.499738462
   52     9.903974014     9.598913112    21.326758453    -0.024961012     0.004737955     0.499354082
   53     9.173200677     4.279074732    29.249771259     0.005019995     0.010955370     0.499854758
   54     5.332312909     2.385784020    29.561188998     0.005760164    -0.024671332     0.499357733
   55     3.778536055    10.054093247    22.462595532    -0.010789686     0.005842175     0.499849429
   56     6.889677588     4.046714898    29.426648245     0.002794268     0.008562892     0.499918862
   57     5.779344107     5.972882602    27.056416901    -0.002080028     0.007165316     0.499944329
   58     4.652304452     0.261014417    26.846746572    -0.000527126     0.007748601     0.499939678
   59     6.304034493     1.740044191    27.561860285     0.001917482    -0.002591288     0.499989608
   60     9.409340412     6.419359351    28.807481534    -0.000682885     0.007603848     0.499941712
   61     9.574217716     1.792855685    29.710891360     0.000770167    -0.022974533     0.499471298
   62     9.405986912     7.308766147    22.145053428     0.007298696     0.011693117     0.499809964
   63     2.668566215     7.842397665    29.338889385    -0.010235127     0.003367051     0.499883892
   64     4.008525699     9.164089819    20.405708224    -0.012950107     0.010800321     0.499715567
   65     5.135471409     3.890713734    23.252660795    -0.087380604     0.033615592     0.491156413
   66     1.533780985     6.772461185    27.846016743    -0.017041657     0.002184367     0.499704723
   67     8.364764451     2.801365244    27.957812847     0.013185318     0.001244647     0.499824567
   68     1.527805257     2.331851354    25.057180780    -0.076491337    -0.211232981     0.446687478
   21    12.421667658     6.545161412    24.123683524     0.000732730    -0.023689169    -0.499437971
   22    19.753973328     1.928783866    26.163610245    -0.026443529    -0.143048058     0.478370142
   23    19.638046910     9.456109578    27.028449876    -0.012115943    -0.004395344     0.499833857
   24    14.584837484     4.343823226    27.856561296    -0.001494023     0.016880215     0.499712744
   25    15.863496294     0.587673509    21.141577367    -0.007980292     0.010934507     0.499816718
   26    12.422722251     1.170051392    27.678722575    -0.052102979    -0.408199909    -0.284003721
   27    11.087345428     3.170309869    22.966926000     0.049652050     0.047236588     0.495281111
   28    18.080506146     5.609123616    21.236204864     0.013399636     0.011030472     0.499698688
   29    18.793135967     8.261936519    25.315719690    -0.013454880    -0.008960426     0.499738609
   30    17.563102697     9.175597899    22.012764964     0.001271313    -0.008434814     0.499927232
   31    16.075471758    10.139348591    29.027156180     0.007535784     0.007269557     0.499890353
   32    18.202346647     0.790335828    28.256084682    -0.001951581     0.002005221     0.499992170
   33    11.265569978     8.164662416    25.658302067     0.003324457    -0.003401883     0.499977375
   34    20.862873950     3.149428376    28.376534542    -0.042880775    -0.421746053     0.265125454
   35    18.235163161     7.751072642    20.552747041     0.009227181     0.005353589     0.499886185
   36    17.748931530     2.737832518    25.886817749    -0.006365386    -0.094594994     0.490928986
   37    18.254490891     5.350712403    27.823529007    -0.004809757     0.006309751     0.499937049
   38    16.339539081     6.267919174    24.522667754    -0.000283573    -0.005055423     0.499974362
   39    18.526045781     5.963259887    23.948193744     0.019558645     0.003392689     0.499605794
   40    13.292456213     8.982015635    26.495158645     0.001059259     0.007790179     0.499938187
   41    16.791828257     2.173920199    23.936135758     0.002301265    -0.073587017     0.494549952
   42    11.075938536     8.615507665    23.385169808     0.005577731     0.014552201     0.499757063
   43    14.613749263     7.200198159    25.529560819     0.000579208    -0.001212655     0.499998194
   44    19.554144472     4.199539548    24.812899653     0.025114209    -0.002460821     0.499362815
   45    14.893575281     9.716246998    24.988724904    -0.005450622     0.009009189     0.499889113
   46    17.985601692     1.394750638    22.288466249     0.015403285    -0.057943781     0.496392241
   47    17.410065722     1.964484377    29.853230979    -0.004312976     0.005186345     0.499954498
   48    20.614980828     3.621334245    20.774333070     0.009400821     0.015865254     0.499659803
   49    13.854447266     5.473492852    21.864227898    -0.009514957    -0.015143008    -0.499680053
   50    17.009207290     9.547579188    26.985281809    -0.012906664     0.023125914     0.499298117
   51    20.286177393     5.981191566    20.913666694     0.000405462     0.015605487     0.499756245
   52    19.993629963     9.743573324    21.614845323    -0.025905141     0.002989862     0.499319521
   53    19.262856627     4.423734943    29.537858129     0.003250655     0.011851617     0.499848950
   54    15.421968859     2.530444231    29.849275868     0.000038922    -0.023457591     0.499449437
   55    13.868192005    10.198753458    22.750682402    -0.006793161     0.006157703     0.499915929
   56    16.979333538     4.191375109    29.714735115    -0.000867703     0.009135646     0.499915780
   57    15.869000056     6.117542813    27.344503771    -0.002308453     0.005999291     0.499958678
   58    14.741960402     0.405674629    27.134833442    -0.001441212     0.008089907     0.499932472
   59    16.393690443     1.884704402    27.849947154     0.001332840    -0.001420963     0.499996204
   60    19.498996362     6.564019562    29.095568403    -0.000687883     0.009110828     0.499916513
   61    19.663873666     1.937515897    29.998978229    -0.002124957    -0.023280672     0.499453196
   62    19.495642861     7.453426359    22.433140297     0.005393766     0.010420949     0.499862292
   63    12.758222165     7.987057876    29.626976255    -0.005905619     0.003717718     0.499951300
   64    14.098181649     9.308750030    20.693795094    -0.008615318     0.011071973     0.499803149
   65    15.225127359     4.035373946    23.540747665    -0.041811096     0.019372479     0.497872011
   66    11.623436934     6.917121397    28.134103612    -0.012079310     0.001648254     0.499851351
   67    18.454420401     2.946025456    28.245899717     0.011321356     0.003561116     0.499859126
   68    11.617461207     2.476511566    25.345267649    -0.049384844    -0.213055894     0.449631319
   21    22.511323608     6.689821624    24.411770394     0.006435705    -0.023293537    -0.499415651
   22    29.843629278     2.073444078    26.451697114    -0.029386778    -0.141616317     0.478624316
   23    29.727702860     9.600769790    27.316536745    -0.016248979    -0.003228042     0.499725475
   24    24.674493434     4.488483438    28.144648166    -0.002572036     0.016343487     0.499726200
   25    25.953152244     0.732333720    21.429664237    -0.007566967     0.011863732     0.499801954
   26    22.512378201     1.314711603    27.966809444    -0.048254636    -0.405038394    -0.289163258
   27    21.177001378     3.314970081    23.255012870     0.050980937     0.048437615     0.495030041
   28    28.170162096     5.753783827    21.524291734     0.012013686     0.010385504     0.499747749
   29    28.882791917     8.406596730    25.603806560    -0.018360207    -0.007171078     0.499611327
   30    27.652758647     9.320258110    22.300851834    -0.001148091     0.000033464     0.499998681
   31    26.165127708    10.284008803    29.315243049     0.004120485     0.009107437     0.499900066
   32    28.292002597     0.934996040    28.544171552    -0.005094570     0.003971669     0.499958269
   33    21.355225928     8.309322627    25.946388936    -0.006043727    -0.005485966     0.499933373
   34    30.952529899     3.294088588    28.664621411    -0.042559648    -0.424189327     0.261251011
   35    28.324819111     7.895732854    20.840833911     0.007312917     0.006442947     0.499905001
   36    27.838587479     2.882492730    26.174904618    -0.006983541    -0.094048623     0.491025546
   37    28.344146841     5.495372614    28.111615877    -0.007323445     0.007003158     0.499897312
   38    26.429195030     6.412579385    24.810754623     0.006171056    -0.007928725     0.499899043
   39    28.615701731     6.107920099    24.236280614     0.020905484    -0.000025868     0.499562769
   40    23.382112163     9.126675846    26.783245515    -0.002653823     0.007719075     0.499933369
   41    26.881484206     2.318580410    24.224222628     0.002452356    -0.073065200     0.494626589
   42    21.165594486     8.760167877    23.673256678     0.001056030     0.013241115     0.499823527
   43    24.703405213     7.344858371    25.817647689     0.002572262    -0.003824451     0.499978757
   44    29.643800421     4.344199759    25.100986522     0.025475028    -0.006979464     0.499301823
   45    24.983231231     9.860907209    25.276811774    -0.007717607     0.009335650     0.499853263
   46    28.075257642     1.539410850    22.576553119     0.010333476    -0.058197779     0.496493945
   47    27.499721672     2.109144589    30.141317848    -0.008519245     0.006835886     0.499880679
   48    30.704636778     3.765994456    21.062419940     0.007773314     0.010460918     0.499830116
   49    23.944103215     5.618153064    22.152314767     0.014342768    -0.029814491    -0.498904180
   50    27.098863240     9.692239399    27.273368679    -0.016197357     0.024924159     0.499115650
   51    30.375833343     6.125851778    21.201753564    -0.000760232     0.014389134     0.499792332
   52    30.083285913     9.888233536    21.902932192    -0.028411318     0.005634327     0.499160346
   53    29.352512577     4.568395155    29.825944999     0.000184911     0.013023679     0.499830321
   54    25.511624809     2.675104443    30.137362737    -0.003481566    -0.020097473     0.499583797
   55    23.957847955    10.343413670    23.038769271    -0.009427918     0.007765271     0.499850793
   56    27.068989488     4.336035321    30.002821984    -0.004077039     0.010406247     0.499875072
   57    25.958656006     6.262203025    27.632590640    -0.003038860     0.004966556     0.499966097
   58    24.831616351     0.550334840    27.422920312    -0.004731467     0.009187220     0.499893197
   59    26.483346392     2.029364614    28.138034024    -0.002666940     0.000822108     0.499992212
   60    29.588652312     6.708679774    29.383655273    -0.004386367     0.009999200     0.499880762
   61    29.753529616     2.082176108    30.287065099    -0.007084615    -0.021150884     0.499502201
   62    29.585298811     7.598086570    22.721227167     0.004339384     0.009395777     0.499892878
   63    22.847878115     8.131718088    29.915063125    -0.008629025     0.004461664     0.499905625
   64    24.187837599     9.453410242    20.981881964    -0.011213889     0.012616195     0.499714999
   65    25.314783308     4.180034158    23.828834535    -0.064377593     0.024898633     0.495212665
   66    21.713092884     7.061781608    28.422190482    -0.014349281     0.002295656     0.499788783
   67    28.544076351     3.090685667    28.533986586     0.008793592     0.003929385     0.499907224
   68    21.707117157     2.621171777    25.633354519    -0.045191419    -0.221530923     0.445961642
   21    32.600979558     6.834481835    24.699857264     0.009506079    -0.022243278    -0.499414528
   22    39.933285228     2.218104290    26.739783984    -0.048298540    -0.136340468     0.478621487
   23    39.817358810     9.745430001    27.604623615    -0.021839495    -0.002886752     0.499514467
   24    34.764149383     4.633143649    28.432735035    -0.006327966     0.019501862     0.499579457
   25    36.042808193     0.876993932    21.717751106    -0.016809934     0.012596055     0.499558571
   26    32.602034150     1.459371815    28.254896314     0.004238665    -0.411918818    -0.283381229
   27    31.266657328     3.459630292    23.543099739     0.049664474     0.046901860     0.495311675
   28    38.259818045     5.898444039    21.812378603     0.004578116     0.010856860     0.499861150
   29    38.972447867     8.551256942    25.891893429    -0.024282241    -0.005476424     0.499379997
   30    37.742414596     9.464918322    22.588938704    -0.008347097    -0.005372303     0.499901455
   31    36.254783658    10.428669014    29.603329919    -0.001389632     0.006976215     0.499949399
   32    38.381658547     1.079656251    28.832258421    -0.010031840     0.004830417     0.499876014
   33    31.444881878     8.453982839    26.234475806    -0.007316547    -0.008439604     0.499875226
   34    41.042185849     3.438748800    28.952708281    -0.096353299    -0.412945366     0.264938043
   35    38.414475061     8.040393065    21.128920780     0.000792058     0.005969220     0.499963740
   36    37.928243429     3.027152941    26.462991488    -0.022464051    -0.091338433     0.491072965
   37    38.433802790     5.640032826    28.399702747    -0.008694966     0.009054018     0.499842397
   38    36.518850980     6.557239597    25.098841493     0.001199644    -0.000105446     0.499998550
   39    38.705357681     6.252580310    24.524367483     0.014285492    -0.000645801     0.499795466
   40    33.471768113     9.271336058    27.071332384    -0.006434834     0.006739047     0.499913171
   41    36.971140156     2.463240622    24.512309497    -0.012949684    -0.070609009     0.494819839
   42    31.255250436     8.904828088    23.961343547    -0.001299824     0.011924668     0.499856092
   43    34.793061163     7.489518582    26.105734558    -0.002425921     0.001157081     0.499992776
   44    39.733456371     4.488859971    25.389073392     0.017282513    -0.009716346     0.499606753
   45    35.072887181    10.005567421    25.564898643    -0.012373665     0.009256709     0.499761149
   46    38.164913591     1.684071062    22.864639988    -0.000937811    -0.055587703     0.496899515
   47    37.589377621     2.253804801    30.429404718    -0.012084976     0.009133964     0.499770471
   48    40.794292728     3.910654668    21.350506809     0.001352198     0.011864987     0.499857373
   49    34.033759165     5.762813275    22.440401637     0.023593942    -0.030886351    -0.498487070
   50    37.188519189     9.836899611    27.561455548    -0.021569295     0.023841294     0.498965288
   51    40.465489293     6.270511990    21.489840433    -0.005884019     0.014862348     0.499744424
   52    40.172941863    10.032893747    22.191019062    -0.034230796     0.005716162     0.498794124
   53    39.442168527     4.713055366    30.114031868     0.000367158     0.014525190     0.499788839
   54    35.601280758     2.819764655    30.425449607    -0.012532122    -0.011603845     0.499708212
   55    34.047503904    10.488073882    23.326856141    -0.014601898     0.007022854     0.499737395
   56    37.158645437     4.480695532    30.290908854    -0.005571196     0.014073427     0.499770848
   57    36.048311956     6.406863237    27.920677510    -0.006884307     0.008489937     0.499880513
   58    34.921272301     0.694995052    27.711007181    -0.008863660     0.010221605     0.499816921
   59    36.573002342     2.174024826    28.426120893    -0.008838492     0.000113048     0.499921862
   60    39.678308261     6.853339986    29.671742142    -0.005049796     0.010639881     0.499861273
   61    39.843185566     2.226836320    30.575151969    -0.011098704    -0.018854391     0.499521101
   62    39.674954761     7.742746782    23.009314036    -0.000842659     0.009272775     0.499913298
   63    32.937534065     8.276378300    30.203149994    -0.012561495     0.003658133     0.499828798
   64    34.277493549     9.598070453    21.269968833    -0.016218208     0.011738495     0.499599017
   65    35.404439258     4.324694369    24.116921404    -0.096011718     0.009540810     0.490602408
   66    31.802748834     7.206441820    28.710277352    -0.018074096     0.001964920     0.499669357
   67    38.633732300     3.235345879    28.822073456     0.005378030     0.006023823     0.499934786
   68    31.796773107     2.765831989    25.921441389    -0.051271428    -0.219827907     0.446146761
   21     2.467087179    16.425594721    23.866222078     0.010405660    -0.018221362    -0.499559510
   22     9.799392850    11.809217176    25.906148799    -0.026986393    -0.141820353     0.478705256
   23     9.683466431    19.336542888    26.770988430    -0.010388965    -0.005952972     0.499856611
   24     4.630257005    14.224256536    27.599099850     0.000141662     0.013852532     0.499808050
   25     5.908915815    10.468106818    20.884115921    -0.009476875     0.010292034     0.499804225
   26     2.468141772    11.050484701    27.421261129    -0.050466481    -0.410867898    -0.280429500
   27     1.132764949    13.050743178    22.709464554     0.044684583     0.043861175     0.496063993
   28     8.125925667    15.489556925    20.978743418     0.016465208     0.008966607     0.499648373
   29     8.838555488    18.142369828    25.058258244    -0.013506737    -0.008444366     0.499746196
   30     7.608522218    19.056031208    21.755303518     0.005251289    -0.007820731     0.499911252
   31     6.120891280    20.019781900    28.769694734     0.009037572     0.002765458     0.499910667
   32     8.247766168    10.670769137    27.998623236    -0.000531411     0.000749645     0.499999156
   33     1.310989500    18.045095725    25.400840621    -0.006742606    -0.011020036     0.499833068
   34    10.908293471    13.029861686    28.119073096    -0.058093741    -0.420226061     0.264641598
   35     8.280582682    17.631505952    20.295285595     0.011984608     0.003800605     0.499841900
   36     7.794351051    12.618265827    25.629356302    -0.003083984    -0.095263814     0.490831228
   37     8.299910412    15.231145712    27.566067561    -0.003080092     0.003899889     0.499975303
   38     6.384958602    16.148352483    24.265206308     0.009504686    -0.007208522     0.499857678
   39     8.571465302    15.843693197    23.690732298     0.025524982     0.001435382     0.499345987
   40     3.337875734    18.862448944    26.237697199    -0.002058778     0.002520890     0.499989406
   41     6.837247778    12.054353508    23.678674312     0.003552166    -0.074706904     0.494374616
   42     1.121358057    18.495940974    23.127708362    -0.003792860     0.011280915     0.499858335
   43     4.659168785    17.080631468    25.272099373     0.003286149    -0.005790492     0.499955669
   44     9.599563993    14.079972857    24.555438207     0.030067317    -0.007175623     0.499043552
   45     4.938994803    19.596680307    24.731263458    -0.006260096     0.004970898     0.499936097
   46     8.031021213    11.275183948    22.031004803     0.011746750    -0.059961642     0.496252572
   47     7.455485243    11.844917687    29.595769533    -0.003244057     0.003082581     0.499979973
   48    10.660400349    13.501767554    20.516871624     0.011568918     0.009970305     0.499766699
   49     3.899866787    15.353926161    21.606766452     0.020568144    -0.027131751    -0.498839473
   50     7.054626811    19.428012497    26.727820363    -0.011347958     0.019630805     0.499485591
   51    10.331596915    15.861624876    20.656205248     0.003940852     0.013146773     0.499811597
   52    10.039049485    19.624006633    21.357383877    -0.022798649     0.003490748     0.499467753
   53     9.308276148    14.304168253    29.280396683     0.004314635     0.009186564     0.499896980
   54     5.467388380    12.410877541    29.591814422    -0.000526603    -0.025482681     0.499349933
   55     3.913611526    20.079186768    22.493220956    -0.009074021     0.004294695     0.499899208
   56     7.024753059    14.071808419    29.457273669     0.000039867     0.007257097     0.499947330
   57     5.914419578    15.997976123    27.087042325    -0.000810107     0.002590499     0.499992633
   58     4.787379923    10.286107938    26.877371996    -0.000608644     0.008173900     0.499932812
   59     6.439109964    11.765137712    27.592485708     0.002183819    -0.001881881     0.499991689
   60     9.544415883    16.444452872    28.838106957    -0.000210372     0.006361516     0.499959485
   61     9.709293187    11.817949206    29.741516783    -0.000200172    -0.025879386     0.499329768
   62     9.541062383    17.333859668    22.175678851     0.010003926     0.007910013     0.499837327
   63     2.803641686    17.867491186    29.369514809    -0.010446721     0.001552860     0.499888442
   64     4.143601170    19.189183340    20.436333648    -0.011437881     0.009482974     0.499779199
   65     5.270546880    13.915807255    23.283286219    -0.028101391     0.023054733     0.498677041
   66     1.668856456    16.797554706    27.876642166    -0.017748604    -0.000369687     0.499684751
   67     8.499839922    12.826458765    27.988438271     0.013758520    -0.000088957     0.499810659
   68     1.662880728    12.356944875    25.087806203    -0.065037759    -0.213757254     0.447300711
   21    12.556743129    16.570254933    24.154308948     0.000518838    -0.018471365    -0.499658423
   22    19.889048799    11.953877388    26.194235668    -0.021220795    -0.143244025     0.478571653
   23    19.773122381    19.481203099    27.059075299    -0.011250279    -0.005566880     0.499842416
   24    14.719912955    14.368916747    27.887186720    -0.000279261     0.013180375     0.499826170
   25    15.998571765    10.612767030    21.172202791    -0.007451087     0.009248321     0.499858930
   26    12.557797722    11.195144913    27.709347998    -0.018042659    -0.420274194    -0.270266654
   27    11.222420899    13.195403390    22.997551424     0.055621698     0.044163289     0.494930127
   28    18.215581617    15.634217137    21.266830288     0.015189944     0.007495721     0.499712997
   29    18.928211438    18.287030040    25.346345114    -0.013036279    -0.009539259     0.499738990
   30    17.698178168    19.200691420    22.043390388     0.003093549    -0.010474987     0.499880690
   31    16.210547229    20.164442112    29.057781603     0.008637410     0.003981242     0.499909537
   32    18.337422118    10.815429349    28.286710106    -0.001309558     0.001124373     0.499997021
   33    11.400645449    18.189755937    25.688927490     0.001499484    -0.011109415     0.499874317
   34    20.997949421    13.174521897    28.407159965    -0.023504501    -0.423809866     0.264258842
   35    18.370238632    17.776166163    20.583372465     0.010949827     0.002218440     0.499875164
   36    17.884007001    12.762926039    25.917443172    -0.002243128    -0.095752064     0.490740777
   37    18.389566362    15.375805924    27.854154431    -0.003322045     0.004189731     0.499971409
   38    16.474614552    16.293012695    24.553293177     0.009555531    -0.009720519     0.499814169
   39    18.661121252    15.988353408    23.978819168     0.024234951    -0.000710902     0.499411816
   40    13.427531684    19.007109156    26.525784069     0.001007992     0.003163648     0.499988975
   41    16.926903728    12.199013720    23.966761181     0.006473901    -0.074903792     0.494315193
   42    11.211014007    18.640601186    23.415795232     0.005591338     0.010315342     0.499862312
   43    14.748824734    17.225291680    25.560186243     0.005138516    -0.006964331     0.499925088
   44    19.689219943    14.224633069    24.843525076     0.028667971    -0.007529828     0.499120676
   45    15.028650752    19.741340519    25.019350328    -0.003795669     0.005352427     0.499956943
   46    18.120677163    11.419844159    22.319091673     0.015980963    -0.060173262     0.496108645
   47    17.545141193    11.989577899    29.883856402    -0.003355969     0.004544790     0.499968081
   48    20.750056299    13.646427766    20.804958494     0.009356908     0.008570677     0.499838966
   49    13.989522737    15.498586373    21.894853321     0.017882375    -0.030230670    -0.498764802
   50    17.144282761    19.572672709    27.015907233    -0.011566623     0.020552947     0.499443480
   51    20.421252864    16.006285087    20.944292118     0.002943894     0.012292858     0.499840194
   52    20.128705434    19.768666845    21.645470746    -0.023889850     0.002184891     0.499424170
   53    19.397932098    14.448828464    29.568483553     0.004478808     0.009901394     0.499881889
   54    15.557044330    12.555537752    29.879901291     0.001874938    -0.023609534     0.499438760
   55    14.003267476    20.223846979    22.781307825    -0.005452784     0.004245371     0.499952242
   56    17.114409009    14.216468630    29.745360538     0.000693003     0.008050819     0.499934700
   57    16.004075527    16.142636334    27.375129194    -0.000785395     0.001817903     0.499996078
   58    14.877035873    10.430768150    27.165458866    -0.001023362     0.008433082     0.499927831
   59    16.528765914    11.909797924    27.880572578     0.001146342    -0.003316074     0.499987689
   60    19.634071833    16.589113083    29.126193827    -0.000031985     0.007011720     0.499950832
   61    19.798949137    11.962609418    30.029603653    -0.001380824    -0.023796011     0.499431520
   62    19.630718332    17.478519880    22.463765721     0.007899626     0.007467431     0.499881819
   63    12.893297636    18.012151397    29.657601678    -0.004551417     0.002657789     0.499972220
   64    14.233257120    19.333843551    20.724420518    -0.007465949     0.009423989     0.499855427
   65    15.360202830    14.060467467    23.571373089    -0.021733118     0.032106781     0.498494560
   66    11.758512405    16.942214918    28.164729036    -0.011412147    -0.000110309     0.499869734
   67    18.589495872    12.971118977    28.276525140     0.012765140     0.000946296     0.499836129
   68    11.752536678    12.501605087    25.375893073    -0.051712654    -0.218632116     0.446683108
   21    22.646399079    16.714915145    24.442395818     0.005741702    -0.019278782    -0.499595198
   22    29.978704749    12.098537599    26.482322538    -0.028707825    -0.141371277     0.478737948
   23    29.862778331    19.625863311    27.347162169    -0.014126559    -0.004589545     0.499779328
   24    24.809568905    14.513576959    28.175273589    -0.001390286     0.015843685     0.499746981
   25    26.088227715    10.757427241    21.460289660    -0.011252252     0.012893195     0.499707067
   26    22.647453672    11.339805124    27.997434868    -0.003427019    -0.416735462    -0.276260403
   27    21.312076849    13.340063602    23.285638293     0.050129931     0.044410259     0.495494419
   28    28.305237567    15.778877348    21.554917157     0.011867995     0.010141143     0.499756249
   29    29.017867388    18.431690251    25.634431983    -0.016092759    -0.008646746     0.499666145
   30    27.787834118    19.345351631    22.331477258    -0.001262603    -0.000227024     0.499998354
   31    26.300203179    20.309102324    29.345868473     0.005424293     0.007840776     0.499909091
   32    28.427078068    10.960089561    28.574796975    -0.005292716     0.003299347     0.499961100
   33    21.490301399    18.334416148    25.977014360    -0.005243190    -0.008691347     0.499896959
   34    31.087605370    13.319182109    28.695246835    -0.037755357    -0.423937118     0.262396367
   35    28.459894582    17.920826375    20.871459334     0.007401511     0.006162051     0.499907238
   36    27.973662950    12.907586251    26.205530042    -0.008223439    -0.093737059     0.491065921
   37    28.479222312    15.520466135    28.142241300    -0.005572596     0.006247948     0.499929904
   38    26.564270501    16.437672906    24.841380047     0.005433428    -0.008573633     0.499896960
   39    28.750777202    16.133013620    24.266906037     0.020742590     0.000939215     0.499568677
   40    23.517187634    19.151769367    26.813870938    -0.001937846     0.005842012     0.499962114
   41    27.016559677    12.343673931    24.254848051    -0.002459199    -0.072489380     0.494711271
   42    21.300669957    18.785261398    23.703882101     0.001967371     0.010537514     0.499885077
   43    24.838480684    17.369951892    25.848273112     0.003456983    -0.003750103     0.499973985
   44    29.778875892    14.369293280    25.131611946     0.025064316    -0.006350496     0.499331004
   45    25.118306702    19.886000730    25.307437197    -0.006803783     0.008162897     0.499887063
   46    28.210333113    11.564504371    22.607178542     0.008240585    -0.057072204     0.496663726
   47    27.634797143    12.134238110    30.171943272    -0.006854169     0.006984844     0.499904223
   48    30.839712249    13.791087977    21.093045363     0.004974825     0.010927492     0.499855820
   49    24.079178686    15.643246585    22.182940191     0.024029806    -0.024748325    -0.498808670
   50    27.233938711    19.717332920    27.303994102    -0.015596908     0.023601655     0.499199057
   51    30.510908814    16.150945299    21.232378987    -0.000709428     0.014365727     0.499793080
   52    30.218361384    19.913327057    21.933557616    -0.027308446     0.005392190     0.499224572
   53    29.487588048    14.593488676    29.856570422     0.002218262     0.012490909     0.499839031
   54    25.646700280    12.700197964    30.167988161    -0.004396814    -0.019784571     0.499589070
   55    24.092923426    20.368507191    23.069394695    -0.008605469     0.006387798     0.499885129
   56    27.204064959    14.361128842    30.033447408    -0.000421324     0.010858194     0.499881908
   57    26.093731477    16.287296546    27.663216064    -0.002127933     0.004385981     0.499976235
   58    24.966691823    10.575428361    27.453545735    -0.004323924     0.010293619     0.499875330
   59    26.618421863    12.054458135    28.168659447    -0.003375439     0.000382245     0.499988460
   60    29.723727783    16.733773295    29.414280696    -0.002308274     0.008826724     0.499916754
   61    29.888605087    12.107269629    30.317690523    -0.005033797    -0.021254438     0.499522682
   62    29.720374282    17.623180091    22.751852590     0.005069199     0.009332551     0.499887194
   63    22.982953586    18.156811609    29.945688548    -0.007448302     0.002769608     0.499936848
   64    24.322913070    19.478503763    21.012507387    -0.010273208     0.011450248     0.499763297
   65    25.449858780    14.205127679    23.859459958    -0.015078486    -0.028474813     0.498960744
   66    21.848168355    17.086875129    28.452815906    -0.013444801     0.000614923     0.499818826
   67    28.679151822    13.115779188    28.564612010     0.009457571     0.003664560     0.499897115
   68    21.842192628    12.646265298    25.663979942    -0.038850629    -0.221576651     0.446536019
   21    32.736055029    16.859575356    24.730482687     0.008993987    -0.021319011    -0.499464321
   22    40.068360699    12.243197811    26.770409407    -0.042065298    -0.137343651     0.478922992
   23    39.952434281    19.770523523    27.635249039    -0.021570680    -0.004041188     0.499518142
   24    34.899224854    14.658237170    28.463360459    -0.006828901     0.017855398     0.499634417
   25    36.177883664    10.902087453    21.748376530    -0.016611185     0.011492957     0.499591814
   26    32.737109622    11.484465336    28.285521738    -0.000028166    -0.407235096    -0.290102699
   27    31.401732799    13.484723813    23.573725163     0.048312334     0.046315742     0.495500525
   28    38.394893516    15.923537560    21.843004027     0.006158822     0.010452664     0.499852789
   29    39.107523338    18.576350463    25.922518853    -0.023528888    -0.006587757     0.499402636
   30    37.877490067    19.490011843    22.619564127    -0.006715892    -0.007446390     0.499899438
   31    36.389859129    20.453762535    29.633955342    -0.002589267     0.005362013     0.499964543
   32    38.516734018    11.104749772    28.862883845    -0.011063366     0.002061580     0.499873336
   33    31.579957349    18.479076360    26.265101230    -0.006661171    -0.008955214     0.499875417
   34    41.177261320    13.463842321    28.983333704    -0.069221262    -0.417693346     0.265971211
   35    38.549550532    18.065486586    21.159546204     0.001290609     0.005317843     0.499970054
   36    38.063318900    13.052246462    26.493616911    -0.018590867    -0.091493040     0.491206070
   37    38.568878261    15.665126347    28.430328170    -0.010812042     0.006213053     0.499844474
   38    36.653926451    16.582333118    25.129466916    -0.001853190    -0.000953060     0.499995657
   39    38.840433152    16.277673831    24.554992907     0.011905455     0.006142448     0.499820498
   40    33.606843584    19.296429579    27.101957808    -0.006117779     0.006234551     0.499923697
   41    37.106215627    12.488334143    24.542934921    -0.008163862    -0.071135211     0.494846575
   42    31.390325907    18.929921609    23.991968971    -0.000452338     0.011528041     0.499866882
   43    34.928136634    17.514612103    26.136359982    -0.004008377     0.001392079     0.499981995
   44    39.868531842    14.513953492    25.419698815     0.016091450    -0.005231736     0.499713612
   45    35.207962652    20.030660942    25.595524067    -0.012495001     0.008844743     0.499765591
   46    38.299989062    11.709164583    22.895265412     0.003220797    -0.056262863     0.496813966
   47    37.724453093    12.278898322    30.460030141    -0.012326149     0.005024912     0.499822785
   48    40.929368199    13.935748189    21.381132233     0.002586527     0.010911220     0.499874239
   49    34.168834636    15.787906796    22.471027061     0.023572899    -0.028451665    -0.498632952
   50    37.323594660    19.861993132    27.592080972    -0.023221202     0.021803974     0.498984331
   51    40.600564764    16.295605511    21.520465857    -0.004699404     0.015225577     0.499746033
   52    40.308017334    20.057987268    22.221644485    -0.032443212     0.002830717     0.498938298
   53    39.577243998    14.738148888    30.144657292    -0.002108061     0.011176021     0.499870636
   54    35.736356229    12.844858176    30.456075030     0.001259368    -0.023020264     0.499468199
   55    34.182579375    20.513167403    23.357481564    -0.013770720     0.006918440     0.499762446
   56    37.293720908    14.505789054    30.321534277    -0.005712049     0.008823280     0.499889510
   57    36.183387427    16.431956758    27.951302933    -0.007543279     0.007339149     0.499889224
   58    35.056347772    10.720088573    27.741632605    -0.008523061     0.008891233     0.499848280
   59    36.708077813    12.199118347    28.456746317    -0.008584334    -0.002733489     0.499918831
   60    39.813383732    16.878433507    29.702367566    -0.007127434     0.007900768     0.499886765
   61    39.978261037    12.251929841    30.605777392    -0.010579336    -0.022711986     0.499371849
   62    39.810030232    17.767840303    23.039939460    -0.000216314     0.010631431     0.499886913
   63    33.072609536    18.301471821    30.233775418    -0.011196939     0.002674751     0.499867457
   64    34.412569020    19.623163974    21.300594257    -0.015267796     0.011772909     0.499628155
   65    35.539514729    14.349787890    24.147546828    -0.096853515    -0.001306682     0.490527970
   66    31.937824305    17.231535341    28.740902775    -0.016507339     0.001054846     0.499726320
   67    38.768807772    13.260439400    28.852698879     0.002495500     0.003822749     0.499979159
   68    31.931848578    12.790925510    25.952066812    -0.047504818    -0.219882090     0.446536850
   21     2.602162650    26.450688242    23.896847502     0.009193220    -0.016567288    -0.499640881
   22     9.934468321    21.834310697    25.936774222    -0.026720975    -0.143623963     0.478182127
   23     9.818541902    29.361636409    26.801613853    -0.009970778    -0.010713945     0.499785749
   24     4.765332476    24.249350057    27.629725274     0.001021865     0.009892831     0.499901078
   25     6.043991286    20.493200339    20.914741345    -0.008349056     0.009487670     0.499840252
   26     2.603217243    21.075578222    27.451886552    -0.038530573    -0.407972783    -0.286484909
   27     1.267840420    23.075836699    22.740089977     0.043305982     0.051840654     0.495416127
   28     8.261001138    25.514650446    21.009368842     0.015932011     0.005361016     0.499717351
   29     8.973630959    28.167463349    25.088883668    -0.013631038    -0.012906916     0.499647482
   30     7.743597689    29.081124729    21.785928942     0.002183666    -0.011996898     0.499851284
   31     6.255966751    30.044875421    28.800320157     0.011513209    -0.000644969     0.499867012
   32     8.382841639    20.695862658    28.029248660     0.001073784    -0.001194044     0.499997421
   33     1.446064971    28.070189246    25.431466044    -0.007093577    -0.012581482     0.499791344
   34    11.043368942    23.054955207    28.149698519    -0.038251950    -0.422777762     0.264188857
   35     8.415658154    27.656599473    20.325911019     0.011069245     0.000550807     0.499877153
   36     7.929426522    22.643359348    25.659981726    -0.005147983    -0.096963606     0.490480945
   37     8.434985883    25.256239233    27.596692985    -0.001382047     0.000704532     0.499997594
   38     6.520034073    26.173446004    24.295831731     0.009574337    -0.013153504     0.499735247
   39     8.706540773    25.868786718    23.721357722     0.024882838    -0.003564233     0.499367741
   40     3.472951205    28.887542465    26.268322623    -0.001011667     0.000762295     0.499998395
   41     6.972323249    22.079447029    23.709299735     0.003784550    -0.075755742     0.494213258
   42     1.256433528    28.521034495    23.158333786    -0.004548818     0.008748367     0.499902765
   43     4.794244256    27.105724989    25.302724797     0.005843519    -0.009418444     0.499877131
   44     9.734639464    24.105066378    24.586063630     0.029313926    -0.010423774     0.499031100
   45     5.074070274    29.621773828    24.761888882    -0.004974675     0.002609930     0.499968440
   46     8.166096684    21.300277469    22.061630227     0.014610167    -0.060442153     0.496118221
   47     7.590560714    21.870011208    29.626394956    -0.001980456     0.001871706     0.499992574
   48    10.795475820    23.526861075    20.547497048     0.011292900     0.007349741     0.499818419
   49     4.034942258    25.379019682    21.637391875     0.022993502    -0.027330636    -0.498722704
   50     7.189702282    29.453106018    26.758445787    -0.010458229     0.015915248     0.499637199
   51    10.466672386    25.886718397    20.686830672     0.002696185     0.010089663     0.499890917
   52    10.174124956    29.649100154    21.388009300    -0.024012572     0.000649348     0.499422641
   53     9.443351619    24.329261774    29.311022107     0.006986202     0.006426871     0.499909880
   54     5.602463851    22.435971062    29.622439845     0.003345853    -0.027811136     0.499214729
   55     4.048686997    30.104280289    22.523846379    -0.008408254     0.002531137     0.499922889
   56     7.159828530    24.096901940    29.487899092     0.002089554     0.004950584     0.499971125
   57     6.049495049    26.023069644    27.117667748     0.000246263    -0.001322015     0.499998192
   58     4.922455394    20.311201459    26.907997420     0.000637399     0.003683656     0.499986024
   59     6.574185435    21.790231233    27.623111132     0.001589228    -0.007605333     0.499939630
   60     9.679491354    26.469546393    28.868732381     0.002194620     0.002818922     0.499987237
   61     9.844368658    21.843042727    29.772142207    -0.000325919    -0.026666913     0.499288263
   62     9.676137854    27.358953189    22.206304275     0.008588550     0.004512364     0.499905867
   63     2.938717157    27.892584707    29.400140232    -0.008837653    -0.001431351     0.499919841
   64     4.278676641    29.214276861    20.466959072    -0.010910126     0.008029249     0.499816467
   65     5.405622351    23.940900776    23.313911642    -0.077704208     0.006620999     0.493880773
   66     1.803931927    26.822648227    27.907267590    -0.017029052    -0.002396108     0.499704183
   67     8.634915393    22.851552286    28.019063694     0.014610509    -0.001664699     0.499783715
   68     1.797956199    22.382038396    25.118431627    -0.062105544    -0.217035379     0.446137362
   21    12.691818600    26.595348454    24.184934372     0.002234056    -0.015840207    -0.499744031
   22    20.024124270    21.978970909    26.224861092    -0.021024484    -0.143812237     0.478409878
   23    19.908197852    29.506296620    27.089700723    -0.009363341     0.000120149     0.499912306
   24    14.854988426    24.394010268    27.917812143     0.001183534     0.012717171     0.499836846
   25    16.133647236    20.637860551    21.202828214    -0.005497691     0.008509411     0.499897355
   26    12.692873193    21.220238434    27.739973422    -0.010501082    -0.413475144    -0.280941334
   27    11.357496370    23.220496911    23.028176847     0.054305655     0.042200782     0.495247403
   28    18.350657088    25.659310658    21.297455711     0.015214264     0.007750170     0.499708376
   29    19.063286909    28.312123561    25.376970537    -0.011695619     0.000724045     0.499862669
   30    17.833253639    29.225784941    22.074015812     0.002291098    -0.010737766     0.499879437
   31    16.345622700    30.189535633    29.088407027     0.006270876     0.005208130     0.499933547
   32    18.472497589    20.840522870    28.317335529     0.000342632    -0.000398674     0.499999724
   33    11.535720921    28.214849458    25.719552914    -0.000564265    -0.013933872     0.499805491
   34    21.133024892    23.199615419    28.437785389    -0.023095004    -0.424115435     0.263804319
   35    18.505314103    27.801259684    20.613997888     0.010916419     0.002454499     0.499874792
   36    18.019082472    22.788019560    25.948068596    -0.001999986    -0.096261037     0.490642245
   37    18.524641833    25.400899445    27.884779854    -0.002036885     0.004443843     0.499976103
   38    16.609690023    26.318106216    24.583918601     0.010716429    -0.010446854     0.499775971
   39    18.796196723    26.013446929    24.009444591     0.025139914    -0.001336956     0.499365795
   40    13.562607155    29.032202677    26.556409492     0.001173025     0.001430903     0.499996577
   41    17.061979199    22.224107241    23.997386605     0.006870363    -0.075200565     0.494264780
   42    11.346089478    28.665694707    23.446420655     0.003803946     0.007259838     0.499932820
   43    14.883900205    27.250385201    25.590811666     0.007322892    -0.006850318     0.499899438
   44    19.824295414    24.249726590    24.874150500     0.029535799    -0.008460634     0.499055162
   45    15.163726223    29.766434040    25.049975751    -0.003274939     0.003462723     0.499977284
   46    18.255752634    21.444937680    22.349717096     0.017049254    -0.060221171     0.496067267
   47    17.680216664    22.014671420    29.914481826    -0.001888829     0.002580848     0.499989771
   48    20.885131770    23.671521287    20.835583917     0.010724686     0.008870706     0.499806254
   49    14.124598208    25.523679894    21.925478745     0.008514201    -0.026239146    -0.499238436
   50    17.279358232    29.597766230    27.046532656    -0.012778207     0.021335329     0.499381138
   51    20.556328336    26.031378608    20.974917541     0.003376299     0.012925337     0.499821504
   52    20.263780905    29.793760366    21.676096170    -0.024610253     0.002206092     0.499389095
   53    19.533007569    24.473921985    29.599108976     0.004276353     0.009800463     0.499885651
   54    15.692119801    22.580631273    29.910526715     0.002515667    -0.025908197     0.499321977
   55    14.138342947    30.248940500    22.811933249    -0.002334988     0.000260498     0.499994480
   56    17.249484480    24.241562151    29.775985962     0.002702554     0.006310056     0.499952877
   57    16.139150998    26.167729855    27.405754618     0.000293094     0.001876723     0.499996392
   58    15.012111344    20.455861671    27.196084289     0.000218743     0.004881281     0.499976125
   59    16.663841385    21.934891445    27.911198001     0.000966455    -0.006393415     0.499958188
   60    19.769147304    26.614206605    29.156819250     0.000092853     0.007360767     0.499945808
   61    19.934024608    21.987702939    30.060229077     0.000037490    -0.025461666     0.499351281
   62    19.765793803    27.503613401    22.494391144     0.009176513     0.008388893     0.499845394
   63    13.028373107    28.037244918    29.688227102    -0.006831668    -0.002636867     0.499946372
   64    14.368332591    29.358937072    20.755045941    -0.002084016     0.006738377     0.499950249
   65    15.495278301    24.085560988    23.601998512    -0.068181234     0.003077015     0.495319948
   66    11.893587876    26.967308439    28.195354460    -0.012297474    -0.003414077     0.499837090
   67    18.724571343    22.996212498    28.307150564     0.013624487     0.000156149     0.499814314
   68    11.887612149    22.526698608    25.406518496    -0.047382992    -0.221067241     0.445964267
   21    22.781474550    26.740008666    24.473021241    -0.000474245    -0.020367822    -0.499584755
   22    30.113780220    22.123631120    26.512947961    -0.020991179    -0.140285273     0.479457415
   23    29.997853802    29.650956832    27.377787592    -0.011735870    -0.004135783     0.499845141
   24    24.944644376    24.538670480    28.205899013    -0.001169797     0.014640952     0.499784228
   25    26.223303186    20.782520762    21.490915084    -0.009155078     0.012786575     0.499752627
   26    22.782529143    21.364898645    28.028060291     0.004203217    -0.415645063    -0.277887594
   27    21.447152320    23.365157123    23.316263717     0.051699947     0.044409996     0.495333088
   28    28.440313038    25.803970869    21.585542581     0.013743012     0.009605464     0.499718786
   29    29.152942859    28.456783772    25.665057407    -0.013711031    -0.008226564     0.499744266
   30    27.922909589    29.370445152    22.362102681     0.004720139    -0.007127838     0.499926909
   31    26.435278650    30.334195845    29.376493896     0.007618092     0.007269329     0.499889109
   32    28.562153539    20.985183082    28.605422399    -0.004197082     0.002134138     0.499977829
   33    21.625376870    28.359509669    26.007639784     0.001866265    -0.008995961     0.499915583
   34    31.222680841    23.344275630    28.725872258    -0.014311805    -0.420546422     0.270066435
   35    28.594970053    27.945919896    20.902084758     0.010112423     0.004005831     0.499881678
   36    28.108738421    22.932679772    26.236155465    -0.002689290    -0.093086368     0.491251153
   37    28.614297783    25.545559656    28.172866724    -0.005151244     0.005300447     0.499945367
   38    26.699345972    26.462766427    24.872005470     0.007479704    -0.009495854     0.499853861
   39    28.885852673    26.158107141    24.297531461     0.022836794     0.000491685     0.499477967
   40    23.652263105    29.176862888    26.844496362     0.000589154     0.005380591     0.499970701
   41    27.151635148    22.368767453    24.285473475     0.003408482    -0.071909693     0.494790237
   42    21.435745428    28.810354919    23.734507525     0.006033390     0.012243261     0.499813666
   43    24.973556155    27.395045413    25.878898536     0.004081697    -0.005792247     0.499949787
   44    29.913951363    24.394386801    25.162237369     0.027819815    -0.006703322     0.499180452
   45    25.253382173    29.911094251    25.338062621    -0.004771387     0.007522767     0.499920636
   46    28.345408584    21.589597892    22.637803966     0.013516023    -0.056664166     0.496594895
   47    27.769872614    22.159331631    30.202568695    -0.005386689     0.005681264     0.499938703
   48    30.974787720    23.816181498    21.123670787     0.007042055     0.011349108     0.499821575
   49    24.214254157    25.668340106    22.213565615    -0.007758022    -0.018557195    -0.499595280
   50    27.369014182    29.742426441    27.334619526    -0.014259698     0.022733981     0.499279308
   51    30.645984285    26.176038820    21.263004411     0.001019351     0.013696200     0.499811339
   52    30.353436855    29.938420578    21.964183039    -0.024229303     0.001064123     0.499411462
   53    29.622663519    24.618582197    29.887195846     0.001976035     0.011171358     0.499871279
   54    25.781775751    22.725291485    30.198613584    -0.006768438    -0.019963301     0.499555457
   55    24.227998897    30.393600712    23.100020118    -0.006741844     0.005717175     0.499921855
   56    27.339140430    24.386222363    30.064072831    -0.001574781     0.009646942     0.499904447
   57    26.228806948    26.312390067    27.693841487    -0.001553096     0.003191668     0.499987401
   58    25.101767294    20.600521882    27.484171159    -0.003740009     0.009110789     0.499902996
   59    26.753497335    22.079551656    28.199284871    -0.002979111    -0.000177058     0.499991093
   60    29.858803254    26.758866816    29.444906120    -0.001974520     0.008267002     0.499927753
   61    30.023680558    22.132363150    30.348315946    -0.003392186    -0.022610733     0.499476974
   62    29.855449753    27.648273612    22.782478014     0.006452115     0.008587237     0.499884616
   63    23.118029057    28.181905130    29.976313972    -0.005891362     0.003201672     0.499955039
   64    24.457988541    29.503597284    21.043132811    -0.008539013     0.010841889     0.499809502
   65    25.584934251    24.230221200    23.890085382    -0.060966659     0.023543303     0.495710378
   66    21.983243826    27.111968650    28.483441329    -0.011980693     0.000787642     0.499855822
   67    28.814227293    23.140872709    28.595237433     0.010416431     0.001678947     0.499888667
   68    21.977268099    22.671358819    25.694605366    -0.038839233    -0.222141580     0.446256241
   21    32.871130500    26.884668877    24.761108111     0.008621070    -0.020191465    -0.499517749
   22    40.203436170    22.268291332    26.801034831    -0.039358098    -0.139616146     0.478495843
   23    40.087509752    29.795617044    27.665874462    -0.022476663    -0.005838750     0.499460417
   24    35.034300325    24.683330692    28.493985883    -0.008378480     0.015596780     0.499686443
   25    36.312959135    20.927180974    21.779001954    -0.015646493     0.011103955     0.499631754
   26    32.872185093    21.509558857    28.316147161     0.029655881    -0.416232618    -0.275446794
   27    31.536808270    23.509817334    23.604350586     0.051141066     0.044003272     0.495427395
   28    38.529968987    25.948631081    21.873629450     0.005320810     0.008572034     0.499898199
   29    39.242598809    28.601443984    25.953144276    -0.024749559    -0.009223239     0.499301904
   30    38.012565538    29.515105364    22.650189551    -0.008209304    -0.007940830     0.499869534
   31    36.524934600    30.478856056    29.664580766    -0.001801237     0.005269766     0.499968984
   32    38.651809489    21.129843293    28.893509268    -0.012111672     0.000554876     0.499852978
   33    31.715032820    28.504169881    26.295726653    -0.006409797    -0.009283046     0.499872723
   34    41.312336791    23.488935842    29.013959128    -0.062994673    -0.421172607     0.262002492
   35    38.684626003    28.090580107    21.190171627     0.000786768     0.004204973     0.499981699
   36    38.198394371    23.077339983    26.524242335    -0.016903673    -0.092249763     0.491125490
   37    38.703953732    25.690219868    28.460953594    -0.011489682     0.004715610     0.499845726
   38    36.789001922    26.607426639    25.160092340    -0.003699990    -0.004507617     0.499965990
   39    38.975508623    26.302767353    24.585618331     0.013523025     0.000009260     0.499817094
   40    33.741919055    29.321523100    27.132583231    -0.006162048     0.005806181     0.499928312
   41    37.241291098    22.513427664    24.573560344    -0.007546862    -0.071718916     0.494772111
   42    31.525401378    28.955015130    24.022594394     0.000271611     0.011002354     0.499878860
   43    35.063212105    27.539705624    26.166985405    -0.005897382    -0.000746859     0.499964662
   44    40.003607313    24.539047013    25.450324239     0.017867131    -0.000437373     0.499680472
   45    35.343038123    30.055754463    25.626149490    -0.013008095     0.008521340     0.499758118
   46    38.435064533    21.734258104    22.925890835     0.004990845    -0.056962418     0.496719613
   47    37.859528564    22.303991843    30.490655565    -0.013239390     0.003759258     0.499810551
   48    41.064443670    23.960841710    21.411757656     0.001062743     0.010458322     0.499889482
   49    34.303910107    25.813000317    22.501652484     0.022065145    -0.027848684    -0.498735982
   50    37.458670131    29.887086653    27.622706395    -0.022294509     0.022125677     0.499012434
   51    40.735640235    26.320699032    21.551091281    -0.005665661     0.013182909     0.499794069
   52    40.443092805    30.083080789    22.252269909    -0.033569970     0.003403590     0.498860174
   53    39.712319469    24.763242409    30.175282715    -0.002390279     0.010509433     0.499883825
   54    35.871431700    22.869951697    30.486700454     0.000879882    -0.024595935     0.499393898
   55    34.317654846    30.538260924    23.388106988    -0.014584518     0.007122725     0.499736489
   56    37.428796380    24.530882575    30.352159701    -0.006653651     0.007068126     0.499905762
   57    36.318462898    26.457050279    27.981928357    -0.008964522     0.005165119     0.499892947
   58    35.191423243    20.745182094    27.772258028    -0.010481092     0.007584215     0.499832598
   59    36.843153284    22.224211868    28.487371740    -0.010072129    -0.003798325     0.499884112
   60    39.948459204    26.903527028    29.732992989    -0.007297755     0.007011989     0.499897564
   61    40.113336508    22.277023362    30.636402816    -0.011768104    -0.023918805     0.499288897
   62    39.945105703    27.792933824    23.070564883    -0.001000439     0.007483917     0.499942987
   63    33.207685007    28.326565342    30.264400841    -0.011879796     0.002522289     0.499852487
   64    34.547644491    29.648257496    21.331219680    -0.015939800     0.011953743     0.499602873
   65    35.674590200    24.374881411    24.178172251    -0.087541170     0.002287478     0.492271582
   66    32.072899776    27.256628862    28.771528199    -0.016776564     0.000667387     0.499718022
   67    38.903883243    23.285532921    28.883324303     0.001214404     0.002690514     0.499991286
   68    32.066924049    22.816019031    25.982692236    -0.037602007    -0.218126901     0.448337757
   21     2.737238121    36.475781763    23.927472926     0.009605390    -0.021633327    -0.499439421
   22    10.069543792    31.859404218    25.967399646    -0.023178485    -0.144611201     0.478069407
   23     9.953617373    39.386729930    26.832239277    -0.011601806    -0.003730100     0.499851462
   24     4.900407947    34.274443578    27.660350697    -0.000067085     0.012777975     0.499836692
   25     6.179066757    30.518293860    20.945366768    -0.007785893     0.007321384     0.499885764
   26     2.738292714    31.100671743    27.482511976    -0.065080291    -0.401518650    -0.290770235
   27     1.402915891    33.100930220    22.770715401     0.050372073     0.040023235     0.495843519
   28     8.396076609    35.539743967    21.039994265     0.013786984     0.009435755     0.499720808
   29     9.108706430    38.192556870    25.119509091    -0.013913275    -0.007076225     0.499756288
   30     7.878673160    39.106218250    21.816554366    -0.001224593    -0.007825649     0.499937256
   31     6.391042222    40.069968942    28.830945581     0.008386215     0.006526962     0.499887057
   32     8.517917110    30.720956179    28.059874083     0.000720346    -0.005856514     0.499965181
   33     1.581140442    38.095282767    25.462091468    -0.007203351    -0.007670025     0.499889270
   34    11.178444413    33.080048728    28.180323943    -0.026595248    -0.424309306     0.263162128
   35     8.550733625    37.681692994    20.356536442     0.009126375     0.004431233     0.499897063
   36     8.064501993    32.668452869    25.690607150    -0.003828972    -0.096692170     0.490546596
   37     8.570061354    35.281332754    27.627318408    -0.002261328     0.002670892     0.499987753
   38     6.655109544    36.198539525    24.326457155     0.006321429    -0.005838155     0.499925950
   39     8.841616244    35.893880239    23.751983145     0.022508276     0.002005937     0.499489093
   40     3.608026677    38.912635986    26.298948046    -0.002851003     0.006330283     0.499951797
   41     7.107398720    32.104540550    23.739925159     0.004089536    -0.075673086     0.494223492
   42     1.391508999    38.546128016    23.188959209    -0.002811865     0.012387299     0.499838622
   43     4.929319727    37.130818510    25.333350220    -0.000336414    -0.002814317     0.499991966
   44     9.869714935    34.130159899    24.616689054     0.027333122    -0.005718816     0.499219587
   45     5.209145745    39.646867349    24.792514305    -0.007630529     0.008283337     0.499873145
   46     8.301172155    31.325370990    22.092255650     0.014991904    -0.060560197     0.496092436
   47     7.725636185    31.895104729    29.657020380     0.000619335    -0.000136436     0.499999598
   48    10.930551291    33.551954596    20.578122471     0.011079614     0.008705988     0.499801408
   49     4.170017729    35.404113203    21.668017299     0.026108931    -0.038475935    -0.497833231
   50     7.324777753    39.478199539    26.789071210    -0.012043950     0.022638700     0.499342000
   51    10.601747857    35.911811918    20.717456095     0.002193360     0.014067706     0.499797248
   52    10.309200427    39.674193675    21.418634724    -0.024535019     0.004096495     0.499380868
   53     9.578427090    34.354355295    29.341647530     0.006358306     0.006422408     0.499918318
   54     5.737539322    32.461064583    29.653065269     0.004259847    -0.028776816     0.499153031
   55     4.183762468    40.129373810    22.554471803    -0.009955237     0.006945948     0.499852625
   56     7.294904001    34.121995461    29.518524516     0.002171125     0.004662960     0.499973542
   57     6.184570520    36.048163165    27.148293172    -0.000896030     0.002400516     0.499993435
   58     5.057530865    30.336294980    26.938622843     0.002098506     0.000444823     0.499995398
   59     6.709260906    31.815324754    27.653736555     0.002684360    -0.010463761     0.499883290
   60     9.814566825    36.494639914    28.899357804     0.000339916     0.005232768     0.499972502
   61     9.979444129    31.868136248    29.802767630     0.003313681    -0.029307477     0.499129333
   62     9.811213325    37.384046710    22.236929698     0.007209930     0.009400255     0.499859632
   63     3.073792628    37.917678228    29.430765656    -0.008925490     0.003225912     0.499909921
   64     4.413752112    39.239370382    20.497584495    -0.012198213     0.011848407     0.499710735
   65     5.540697822    33.965994297    23.344537066    -0.067767627     0.003137860     0.495376324
   66     1.939007398    36.847741748    27.937893014    -0.016246958     0.001367870     0.499734095
   67     8.769990864    32.876645807    28.049689118     0.014918445    -0.002703868     0.499770076
   68     1.933031670    32.407131917    25.149057050    -0.071853027    -0.216976141     0.444700457
   21    12.826894071    36.620441975    24.215559795     0.002433383    -0.019862322    -0.499599406
   22    20.159199741    32.004064430    26.255486515    -0.018927077    -0.139181298     0.479864910
   23    20.043273323    39.531390141    27.120326146    -0.012452333    -0.003218418     0.499834554
   24    14.990063897    34.419103789    27.948437567    -0.001923434     0.017050128     0.499705507
   25    16.268722707    30.662954072    21.233453638    -0.006084002     0.006203668     0.499924494
   26    12.827948664    31.245331955    27.770598845    -0.004793050    -0.411761590    -0.283600810
   27    11.492571841    33.245590432    23.058802271     0.050448124     0.046265374     0.495292340
   28    18.485732559    35.684404179    21.328081135     0.013648672     0.010003710     0.499713557
   29    19.198362380    38.337217082    25.407595961    -0.013638603    -0.008684859     0.499738493
   30    17.968329110    39.250878462    22.104641235     0.000826503    -0.008254642     0.499931173
   31    16.480698171    40.214629154    29.119032450     0.007339044     0.007185898     0.499894490
   32    18.607573060    30.865616391    28.347960953    -0.000557948     0.001823815     0.499996362
   33    11.670796392    38.239942979    25.750178338    -0.001163709    -0.009601869     0.499906441
   34    21.268100363    33.224708940    28.468410812    -0.023178852    -0.419869330     0.270504135
   35    18.640389574    37.826353205    20.644623312     0.009598299     0.004785995     0.499884954
   36    18.154157943    32.813113081    25.978694019    -0.002272711    -0.092352607     0.491391728
   37    18.659717304    35.425992966    27.915405278    -0.004709241     0.006611483     0.499934107
   38    16.744765494    36.343199737    24.614544024     0.005140418    -0.000501994     0.499973323
   39    18.931272194    36.038540450    24.040070015     0.021320670     0.003856346     0.499530337
   40    13.697682626    39.057296198    26.587034916    -0.000022962     0.005828127     0.499966031
   41    17.197054670    32.249200762    24.028012029     0.005031807    -0.071993759     0.494764166
   42    11.481164949    38.690788228    23.477046079     0.003830775     0.011341850     0.499856667
   43    15.018975677    37.275478722    25.621437090     0.000082269     0.001017870     0.499998957
   44    19.959370885    34.274820111    24.904775923     0.025531172    -0.003946530     0.499332138
   45    15.298801694    39.791527561    25.080601175    -0.005775297     0.008822237     0.499888802
   46    18.390828105    31.470031201    22.380342520     0.016216260    -0.057504118     0.496417475
   47    17.815292135    32.039764941    29.945107249    -0.003599173     0.004687619     0.499965071
   48    21.020207241    33.696614808    20.866209341     0.008105078     0.008996039     0.499853357
   49    14.259673679    35.548773415    21.956104168     0.010050758    -0.035390044    -0.498644690
   50    17.414433703    39.622859751    27.077158080    -0.014110688     0.022745037     0.499283038
   51    20.691403807    36.056472129    21.005542965     0.001710089     0.014885454     0.499775448
   52    20.398856377    39.818853887    21.706721593    -0.023835455     0.002595004     0.499424806
   53    19.668083040    34.499015506    29.629734400     0.004266933     0.011109724     0.499858347
   54    15.827195272    32.605724794    29.941152138     0.000095867    -0.024306699     0.499408826
   55    14.273418418    40.274034022    22.842558672    -0.006852215     0.006827291     0.499906426
   56    17.384559951    34.266655672    29.806611385    -0.000097524     0.008435655     0.499928825
   57    16.274226469    36.192823376    27.436380041    -0.002582917     0.006656710     0.499949014
   58    15.147186815    30.480955192    27.226709713    -0.001547620     0.005337291     0.499969117
   59    16.798916856    31.959984966    27.941823425    -0.001951803    -0.004378475     0.499977019
   60    19.904222775    36.639300126    29.187444674    -0.001533424     0.009059285     0.499915571
   61    20.069100079    32.012796460    30.090854500    -0.002656045    -0.023542976     0.499438358
   62    19.900869274    37.528706922    22.525016568     0.006543632     0.010713149     0.499842384
   63    13.163448578    38.062338439    29.718852526    -0.006939530     0.002209628     0.499946958
   64    14.503408062    39.384030593    20.785671365    -0.008831107     0.011528522     0.499789060
   65    15.630353772    34.110654509    23.632623936    -0.038636194     0.019001201     0.498142750
   66    12.028663347    36.992401960    28.225979883    -0.012768186    -0.000552039     0.499836642
   67    18.859646814    33.021306019    28.337775987     0.012276633     0.003495143     0.499837042
   68    12.022687620    32.551792129    25.437143920    -0.041527766    -0.222635626     0.445767678
   21    22.916550021    36.765102187    24.503646665     0.004828197    -0.024182686    -0.499391516
   22    30.248855691    32.148724641    26.543573385    -0.009468901    -0.141453474     0.479480192
   23    30.132929273    39.676050353    27.408413016    -0.015755176    -0.001859340     0.499748254
   24    25.079719847    34.563764001    28.236524437    -0.001765486     0.015077436     0.499769501
   25    26.358378657    30.807614283    21.521540508    -0.007628196     0.010629975     0.499828785
   26    22.917604614    31.389992166    28.058685715     0.003686459    -0.422784815    -0.266907120
   27    21.582227791    33.390250644    23.346889140     0.044989012     0.046817720     0.495766164
   28    28.575388509    35.829064391    21.616168004     0.012053452     0.009992248     0.499754809
   29    29.288018330    38.481877293    25.695682830    -0.017440370    -0.005920727     0.499660663
   30    28.057985060    39.395538673    22.392728105     0.004073893    -0.003661166     0.499969998
   31    26.570354121    40.359289366    29.407119320     0.004928914     0.008265859     0.499907373
   32    28.697229010    31.010276603    28.636047822    -0.002688887     0.002025441     0.499988667
   33    21.760452341    38.384603190    26.038265207    -0.003715800    -0.000571122     0.499985866
   34    31.357756312    33.369369151    28.756497682     0.010655117    -0.422828338     0.266650830
   35    28.730045524    37.971013417    20.932710181     0.008852229     0.005509035     0.499891277
   36    28.243813893    32.957773293    26.266780889     0.003457167    -0.094267145     0.491021133
   37    28.749373254    35.570653177    28.203492148    -0.005966848     0.006078616     0.499927442
   38    26.834421443    36.487859948    24.902630894     0.005591100    -0.009720562     0.499874234
   39    29.020928144    36.183200662    24.328156885     0.021500484    -0.001826862     0.499534175
   40    23.787338576    39.201956410    26.875121785    -0.001007941     0.009277119     0.499912912
   41    27.286710619    32.393860974    24.316098898     0.005494723    -0.074019095     0.494460293
   42    21.570820899    38.835448440    23.765132948     0.002532054     0.014870626     0.499772401
   43    25.108631626    37.420138934    25.909523959     0.002465567    -0.004975269     0.499969167
   44    30.049026835    34.419480322    25.192862793     0.026941068    -0.008451018     0.499202123
   45    25.388457644    39.936187772    25.368688044    -0.006660162     0.009683812     0.499861847
   46    28.480484055    31.614691413    22.668429389     0.013165779    -0.059505819     0.496271820
   47    27.904948085    32.184425152    30.233194119    -0.004843506     0.005754103     0.499943428
   48    31.109863191    33.841275019    21.154296210     0.006833784     0.007486849     0.499897236
   49    24.349329628    35.693433627    22.244191038     0.019884683    -0.042639917    -0.497781515
   50    27.504089653    39.767519962    27.365244949    -0.016674966     0.024352591     0.499128137
   51    30.781059756    36.201132341    21.293629834     0.000092516     0.014078567     0.499801746
   52    30.488512326    39.963514099    21.994808463    -0.024959837     0.006267526     0.499337285
   53    29.757738990    34.643675718    29.917821269     0.001318494     0.011413514     0.499867976
   54    25.916851222    32.750385006    30.229239008    -0.006000248    -0.020114101     0.499559226
   55    24.363074368    40.418694233    23.130645542    -0.008336550     0.006912431     0.499882706
   56    27.474215901    34.411315884    30.094698255    -0.000908891     0.009802410     0.499903077
   57    26.363882419    36.337483588    27.724466911    -0.002470800     0.003633688     0.499980691
   58    25.236842765    30.625615403    27.514796582    -0.001686997     0.008968204     0.499916718
   59    26.888572806    32.104645177    28.229910294    -0.000575559     0.000039510     0.499999667
   60    29.993878725    36.783960337    29.475531543    -0.003175675     0.009126464     0.499906614
   61    30.158756029    32.157456671    30.378941370    -0.003096844    -0.022525612     0.499482739
   62    29.990525224    37.673367133    22.813103437     0.005052286     0.009114270     0.499891393
   63    23.253104528    38.206998651    30.006939395    -0.009138428     0.003696894     0.499902813
   64    24.593064012    39.528690805    21.073758234    -0.010043804     0.011753944     0.499760910
   65    25.720009722    34.255314721    23.920710805    -0.045484536     0.025335970     0.497281857
   66    22.118319297    37.137062171    28.514066753    -0.014586698     0.002509084     0.499780885
   67    28.949302764    33.165966230    28.625862857     0.010558134     0.002487725     0.499882323
   68    22.112343570    32.696452340    25.725230790    -0.035833516    -0.217273479     0.448896641
   21    33.006205971    36.909762398    24.791733534     0.007975170    -0.022553668    -0.499427401
   22    40.338511641    32.293384853    26.831660255    -0.046288299    -0.140923250     0.477491394
   23    40.222585223    39.820710565    27.696499886    -0.021821775    -0.001072939     0.499522431
   24    35.169375796    34.708424213    28.524611306    -0.004898742     0.016305631     0.499710045
   25    36.448034606    30.952274495    21.809627377    -0.016483159     0.010836146     0.499610732
   26    33.007260564    31.534652378    28.346772585     0.069762217    -0.407016148    -0.281906169
   27    31.671883741    33.534910855    23.634976010     0.045140844     0.040124583     0.496338918
   28    38.665044458    35.973724602    21.904254874     0.007001984     0.010059539     0.499849755
   29    39.377674280    38.626537505    25.983769700    -0.024334540    -0.004258191     0.499389325
   30    38.147641010    39.540198885    22.680814974    -0.007814025    -0.005552709     0.499908100
   31    36.660010071    40.503949577    29.695206190    -0.000262420     0.009452519     0.499910573
   32    38.786884960    31.154936814    28.924134692    -0.011707857    -0.000117690     0.499862893
   33    31.850108291    38.529263402    26.326352077    -0.006976579    -0.006870236     0.499904118
   34    41.447412262    33.514029363    29.044584552    -0.084358378    -0.418697362     0.259954194
   35    38.819701474    38.115673629    21.220797051     0.001877617     0.005242391     0.499968991
   36    38.333469842    33.102433504    26.554867758    -0.020925008    -0.094883104     0.490468491
   37    38.839029203    35.715313389    28.491579017    -0.009191341     0.006145848     0.499877733
   38    36.924077393    36.632520160    25.190717763     0.005755468    -0.003305766     0.499955945
   39    39.110584094    36.327860874    24.616243754     0.017441057    -0.001159178     0.499694372
   40    33.876994526    39.346616621    27.163208655    -0.005391892     0.007963794     0.499907497
   41    37.376366569    32.538521185    24.604185768    -0.011237689    -0.074100017     0.494350991
   42    31.660476849    38.980108651    24.053219818    -0.000125788     0.012509740     0.499843466
   43    35.198287576    37.564799145    26.197610829     0.001083434    -0.000825944     0.499998144
   44    40.138682784    34.564140534    25.480949662     0.020668593    -0.010275985     0.499466929
   45    35.478113594    40.080847984    25.656774914    -0.011106308     0.010212308     0.499772307
   46    38.570140004    31.759351625    22.956516259     0.000193717    -0.058845313     0.496525117
   47    37.994604035    32.329085364    30.521280988    -0.012700832     0.003837178     0.499823934
   48    41.199519141    33.985935231    21.442383080     0.003196039     0.010262931     0.499884444
   49    34.438985578    35.838093838    22.532277908     0.024191622    -0.031406165    -0.498425941
   50    37.593745603    39.912180174    27.653331819    -0.020694378     0.025811489     0.498904309
   51    40.870715706    36.345792553    21.581716704    -0.004354703     0.014073291     0.499782932
   52    40.578168276    40.108174310    22.282895332    -0.033196160     0.005191035     0.498869791
   53    39.847394940    34.788335930    30.205908139    -0.001086594     0.011426230     0.499868243
   54    36.006507172    32.895045218    30.517325877    -0.001609465    -0.024349987     0.499404133
   55    34.452730317    40.563354445    23.418732412    -0.013760543     0.008736883     0.499734244
   56    37.563871851    34.555976096    30.382785124    -0.005308348     0.008081671     0.499906499
   57    36.453538369    36.482143800    28.012553781    -0.005040034     0.005657278     0.499942590
   58    35.326498714    30.770275615    27.802883452    -0.010382824     0.007645094     0.499833722
   59    36.978228755    32.249305389    28.517997164    -0.009404063    -0.004884452     0.499887693
   60    40.083534675    36.928620549    29.763618413    -0.005145070     0.008818278     0.499895755
   61    40.248411979    32.302116883    30.667028239    -0.011442581    -0.023592869     0.499311970
   62    40.080181174    37.818027345    23.101190307     0.000812370     0.009164339     0.499915348
   63    33.342760478    38.351658863    30.295026265    -0.011548000     0.003865139     0.499851682
   64    34.682719962    39.673351017    21.361845104    -0.015462994     0.013471492     0.499579238
   65    35.809665671    34.399974932    24.208797675    -0.091299093    -0.003374978     0.491582226
   66    32.207975247    37.281722383    28.802153622    -0.017068357     0.001826900     0.499705247
   67    39.038958714    33.310626442    28.913949727     0.002151161     0.003217998     0.499985017
   68    32.201999520    32.841112552    26.013317659    -0.021962181    -0.220010121     0.448456474
   21     2.618882879     6.432636937    33.847582017     0.008784892    -0.020400520    -0.499506401
   22     9.951188550     1.816259391    35.887508737    -0.031863239    -0.142934929     0.478073572
   23     9.835262131     9.343585103    36.752348368    -0.015510392    -0.004453785     0.499739524
   24     4.782052705     4.231298751    37.580459788    -0.000970024     0.015118740     0.499770430
   25     6.060711515     0.475149034    30.865475860    -0.006002759     0.009206840     0.499879186
   26     2.619937472     1.057526916    37.402621067    -0.043983240    -0.416533091    -0.273067132
   27     1.284560649     3.057785394    32.690824492     0.045625095     0.049538364     0.495443540
   28     8.277721367     5.496599141    30.960103356     0.014859241     0.008244440     0.499711149
   29     8.990351188     8.149412043    35.039618182    -0.016987138    -0.009364646     0.499623599
   30     7.760317918     9.063073424    31.736663457     0.001723198    -0.010273538     0.499891473
   31     6.272686979    10.026824116    38.751054672     0.004155375     0.007752518     0.499922625
   32     8.399561868     0.677811353    37.979983174    -0.003020647     0.001774219     0.499987728
   33     1.462785200     8.052137940    35.382200559    -0.006414328    -0.009699711     0.499864754
   34    11.060089171     3.036903901    38.100433034    -0.052074373    -0.425483063     0.257395460
   35     8.432378382     7.638548167    30.276645533     0.010186105     0.002562775     0.499889663
   36     7.946146751     2.625308043    35.610716241    -0.007362760    -0.095581552     0.490723911
   37     8.451706112     5.238187928    37.547427500    -0.006221226     0.005668324     0.499929161
   38     6.536754302     6.155394698    34.246566246     0.009098408    -0.007238241     0.499864809
   39     8.723261002     5.850735412    33.672092237     0.023001564    -0.001832522     0.499467286
   40     3.489671434     8.869491160    36.219057137    -0.003434359     0.005210312     0.499961056
   41     6.989043478     2.061395724    33.660034250    -0.001404254    -0.074233886     0.494456629
   42     1.273153757     8.502983190    33.109068300    -0.002282449     0.011828443     0.499854857
   43     4.810964485     7.087673684    35.253459311     0.003384589    -0.004956935     0.499963972
   44     9.751359693     4.087015073    34.536798145     0.027434010    -0.008643648     0.499171977
   45     5.090790502     9.603722522    34.712623396    -0.007597452     0.007253297     0.499889656
   46     8.182816913     1.282226163    32.012364741     0.011453550    -0.059020251     0.496372266
   47     7.607280943     1.851959902    39.577129471    -0.006707907     0.007133332     0.499904110
   48    10.812196049     3.508809770    30.498231562     0.009020673     0.012108454     0.499771961
   49     4.051662487     5.360968377    31.588126390     0.023649983    -0.031698971    -0.498433399
   50     7.206422511     9.435054713    36.709180301    -0.016254758     0.023903789     0.499163692
   51    10.483392615     5.868667091    30.637565186     0.002150350     0.012985698     0.499826718
   52    10.190845185     9.631048849    31.338743815    -0.024919169     0.001493612     0.499376415
   53     9.460071848     4.311210468    39.261756621     0.001003449     0.011604067     0.499864320
   54     5.619184080     2.417919756    39.573174360    -0.005790227    -0.018861361     0.499610571
   55     4.065407226    10.086228983    32.474580894    -0.008811375     0.005253858     0.499894746
   56     7.176548759     4.078850634    39.438633607    -0.000275583     0.010683454     0.499885775
   57     6.066215277     6.005018338    37.068402263    -0.002005073     0.003584448     0.499983131
   58     4.939175623     0.293150153    36.858731934    -0.001444745     0.008317802     0.499928722
   59     6.590905664     1.772179927    37.573845646     0.000328669    -0.000144164     0.499999871
   60     9.696211583     6.451495087    38.819466895    -0.004277487     0.008230258     0.499913959
   61     9.861088887     1.824991422    39.722876722    -0.007750059    -0.020956635     0.499500507
   62     9.692858082     7.340901883    32.157038789     0.005961888     0.007980329     0.499900760
   63     2.955437386     7.874533401    39.350874747    -0.013804085     0.002477965     0.499803268
   64     4.295396870     9.196225555    30.417693586    -0.010901049     0.010251057     0.499776033
   65     5.422342580     3.922849471    33.264646157    -0.072850224     0.028285429     0.493855019
   66     1.820652155     6.804596922    37.858002105    -0.019970930     0.000499168     0.499600753
   67     8.651635622     2.833500981    37.969798209     0.010189897     0.000426791     0.499895973
   68     1.814676428     2.363987091    35.069166142    -0.067550188    -0.215816116     0.445937637
   21    12.708538829     6.577297148    34.135668886     0.005180512    -0.019817225    -0.499580264
   22    20.040844499     1.960919603    36.175595606    -0.025558974    -0.142548414     0.478567329
   23    19.924918081     9.488245315    37.040435238    -0.013719675    -0.003758757     0.499797601
   24    14.871708655     4.375958963    37.868546658    -0.003300961     0.014304962     0.499784425
   25    16.150367465     0.619809245    31.153562729    -0.007520571     0.010426645     0.499834699
   26    12.709593422     1.202187128    37.690707937    -0.011951503    -0.407439230    -0.289569397
   27    11.374216599     3.202445605    32.978911362     0.052610553     0.047444270     0.494955726
   28    18.367377317     5.641259352    31.248190226     0.015664967     0.009684808     0.499660698
   29    19.080007138     8.294072255    35.327705052    -0.015024267    -0.007365795     0.499719938
   30    17.849973868     9.207733635    32.024750326     0.005607229    -0.003879502     0.499953506
   31    16.362342929    10.171484328    39.039141541     0.004903090     0.007860479     0.499914165
   32    18.489217818     0.822471564    38.268070044    -0.009495516    -0.000934884     0.499908953
   33    11.552441149     8.196798152    35.670287429    -0.005082669    -0.008938923     0.499894251
   34    21.149745120     3.181564113    38.388519904    -0.024722962    -0.425368122     0.261630916
   35    18.522034332     7.783208379    30.564732403     0.011310458     0.005717611     0.499839357
   36    18.035802701     2.769968254    35.898803110    -0.005655627    -0.094630283     0.490930874
   37    18.541362062     5.382848139    37.835514369    -0.009177278     0.005439311     0.499886179
   38    16.626410251     6.300054910    34.534653115     0.005970793    -0.008303719     0.499895387
   39    18.812916952     5.995395624    33.960179106     0.022260730     0.001921079     0.499500520
   40    13.579327384     9.014151371    36.507144007    -0.001961715     0.005888829     0.499961472
   41    17.078699427     2.206055935    33.948121120     0.004281493    -0.073517970     0.494547042
   42    11.362809707     8.647643401    33.397155170     0.000856077     0.010667234     0.499885464
   43    14.900620434     7.232333895    35.541546181     0.003682764    -0.003545481     0.499973866
   44    19.841015643     4.231675284    34.824885014     0.026142909    -0.005695239     0.499283599
   45    15.180446452     9.748382734    35.000710266    -0.006530361     0.008091312     0.499891873
   46    18.272472863     1.426886375    32.300451611     0.014433644    -0.058511882     0.496354742
   47    17.696936893     1.996620114    39.865216340    -0.010762352     0.003003338     0.499875136
   48    20.901851999     3.653469981    30.786318432     0.009924458     0.009487844     0.499811450
   49    14.141318436     5.505628588    31.876213260     0.024034406    -0.029343289    -0.498559243
   50    17.296078461     9.579714924    36.997267171    -0.015251120     0.023893665     0.499195849
   51    20.573048564     6.013327303    30.925652056     0.003161640     0.014299659     0.499785478
   52    20.280501134     9.775709060    31.626830684    -0.023380613     0.005358000     0.499424307
   53    19.549727798     4.455870680    39.549843491    -0.002869440     0.010640147     0.499878539
   54    15.708840030     2.562579968    39.861261229    -0.005773889    -0.025671183     0.499307173
   55    14.155063176    10.230889195    32.762667764    -0.007024220     0.006185712     0.499912390
   56    17.266204709     4.223510846    39.726720476    -0.004498924     0.007084476     0.499929565
   57    16.155871227     6.149678550    37.356489133    -0.003428084     0.003707405     0.499974503
   58    15.028831573     0.437810365    37.146818804    -0.007259163     0.003610521     0.499934264
   59    16.680561614     1.916840139    37.861932516    -0.006940748    -0.007164271     0.499900489
   60    19.785867533     6.596155299    39.107553765    -0.005840869     0.008429011     0.499894825
   61    19.950744837     1.969651633    40.010963591    -0.008108691    -0.024896511     0.499313942
   62    19.782514032     7.485562095    32.445125659     0.007744926     0.009548242     0.499848824
   63    13.045093336     8.019193613    39.638961617    -0.010323634     0.003486767     0.499881251
   64    14.385052820     9.340885767    30.705780456    -0.008541249     0.011266584     0.499800071
   65    15.511998530     4.067509683    33.552733027    -0.061954943     0.000542871     0.496146440
   66    11.910308105     6.949257133    38.146088974    -0.016555906     0.001092991     0.499724632
   67    18.741291572     2.978161192    38.257885079     0.003024490     0.003336396     0.499979721
   68    11.904332378     2.508647302    35.357253011    -0.053074111    -0.221457157     0.445129045
   21    22.798194779     6.721957360    34.423755756     0.005843836    -0.020176549    -0.499558562
   22    30.130500449     2.105579815    36.463682476    -0.033565068    -0.139209320     0.479055478
   23    30.014574031     9.632905526    37.328522107    -0.017746469    -0.003564345     0.499672251
   24    24.961364604     4.520619174    38.156633528    -0.003844150     0.015375058     0.499748767
   25    26.240023414     0.764469457    31.441649599    -0.011101914     0.012505024     0.499720294
   26    22.799249372     1.346847340    37.978794806     0.010546973    -0.410917614    -0.284667308
   27    21.463872549     3.347105817    33.266998231     0.047147435     0.046704622     0.495576228
   28    28.457033266     5.785919564    31.536277096     0.010816931     0.011432462     0.499752231
   29    29.169663088     8.438732467    35.615791922    -0.019904437    -0.006344324     0.499563372
   30    27.939629818     9.352393847    32.312837196    -0.002951152    -0.000816954     0.499990623
   31    26.451998879    10.316144539    39.327228411     0.000481982     0.006970756     0.499951174
   32    28.578873768     0.967131776    38.556156913    -0.009141462     0.000961611     0.499915502
   33    21.642097099     8.341458364    35.958374298    -0.005031215    -0.009159378     0.499890781
   34    31.239401070     3.326224325    38.676606773    -0.044701622    -0.421375389     0.265413916
   35    28.611690282     7.927868590    30.852819272     0.006237748     0.007050637     0.499911371
   36    28.125458650     2.914628466    36.186889980    -0.012530111    -0.092319771     0.491243378
   37    28.631018011     5.527508351    38.123601239    -0.009442240     0.005837837     0.499876749
   38    26.716066201     6.444715122    34.822739985     0.005521924    -0.007015268     0.499920288
   39    28.902572902     6.140055835    34.248265976     0.019616326     0.001427079     0.499613013
   40    23.668983334     9.158811583    36.795230876    -0.003787432     0.005714938     0.499952993
   41    27.168355377     2.350716147    34.236207989    -0.003770495    -0.071390621     0.494862772
   42    21.452465657     8.792303613    33.685242040     0.002177195     0.011697223     0.499858415
   43    24.990276384     7.376994107    35.829633050     0.002683785    -0.002607521     0.499985998
   44    29.930671592     4.376335496    35.112971884     0.023370341    -0.005406444     0.499424266
   45    25.270102402     9.893042946    35.288797136    -0.008895128     0.008349255     0.499851144
   46    28.362128812     1.571546586    32.588538481     0.006903617    -0.056319626     0.496770007
   47    27.786592843     2.141280326    40.153303210    -0.010571227     0.003820549     0.499873637
   48    30.991507949     3.798130193    31.074405302     0.004833017     0.011890683     0.499835226
   49    24.230974386     5.650288800    32.164300129     0.013907566    -0.034916960    -0.498585384
   50    27.385734411     9.724375136    37.285354040    -0.019415570     0.023490358     0.499070375
   51    30.662704514     6.157987514    31.213738926    -0.001495372     0.015264905     0.499764691
   52    30.370157084     9.920369272    31.914917554    -0.028935486     0.006256272     0.499122827
   53    29.639383748     4.600530891    39.837930360    -0.002694775     0.010871061     0.499874542
   54    25.798495980     2.707240179    40.149348099     0.003823860    -0.023128873     0.499450131
   55    24.244719125    10.375549407    33.050754633    -0.009888458     0.007734616     0.499842369
   56    27.355860659     4.368171057    40.014807346    -0.005030503     0.007247877     0.499922156
   57    26.245527177     6.294338761    37.644576002    -0.003920166     0.004704558     0.499962498
   58    25.118487522     0.582470577    37.434905673    -0.007881876     0.006403077     0.499896866
   59    26.770217563     2.061500351    38.150019386    -0.007446470    -0.003793494     0.499930155
   60    29.875523483     6.740815511    39.395640635    -0.006561214     0.008324584     0.499887639
   61    30.040400787     2.114311845    40.299050461    -0.008751935    -0.023500937     0.499370714
   62    29.872169982     7.630222307    32.733212529     0.003582592     0.010144236     0.499884246
   63    23.134749286     8.163853824    39.927048486    -0.011905223     0.002384995     0.499852556
   64    24.474708770     9.485545978    30.993867325    -0.011358136     0.012860425     0.499705515
   65    25.601654479     4.212169894    33.840819896    -0.076482092     0.004553518     0.494094885
   66    21.999964055     7.093917345    38.434175844    -0.017957644     0.000543265     0.499677124
   67    28.830947522     3.122821404    38.545971948     0.004075453     0.003606417     0.499970384
   68    21.993988328     2.653307514    35.645339881    -0.043254188    -0.221076998     0.446378803
   21    32.887850729     6.866617572    34.711842625     0.008703383    -0.020834219    -0.499489926
   22    40.220156399     2.250240026    36.751769346    -0.042597343    -0.138638929     0.478502574
   23    40.104229981     9.777565738    37.616608977    -0.021374524    -0.002991649     0.499533963
   24    35.051020554     4.665279386    38.444720397    -0.004448613     0.016504597     0.499707723
   25    36.329679364     0.909129668    31.729736468    -0.014084641     0.013819967     0.499610480
   26    32.888905321     1.491507551    38.266881676    -0.010773861    -0.414400836    -0.279563716
   27    31.553528499     3.491766029    33.555085101     0.047165450     0.046637012     0.495580881
   28    38.546689216     5.930579776    31.824363965     0.010088816     0.011119392     0.499774524
   29    39.259319038     8.583392678    35.903878791    -0.023177576    -0.005823585     0.499428559
   30    38.029285767     9.497054058    32.600924065    -0.006039995    -0.005189012     0.499936589
   31    36.541654829    10.460804751    39.615315281    -0.001756746     0.007404709     0.499942081
   32    38.668529717     1.111791988    38.844243783    -0.009614778     0.001966493     0.499903680
   33    31.731753049     8.486118575    36.246461168    -0.006803004    -0.009233457     0.499868445
   34    41.329057020     3.470884536    38.964693643    -0.074957537    -0.420534658     0.259869137
   35    38.701346232     8.072528802    31.140906142     0.004584682     0.006416111     0.499937810
   36    38.215114600     3.059288678    36.474976850    -0.016261395    -0.092232506     0.491150417
   37    38.720673961     5.672168562    38.411688108    -0.010544306     0.006257882     0.499849634
   38    36.805722151     6.589375333    35.110826855     0.004990177    -0.006072443     0.499938220
   39    38.992228851     6.284716047    34.536352845     0.018222219     0.001782297     0.499664662
   40    33.758639284     9.303471795    37.083317746    -0.005582225     0.006112787     0.499931468
   41    37.258011327     2.495376359    34.524294859    -0.005429508    -0.071235678     0.494869678
   42    31.542121607     8.936963825    33.973328909    -0.001184051     0.011999319     0.499854593
   43    35.079932334     7.521654319    36.117719920     0.001874077    -0.001815298     0.499993192
   44    40.020327542     4.520995708    35.401058754     0.021297361    -0.005726539     0.499513392
   45    35.359758352    10.037703157    35.576884005    -0.011120936     0.008370377     0.499806224
   46    38.451784762     1.716206798    32.876625350     0.004262686    -0.055802262     0.496858065
   47    37.876248792     2.285940537    40.441390080    -0.012780833     0.005915438     0.499801619
   48    41.081163898     3.942790405    31.362492171     0.007216621     0.012659910     0.499787602
   49    34.320630336     5.794949012    32.452386999     0.023601355    -0.030362655    -0.498518892
   50    37.475390360     9.869035348    37.573440910    -0.022607634     0.023377072     0.498941287
   51    40.752360464     6.302647726    31.501825795    -0.002230987     0.015411837     0.499757439
   52    40.459813034    10.065029484    32.203004424    -0.031519085     0.005196129     0.498978504
   53    39.729039697     4.745191103    40.126017230    -0.002436172     0.012344184     0.499841661
   54    35.888151929     2.851900391    40.437434969    -0.012049620    -0.017633618     0.499543654
   55    34.334375075    10.520209618    33.338841503    -0.013499594     0.006569741     0.499774549
   56    37.445516608     4.512831269    40.302894216    -0.006397985     0.010628484     0.499846077
   57    36.335183127     6.438998973    37.932662872    -0.004604177     0.005604930     0.499947384
   58    35.208143472     0.727130788    37.722992543    -0.006787207     0.008062798     0.499888913
   59    36.859873513     2.206160562    38.438106255    -0.007416032    -0.002409616     0.499939193
   60    39.965179432     6.885475722    39.683727504    -0.008421853     0.008648673     0.499854252
   61    40.130056736     2.258972057    40.587137330    -0.012695080    -0.020867032     0.499403046
   62    39.961825932     7.774882518    33.021299398     0.002273609     0.010028753     0.499894244
   63    33.224405235     8.308514036    40.215135356    -0.014102899     0.003311683     0.499790097
   64    34.564364719     9.630206190    31.281954195    -0.015266674     0.011408087     0.499636652
   65    35.691310429     4.356830106    34.128906766    -0.076743550     0.009536082     0.493983290
   66    32.089620005     7.238577557    38.722262713    -0.019549062     0.001143916     0.499616378
   67    38.920603471     3.267481616    38.834058818     0.004703252     0.003504017     0.499965600
   68    32.083644278     2.797967725    35.933426750    -0.053475157    -0.216777315     0.447379038
   21     2.753958350    16.457730458    33.878207440     0.009629256    -0.019111904    -0.499541803
   22    10.086264021    11.841352912    35.918134160    -0.029181789    -0.142737880     0.478303586
   23     9.970337602    19.368678624    36.782973792    -0.014420532    -0.005470317     0.499762067
   24     4.917128176    14.256392272    37.611085212    -0.001654056     0.015444699     0.499758667
   25     6.195786986    10.500242555    30.896101283    -0.007689647     0.008606169     0.499866785
   26     2.755012943    11.082620437    37.433246491    -0.047199801    -0.408912612    -0.283835612
   27     1.419636120    13.082878915    32.721449916     0.048649762     0.043455830     0.495726529
   28     8.412796838    15.521692662    30.990728780     0.014646235     0.007230980     0.499733130
   29     9.125426659    18.174505564    35.070243606    -0.017061261    -0.008917080     0.499629262
   30     7.895393389    19.088166945    31.767288880     0.001228745    -0.011072399     0.499875877
   31     6.407762451    20.051917637    38.781680095     0.004102552     0.006299170     0.499943486
   32     8.534637339    10.702904874    38.010608598    -0.005457191     0.002811795     0.499962311
   33     1.597860671    18.077231461    35.412825983    -0.007439050    -0.010574816     0.499832806
   34    11.195164642    13.061997422    38.131058457    -0.046338994    -0.422899399     0.262695253
   35     8.567453853    17.663641688    30.307270957     0.010049931     0.002314378     0.499893631
   36     8.081222222    12.650401564    35.641341664    -0.007582537    -0.095589300     0.490719055
   37     8.586781583    15.263281449    37.578052923    -0.006691332     0.006153415     0.499917355
   38     6.671829773    16.180488219    34.277191669     0.008290781    -0.008725891     0.499855101
   39     8.858336473    15.875828933    33.702717660     0.022772539    -0.001877862     0.499477612
   40     3.624746905    18.894584681    36.249682561    -0.003483407     0.004157592     0.499970579
   41     7.124118949    12.086489245    33.690659674     0.002024636    -0.074908181     0.494352774
   42     1.408229228    18.528076711    33.139693724    -0.003476563     0.010138285     0.499885115
   43     4.946039956    17.112767205    35.284084735     0.004507894    -0.004611656     0.499958410
   44     9.886435164    14.112108594    34.567423568     0.026618005    -0.009255535     0.499205185
   45     5.225865974    19.628816043    34.743248820    -0.007346359     0.006435561     0.499904605
   46     8.317892384    11.307319684    32.042990165     0.013725895    -0.060128320     0.496181605
   47     7.742356414    11.877053423    39.607754894    -0.008786064     0.005756281     0.499889658
   48    10.947271520    13.533903291    30.528856986     0.012717375     0.004847215     0.499814739
   49     4.186737958    15.386061898    31.618751814     0.022993170    -0.029375712    -0.498606440
   50     7.341497982    19.460148234    36.739805725    -0.015873956     0.022857743     0.499224940
   51    10.618468086    15.893760612    30.668190610     0.002153170     0.011553526     0.499861861
   52    10.325920656    19.656142370    31.369369238    -0.024995661     0.000915525     0.499373987
   53     9.595147319    14.336303989    39.292382045    -0.000125078     0.011866309     0.499859155
   54     5.754259551    12.443013277    39.603799783    -0.009324692    -0.017483983     0.499607206
   55     4.200482697    20.111322504    32.505206318    -0.008265431     0.004338672     0.499912851
   56     7.311624230    14.103944155    39.469259030    -0.002919051     0.010619224     0.499878697
   57     6.201290749    16.030111859    37.099027686    -0.002188902     0.003936305     0.499979714
   58     5.074251094    10.318243674    36.889357358    -0.003237050     0.008967524     0.499909097
   59     6.725981135    11.797273448    37.604471070    -0.003470105     0.000014969     0.499987958
   60     9.831287054    16.476588608    38.850092319    -0.004109934     0.008333044     0.499913661
   61     9.996164358    11.850084943    39.753502145    -0.006402212    -0.022562867     0.499449626
   62     9.827933554    17.365995404    32.187664213     0.006855946     0.006479113     0.499911009
   63     3.090512857    17.899626922    39.381500171    -0.014414642     0.002523922     0.499785802
   64     4.430472341    19.221319076    30.448319010    -0.010392157     0.009212376     0.499807098
   65     5.557418051    13.947942992    33.295271581    -0.060134533     0.030666036     0.495422479
   66     1.955727626    16.829690443    37.888627528    -0.020860951     0.001076053     0.499563472
   67     8.786711093    12.858594502    38.000423632     0.008279024     0.003388182     0.499919972
   68     1.949751899    12.389080612    35.099791565    -0.064251154    -0.216047791     0.446312829
   21    12.843614300    16.602390669    34.166294310     0.005598068    -0.016843046    -0.499684874
   22    20.175919970    11.986013124    36.206221030    -0.023726494    -0.142082041     0.478800321
   23    20.059993552    19.513338836    37.071060661    -0.010086319    -0.003883689     0.499883169
   24    15.006784126    14.401052484    37.899172082    -0.000684382     0.014893967     0.499777652
   25    16.285442936    10.644902766    31.184188153    -0.006273206     0.011102886     0.499837346
   26    12.844668893    11.227280649    37.721333360    -0.022747829    -0.414417940    -0.278819489
   27    11.509292070    13.227539126    33.009536785     0.049898771     0.043164109     0.495627857
   28    18.502452788    15.666352873    31.278815650     0.015591811     0.008045780     0.499692066
   29    19.215082609    18.319165776    35.358330476    -0.013355511    -0.006103750     0.499784328
   30    17.985049339    19.232827156    32.055375750     0.003961995    -0.010268574     0.499878844
   31    16.497418400    20.196577849    39.069766965     0.006345803     0.006951659     0.499911397
   32    18.624293289    10.847565085    38.298695467    -0.003967424     0.002464825     0.499978184
   33    11.687516620    18.221891673    35.700912852    -0.001839809    -0.011831814     0.499856603
   34    21.284820591    13.206657634    38.419145327    -0.031690576    -0.423005858     0.264691805
   35    18.657109803    17.808301900    30.595357826     0.011395925     0.002831434     0.499862097
   36    18.170878172    12.795061775    35.929428534    -0.003935766    -0.094672249     0.490939584
   37    18.676437533    15.407941660    37.866139793    -0.004155494     0.005932771     0.499947531
   38    16.761485722    16.325148431    34.565278539     0.009076481    -0.009501973     0.499827300
   39    18.947992423    16.020489145    33.990804530     0.024112170    -0.000477700     0.499418036
   40    13.714402855    19.039244892    36.537769430    -0.001022465     0.003402608     0.499987377
   41    17.213774899    12.231149456    33.978746543     0.004565651    -0.073708747     0.494516102
   42    11.497885178    18.672736922    33.427780593     0.001491236     0.009003632     0.499916704
   43    15.035695905    17.257427416    35.572171604     0.005263686    -0.005961203     0.499936754
   44    19.976091114    14.256768805    34.855510438     0.028270341    -0.008139780     0.499133781
   45    15.315521923    19.773476255    35.031335690    -0.005039717     0.006029602     0.499938241
   46    18.407548334    11.451979896    32.331077034     0.014737381    -0.058767408     0.496315627
   47    17.832012364    12.021713635    39.895841764    -0.006032565     0.006025492     0.499927296
   48    21.036927470    13.678563502    30.816943855     0.010145166     0.008462772     0.499825427
   49    14.276393908    15.530722109    31.906838683     0.023331169    -0.029399204    -0.498589353
   50    17.431153932    19.604808445    37.027892594    -0.013340947     0.022504772     0.499315085
   51    20.708124035    16.038420824    30.956277480     0.003292464     0.013363310     0.499810546
   52    20.415576605    19.800802581    31.657456108    -0.023650559     0.001415214     0.499438333
   53    19.684803269    14.480964201    39.580468914     0.004230644     0.012268127     0.499831566
   54    15.843915501    12.587673489    39.891886653    -0.007496807    -0.017622235     0.499633120
   55    14.290138647    20.255982716    32.793293187    -0.005520252     0.004275956     0.499951241
   56    17.401280180    14.248604367    39.757345900     0.000122337     0.010565293     0.499888347
   57    16.290946698    16.174772071    37.387114556    -0.001261000     0.003271829     0.499987705
   58    15.163907044    10.462903886    37.177444227    -0.003816191     0.008934932     0.499905595
   59    16.815637085    11.941933660    37.892557939    -0.002830522     0.000018425     0.499991988
   60    19.920943004    16.621248820    39.138179189    -0.000263777     0.009429667     0.499911004
   61    20.085820308    11.994745154    40.041589015    -0.003459108    -0.022073650     0.499500539
   62    19.917589503    17.510655616    32.475751082     0.008283522     0.009005803     0.499850256
   63    13.180168807    18.044287134    39.669587040    -0.008882169     0.002315297     0.499915739
   64    14.520128291    19.365979288    30.736405879    -0.007141730     0.009453694     0.499859604
   65    15.647074001    14.092603204    33.583358450    -0.059682325     0.027350724     0.495671220
   66    12.045383576    16.974350654    38.176714398    -0.015452895     0.000253895     0.499761086
   67    18.876367043    13.003254713    38.288510502     0.011342064     0.002145007     0.499866739
   68    12.039407849    12.533740823    35.387878435    -0.049742363    -0.220487210     0.445994493
   21    22.933270250    16.747050881    34.454381179     0.003998641    -0.025476054    -0.499334539
   22    30.265575920    12.130673336    36.494307900    -0.026277031    -0.140161030     0.479233141
   23    30.149649502    19.657999047    37.359147531    -0.014563462    -0.004339880     0.499769018
   24    25.096440076    14.545712695    38.187258951    -0.003550617     0.015596785     0.499744068
   25    26.375098886    10.789562978    31.472275022    -0.010959387     0.013212224     0.499705242
   26    22.934324843    11.371940861    38.009420230    -0.002277858    -0.414383154    -0.279788157
   27    21.598948020    13.372199338    33.297623655     0.050979014     0.044437382     0.495405348
   28    28.592108738    15.811013085    31.566902519     0.013192824     0.010389136     0.499717936
   29    29.304738559    18.463825988    35.646417345    -0.016267561    -0.008065614     0.499670204
   30    28.074705289    19.377487368    32.343462619     0.004326669    -0.005047233     0.499955803
   31    26.587074350    20.341238060    39.357853835     0.004652974     0.008608044     0.499904242
   32    28.713949239    10.992225297    38.586782337    -0.008659198     0.002119629     0.499920519
   33    21.777172570    18.366551885    35.988999722    -0.002377039    -0.000118957     0.499994336
   34    31.374476541    13.351317846    38.707232197    -0.031415283    -0.422211598     0.265989561
   35    28.746765753    17.952962111    30.883444696     0.009510078     0.005338326     0.499881047
   36    28.260534121    12.939721987    36.217515403    -0.007203416    -0.092554337     0.491306224
   37    28.766093482    15.552601872    38.154226662    -0.008207886     0.006271339     0.499893290
   38    26.851141672    16.469808643    34.853365409     0.006339103    -0.007546843     0.499902851
   39    29.037648373    16.165149356    34.278891399     0.021309542     0.001035427     0.499544624
   40    23.804058805    19.183905104    36.825856300    -0.001050009     0.009377691     0.499910948
   41    27.303430848    12.375809668    34.266833413     0.002123509    -0.071372431     0.494875203
   42    21.587541128    18.817397134    33.715867463     0.003656093     0.014811747     0.499767191
   43    25.125351855    17.402087628    35.860258474     0.002497859    -0.003724994     0.499979885
   44    30.065747063    14.401429017    35.143597308     0.025577672    -0.005913824     0.499310334
   45    25.405177873    19.918136467    35.319422559    -0.007015052     0.009484875     0.499860807
   46    28.497204284    11.596640107    32.619163904     0.012055660    -0.056234370     0.496681343
   47    27.921668314    12.166373847    40.183928634    -0.010800327     0.004894190     0.499859380
   48    31.126583420    13.823223714    31.105030725     0.006345691     0.011538696     0.499826561
   49    24.366049857    15.675382321    32.194925553     0.014073676    -0.039882222    -0.498208129
   50    27.520809882    19.749468657    37.315979464    -0.015537740     0.024725036     0.499146523
   51    30.797779985    16.183081035    31.244364349     0.000278470     0.014358414     0.499793716
   52    30.505232555    19.945462793    31.945542978    -0.025407756     0.004879978     0.499330183
   53    29.774459219    14.625624412    39.868555784    -0.001213502     0.011602557     0.499863890
   54    25.933571451    12.732333700    40.179973523     0.001107105    -0.022746965     0.499481081
   55    24.379794596    20.400642928    33.081380057    -0.008302385     0.006320384     0.499891111
   56    27.490936130    14.393264578    40.045432770    -0.004998817     0.008298851     0.499906132
   57    26.380602648    16.319432282    37.675201426    -0.003523700     0.004627633     0.499966167
   58    25.253562993    10.607564098    37.465531097    -0.006526333     0.008530218     0.499884629
   59    26.905293034    12.086593872    38.180644809    -0.006499486    -0.001896889     0.499954156
   60    30.010598954    16.765909032    39.426266058    -0.004711895     0.008989278     0.499896980
   61    30.175476258    12.139405366    40.329675884    -0.009279033    -0.022567369     0.499404259
   62    30.007245453    17.655315828    32.763837952     0.005337335     0.009318840     0.499884659
   63    23.269824757    18.188947345    39.957673910    -0.008335912     0.003483070     0.499918374
   64    24.609784241    19.510639499    31.024492749    -0.009902706     0.011025733     0.499780321
   65    25.736729950    14.237263415    33.871445320    -0.070638498     0.017193639     0.494686346
   66    22.135039526    17.119010866    38.464801267    -0.013661161     0.002276508     0.499808153
   67    28.966022993    13.147914925    38.576597372     0.004962575     0.004320418     0.499956705
   68    22.129063799    12.678401035    35.675965304    -0.042549234    -0.220222580     0.446868636
   21    33.022926200    16.891711093    34.742468049     0.007572330    -0.018984715    -0.499582066
   22    40.355231870    12.275333547    36.782394769    -0.041294450    -0.139226938     0.478446056
   23    40.239305452    19.802659259    37.647234400    -0.021593651    -0.004916633     0.499509300
   24    35.186096025    14.690372907    38.475345821    -0.005378250     0.017372064     0.499669176
   25    36.464754835    10.934223190    31.760361892    -0.015222662     0.011022976     0.499646640
   26    33.023980792    11.516601072    38.297507099    -0.003430598    -0.414915403    -0.278986450
   27    31.688603970    13.516859550    33.585710525     0.048142309     0.043635592     0.495760278
   28    38.681764687    15.955673297    31.854989389     0.008050780     0.008225273     0.499867512
   29    39.394394509    18.608486199    35.934504215    -0.024110723    -0.007443833     0.499362856
   30    38.164361238    19.522147580    32.631549489    -0.006218000    -0.009199391     0.499876692
   31    36.676730300    20.485898272    39.645940704    -0.002515240     0.004823757     0.499970404
   32    38.803605188    11.136885509    38.874869207    -0.011858807     0.002478489     0.499853204
   33    31.866828520    18.511212096    36.277086591    -0.006401542    -0.009641178     0.499866050
   34    41.464132491    13.495978057    38.995319066    -0.067310886    -0.419831023     0.263080133
   35    38.836421703    18.097622323    31.171531566     0.002427547     0.003829104     0.499979445
   36    38.350190071    13.084382199    36.505602273    -0.017636899    -0.093095836     0.490940022
   37    38.855749432    15.697262083    38.442313532    -0.011976718     0.007308100     0.499803111
   38    36.940797622    16.614468854    35.141452278     0.005480675    -0.005441785     0.499940346
   39    39.127304322    16.309809568    34.566978269     0.017972069     0.000372753     0.499676761
   40    33.893714755    19.328565316    37.113943170    -0.005109187     0.005249874     0.499946332
   41    37.393086798    12.520469880    34.554920282    -0.007343434    -0.072697578     0.494632324
   42    31.677197078    18.962057346    34.003954333    -0.000172836     0.011112068     0.499876477
   43    35.215007805    17.546747840    36.148345344     0.002071329    -0.001394774     0.499993764
   44    40.155403013    14.546089229    35.431684177     0.021504666    -0.007704281     0.499477921
   45    35.494833823    20.062796678    35.607509429    -0.010762215     0.007461498     0.499828471
   46    38.586860233    11.741300319    32.907250774     0.003506510    -0.057779093     0.496637978
   47    38.011324263    12.311034058    40.472015503    -0.014995610     0.006853127     0.499728092
   48    41.216239369    13.967883926    31.393117595     0.004331085     0.009492864     0.499891115
   49    34.455705807    15.820042533    32.483012422     0.023114329    -0.029499880    -0.498593507
   50    37.610465831    19.894128869    37.604066334    -0.022833926     0.021528205     0.499014176
   51    40.887435935    16.327741247    31.532451219    -0.003982261     0.012966037     0.499815990
   52    40.594888505    20.090123005    32.233629847    -0.032064478     0.002566473     0.498964210
   53    39.864115169    14.770284624    40.156642654    -0.004962218     0.012998115     0.499806388
   54    36.023227400    12.876993912    40.468060392    -0.008166839    -0.021481046     0.499471588
   55    34.469450546    20.545303139    33.369466926    -0.013102682     0.005132268     0.499801940
   56    37.580592079    14.537924790    40.333519639    -0.008349731     0.010145785     0.499827315
   57    36.470258598    16.464092494    37.963288295    -0.005160905     0.006625544     0.499929462
   58    35.343218943    10.752224309    37.753617967    -0.009501108     0.008360422     0.499839807
   59    36.994948984    12.231254083    38.468731679    -0.009579864    -0.001735170     0.499905206
   60    40.100254903    16.910569243    39.714352928    -0.010294982     0.010098905     0.499791982
   61    40.265132207    12.284065578    40.617762754    -0.014696477    -0.020540053     0.499361712
   62    40.096901403    17.799976039    33.051924822     0.000923710     0.008039432     0.499934510
   63    33.359480706    18.333607557    40.245760779    -0.012568896     0.003103362     0.499832364
   64    34.699440191    19.655299711    31.312579619    -0.014677923     0.009926629     0.499685922
   65    35.826385900    14.381923627    34.159532189    -0.095438539     0.000797258     0.490806326
   66    32.224695476    17.263671078    38.752888137    -0.017996543     0.001278384     0.499674384
   67    39.055678942    13.292575137    38.864684241     0.001676538     0.004107065     0.499980321
   68    32.218719749    12.823061247    35.964052174    -0.043654385    -0.218391586     0.447659927
   21     2.889033821    26.482823979    33.908832864     0.007657010    -0.016890342    -0.499655968
   22    10.221339492    21.866446433    35.948759584    -0.028332824    -0.143668678     0.478075896
   23    10.105413073    29.393772145    36.813599215    -0.009148175    -0.008896247     0.499837141
   24     5.052203647    24.281485793    37.641710636     0.000291539     0.011410410     0.499869701
   25     6.330862457    20.525336076    30.926726707    -0.006495354     0.007434260     0.499902533
   26     2.890088414    21.107713958    37.463871914    -0.013171577    -0.410953751    -0.284505755
   27     1.554711591    23.107972436    32.752075339     0.040840620     0.048194279     0.495993302
   28     8.547872309    25.546786183    31.021354203     0.018284362     0.004043451     0.499649210
   29     9.260502130    28.199599085    35.100869030    -0.010849047    -0.012902549     0.499715742
   30     8.030468860    29.113260466    31.797914304     0.006839171    -0.014893124     0.499731348
   31     6.542837922    30.077011158    38.812305519     0.008037133     0.002210305     0.499930514
   32     8.669712810    20.727998395    38.041234021    -0.004582199     0.001579136     0.499976509
   33     1.732936142    28.102324982    35.443451406    -0.005587863    -0.012499510     0.499812503
   34    11.330240113    23.087090943    38.161683881    -0.046147792    -0.422889400     0.262745004
   35     8.702529324    27.688735209    30.337896380     0.013897431    -0.001765841     0.499803705
   36     8.216297693    22.675495085    35.671967088    -0.006094598    -0.097235306     0.490416304
   37     8.721857054    25.288374970    37.608678347    -0.002530104     0.002404035     0.499987819
   38     6.806905244    26.205581740    34.307817093     0.009927268    -0.013581348     0.499716916
   39     8.993411944    25.900922454    33.733343084     0.025849626    -0.005324606     0.499302960
   40     3.759822376    28.919678202    36.280307984    -0.000682997     0.001198460     0.499998097
   41     7.259194420    22.111582766    33.721285097     0.003116800    -0.076468888     0.494108080
   42     1.543304699    28.553170232    33.170319147    -0.002190480     0.009206728     0.499910430
   43     5.081115427    27.137860726    35.314710158     0.005877382    -0.009709226     0.499871171
   44    10.021510635    24.137202115    34.598048992     0.029782889    -0.012385557     0.498958493
   45     5.360941445    29.653909564    34.773874244    -0.004012831     0.003258464     0.499973279
   46     8.452967855    21.332413205    32.073615588     0.014186485    -0.061586949     0.495989709
   47     7.877431885    21.902146944    39.638380318    -0.007313518     0.003295026     0.499935651
   48    11.082346991    23.558996812    30.559482409     0.012386769     0.005340325     0.499818016
   49     4.321813429    25.411155419    31.649377237     0.022929019    -0.024902773    -0.498852796
   50     7.476573453    29.485241755    36.770431148    -0.011255072     0.018404969     0.499534364
   51    10.753543557    25.918854133    30.698816034     0.005577849     0.008373167     0.499898767
   52    10.460996127    29.681235891    31.399994662    -0.020687422    -0.003249755     0.499561277
   53     9.730222790    24.361397510    39.323007468     0.004468318     0.007769542     0.499919662
   54     5.889335022    22.468106798    39.634425207    -0.008012063    -0.021699854     0.499464637
   55     4.335558168    30.136416025    32.535831741    -0.004615809     0.001251968     0.499977126
   56     7.446699701    24.129037676    39.499884454    -0.001420478     0.007252403     0.499945382
   57     6.336366220    26.055205380    37.129653110     0.000099070    -0.000231760     0.499999936
   58     5.209326565    20.343337195    36.919982781    -0.003174499     0.007815332     0.499928838
   59     6.861056606    21.822366969    37.635096493    -0.004116800    -0.002346641     0.499977545
   60     9.966362525    26.501682129    38.880717742     0.000470144     0.004032719     0.499983516
   61    10.131239829    21.875178464    39.784127569    -0.004891028    -0.025263095     0.499337415
   62     9.963009025    27.391088925    32.218289636     0.010737499     0.003002996     0.499875673
   63     3.225588328    27.924720443    39.412125594    -0.011951862     0.000457188     0.499856923
   64     4.565547812    29.246412597    30.478944433    -0.006930782     0.006143978     0.499914208
   65     5.692493522    23.973036513    33.325897004    -0.070131778    -0.003588233     0.495044097
   66     2.090803098    26.854783964    37.919252952    -0.019125474    -0.001287197     0.499632424
   67     8.921786564    22.883688023    38.031049056     0.011145423    -0.000521810     0.499875492
   68     2.084827370    22.414174133    35.130416989    -0.058147146    -0.218857511     0.445780550
   21    12.978689771    26.627484190    34.196919733     0.001315891    -0.014383792    -0.499791331
   22    20.310995441    22.011106645    36.236846454    -0.013690749    -0.144133748     0.478579174
   23    20.195069023    29.538432357    37.101686085    -0.009854762    -0.010571503     0.499791083
   24    15.141859597    24.426146005    37.929797505     0.000419779     0.012360108     0.499847028
   25    16.420518407    20.669996287    31.214813576    -0.005867992     0.007721979     0.499905929
   26    12.979744364    21.252374170    37.751958784    -0.021980186    -0.413255754    -0.280600345
   27    11.644367541    23.252632647    33.040162209     0.054821893     0.039142975     0.495441609
   28    18.637528259    25.691446394    31.309441073     0.014089714     0.008613553     0.499727212
   29    19.350158080    28.344259297    35.388955899    -0.011703798    -0.014414946     0.499655112
   30    18.120124810    29.257920677    32.086001173    -0.003100487    -0.007440440     0.499935023
   31    16.632493871    30.221671370    39.100392389     0.007690831    -0.001187219     0.499939438
   32    18.759368760    20.872658606    38.329320891    -0.000931449     0.001631626     0.499996470
   33    11.822592091    28.246985194    35.731538276     0.000244368    -0.015406357     0.499762528
   34    21.419896063    23.231751155    38.449770751    -0.014642683    -0.424132680     0.264380524
   35    18.792185274    27.833395421    30.625983250     0.009180230     0.003981845     0.499899858
   36    18.305953643    22.820155296    35.960053957     0.002766720    -0.096596564     0.490572573
   37    18.811513004    25.433035181    37.896765216    -0.003584406     0.003293038     0.499976307
   38    16.896561194    26.350241952    34.595903963     0.009518034    -0.013013803     0.499739980
   39    19.083067894    26.045582666    34.021429953     0.024593830    -0.002238395     0.499389761
   40    13.849478326    29.064338413    36.568394854     0.002942378    -0.001350475     0.499989519
   41    17.348850370    22.256242977    34.009371967     0.010266894    -0.075747357     0.494122382
   42    11.632960649    28.697830443    33.458406017     0.006026781     0.005877049     0.499929133
   43    15.170771376    27.282520937    35.602797028     0.006103868    -0.010171267     0.499859268
   44    20.111166585    24.281862326    34.886135862     0.029215373    -0.009862354     0.499048290
   45    15.450597394    29.798569776    35.061961113    -0.002096522    -0.001398721     0.499993648
   46    18.542623805    21.477073417    32.361702458     0.018372389    -0.061263462     0.495892371
   47    17.967087835    22.046807156    39.926467187    -0.003622710     0.004459367     0.499966989
   48    21.172002941    23.703657023    30.847569279     0.009859455     0.008209969     0.499835360
   49    14.411469379    25.555815631    31.937464107     0.007802972    -0.028213076    -0.499142400
   50    17.566229403    29.629901966    37.058518018    -0.012645063     0.015256413     0.499607190
   51    20.843199506    26.063514345    30.986902903     0.002885241     0.012564870     0.499833772
   52    20.550652076    29.825896102    31.688081532    -0.026348889     0.003836397     0.499290515
   53    19.819878740    24.506057722    39.611094338     0.003738235     0.009094671     0.499903303
   54    15.978990972    22.612767010    39.922512077    -0.000186506    -0.023651565     0.499440255
   55    14.425214118    30.281076237    32.823918611    -0.006941630    -0.000673732     0.499951357
   56    17.536355651    24.273697888    39.787971324     0.000510653     0.007792784     0.499939008
   57    16.426022169    26.199865592    37.417739980     0.000153247     0.000728247     0.499999446
   58    15.298982515    20.487997407    37.208069651    -0.002020925     0.007561569     0.499938735
   59    16.950712556    21.967027181    37.923183363    -0.002331542    -0.001673258     0.499991764
   60    20.056018475    26.646342341    39.168804612    -0.001005863     0.005835986     0.499964928
   61    20.220895779    22.019838675    40.072214438    -0.001286855    -0.023752949     0.499433821
   62    20.052664974    27.535749137    32.506376506     0.008430776     0.007044813     0.499879278
   63    13.315244278    28.069380655    39.700212464    -0.006597689     0.000085687     0.499956461
   64    14.655203762    29.391072809    30.767031303    -0.009207637     0.004270014     0.499896976
   65    15.782149472    24.117696725    33.613983874    -0.002987939     0.010829491     0.499873778
   66    12.180459047    26.999444175    38.207339821    -0.012350356    -0.003176343     0.499837353
   67    19.011442514    23.028348234    38.319135926     0.012892526     0.000979329     0.499832796
   68    12.174483320    22.558834344    35.418503858    -0.049825815    -0.220908075     0.445776862
   21    23.068345721    26.772144402    34.485006603     0.000842904    -0.019086314    -0.499634869
   22    30.400651391    22.155766857    36.524933323    -0.022645251    -0.142656178     0.478681948
   23    30.284724973    29.683092568    37.389772954    -0.015397706    -0.003435107     0.499751049
   24    25.231515547    24.570806216    38.217884375    -0.001630770     0.015087368     0.499769659
   25    26.510174357    20.814656499    31.502900446    -0.008273244     0.011257090     0.499804793
   26    23.069400314    21.397034382    38.040045653    -0.002654913    -0.416001927    -0.277372219
   27    21.734023491    23.397292859    33.328249078     0.048708653     0.043295167     0.495734804
   28    28.727184209    25.836106606    31.597527943     0.013936606     0.009661069     0.499712352
   29    29.439814030    28.488919509    35.677042769    -0.017305532    -0.006768705     0.499654584
   30    28.209780760    29.402580889    32.374088043     0.004801142    -0.003088975     0.499967406
   31    26.722149821    30.366331581    39.388479258     0.003614411     0.008647456     0.499912150
   32    28.849024710    21.017318818    38.617407761    -0.004897862     0.002442405     0.499970045
   33    21.912248041    28.391645406    36.019625145     0.002797025    -0.009715298     0.499897779
   34    31.509552012    23.376411367    38.737857620    -0.020463823    -0.423811308     0.264509371
   35    28.881841224    27.978055632    30.914070120     0.010093122     0.005270454     0.499870334
   36    28.395609592    22.964815508    36.248140827    -0.003976713    -0.094646941     0.490944134
   37    28.901168954    25.577695393    38.184852086    -0.006519348     0.005846941     0.499923305
   38    26.986217143    26.494902164    34.883990832     0.007722725    -0.009211564     0.499855486
   39    29.172723844    26.190242877    34.309516823     0.022595348     0.000050982     0.499489187
   40    23.939134276    29.208998625    36.856481724     0.000669070     0.005263389     0.499971848
   41    27.438506319    22.400903189    34.297458836     0.004419205    -0.073487615     0.494550342
   42    21.722616599    28.842490655    33.746492887     0.005750724     0.009591874     0.499874909
   43    25.260427326    27.427181149    35.890883898     0.004121044    -0.005585743     0.499951814
   44    30.200822534    24.426522538    35.174222731     0.027021051    -0.007074685     0.499219202
   45    25.540253344    29.943229988    35.350047983    -0.005573351     0.007303334     0.499915592
   46    28.632279755    21.621733629    32.649789328     0.014134857    -0.058306936     0.496387457
   47    28.056743785    22.191467368    40.214554057    -0.007108195     0.006383133     0.499908721
   48    31.261658891    23.848317235    31.135656149     0.006407833     0.010298679     0.499852855
   49    24.501125328    25.700475842    32.225550976     0.015837256    -0.028003722    -0.498963899
   50    27.655885353    29.774562178    37.346604888    -0.016179476     0.024077582     0.499157785
   51    30.932855456    26.208174556    31.274989773     0.001084152     0.013958686     0.499803941
   52    30.640308026    29.970556314    31.976168401    -0.024905214     0.005171575     0.499352566
   53    29.909534690    24.650717933    39.899181208     0.001400452     0.011992126     0.499854206
   54    26.068646922    22.757427221    40.210598946    -0.008306462    -0.018639877     0.499583384
   55    24.514870068    30.425736449    33.112005480    -0.007074306     0.005618210     0.499918383
   56    27.626011601    24.418358099    40.076058193    -0.001739300     0.010501855     0.499886673
   57    26.515678119    26.344525803    37.705826849    -0.002083127     0.003630421     0.499982480
   58    25.388638464    20.632657619    37.496156521    -0.003234080     0.010417913     0.499880994
   59    27.040368505    22.111687393    38.211270233    -0.003257309    -0.000336814     0.499989276
   60    30.145674425    26.791002553    39.456891482    -0.003692370     0.008942460     0.499906390
   61    30.310551729    22.164498887    40.360301308    -0.004938745    -0.022025960     0.499490206
   62    30.142320924    27.680409349    32.794463376     0.006089758     0.009122212     0.499879686
   63    23.404900228    28.214040866    39.988299333    -0.007802012     0.002611130     0.499932306
   64    24.744859712    29.535733020    31.055118173    -0.008599759     0.010854156     0.499808195
   65    25.871805421    24.262356936    33.902070743    -0.073023955     0.001298988     0.494637053
   66    22.270114997    27.144104387    38.495426691    -0.013316193     0.000067107     0.499822643
   67    29.101098464    23.173008446    38.607222795     0.009425321     0.002522149     0.499904793
   68    22.264139270    22.703494556    35.706590728    -0.030090638    -0.222772818     0.446617090
   21    33.158001671    26.916804614    34.773093473     0.009331249    -0.020934244    -0.499474409
   22    40.490307341    22.300427068    36.813020193    -0.037947522    -0.141539516     0.478044507
   23    40.374380923    29.827752780    37.677859824    -0.020661700    -0.006059362     0.499536163
   24    35.321171496    24.715466428    38.505971244    -0.008073684     0.016804601     0.499652300
   25    36.599830306    20.959316711    31.790987315    -0.015746408     0.008900994     0.499672716
   26    33.159056263    21.541694593    38.328132523     0.014490313    -0.417274514    -0.275085461
   27    31.823679441    23.541953071    33.616335948     0.048741833     0.046727708     0.495419777
   28    38.816840158    25.980766818    31.885614812     0.006873704     0.008357359     0.499882893
   29    39.529469980    28.633579720    35.965129638    -0.022744554    -0.009385456     0.499394232
   30    38.299436709    29.547241101    32.662174913    -0.006060873    -0.009809949     0.499867013
   31    36.811805771    30.510991793    39.676566128    -0.001529725     0.004447487     0.499977879
   32    38.938680660    21.161979030    38.905494630    -0.011930347     0.000502706     0.499857394
   33    32.001903991    28.536305617    36.307712015    -0.006759969    -0.009317891     0.499867462
   34    41.599207962    23.521071578    39.025944490    -0.047995277    -0.422144048     0.263611184
   35    38.971497174    28.122715844    31.202156989     0.001776991     0.003315932     0.499985847
   36    38.485265542    23.109475720    36.536227697    -0.017865790    -0.094599621     0.490644194
   37    38.990824903    25.722355604    38.472938955    -0.012688412     0.005295417     0.499810927
   38    37.075873093    26.639562375    35.172077702    -0.002833891    -0.002828916     0.499983966
   39    39.262379794    26.334903089    34.597603692     0.013882322     0.000965921     0.499806311
   40    34.028790226    29.353658837    37.144568593    -0.006352398     0.005544061     0.499928905
   41    37.528162269    22.545563401    34.585545706    -0.009601394    -0.074024250     0.494396828
   42    31.812272549    28.987150867    34.034579756     0.000252363     0.011538423     0.499866783
   43    35.350083276    27.571841361    36.178970767    -0.004743769     0.000946989     0.499976599
   44    40.290478484    24.571182750    35.462309601     0.017547718    -0.006341070     0.499651747
   45    35.629909294    30.087890199    35.638134852    -0.012752656     0.007924693     0.499774518
   46    38.721935704    21.766393840    32.937876197     0.000987382    -0.059132695     0.496490030
   47    38.146399734    22.336127579    40.502640927    -0.012861582     0.004131310     0.499817479
   48    41.351314841    23.992977447    31.423743018     0.003563892     0.008853797     0.499908901
   49    34.590781278    25.845136054    32.513637846     0.023893040    -0.028567944    -0.498611066
   50    37.745541302    29.919222390    37.634691757    -0.022175421     0.021359596     0.499051118
   51    41.022511406    26.352834768    31.563076642    -0.004375552     0.012600864     0.499822041
   52    40.729963976    30.115216526    32.264255271    -0.032705322     0.002657542     0.498922138
   53    39.999190640    24.795378145    40.187268077    -0.005175013     0.010263192     0.499867869
   54    36.158302871    22.902087433    40.498685816    -0.000617998    -0.024052661     0.499420752
   55    34.604526017    30.570396660    33.400092350    -0.014351149     0.005425679     0.499764551
   56    37.715667550    24.563018311    40.364145063    -0.007176022     0.007477208     0.499892585
   57    36.605334069    26.489186015    37.993913719    -0.008865189     0.006397044     0.499880472
   58    35.478294414    20.777317830    37.784243390    -0.009705930     0.006636656     0.499861731
   59    37.130024455    22.256347604    38.499357102    -0.009680768    -0.004858648     0.499882663
   60    40.235330374    26.935662764    39.744978351    -0.009211568     0.007059128     0.499865298
   61    40.400207679    22.309159099    40.648388178    -0.010439383    -0.023974340     0.499315782
   62    40.231976874    27.825069560    33.082550245    -0.000285296     0.007629530     0.499941705
   63    33.494556177    28.358701078    40.276386203    -0.012240264     0.001908768     0.499846509
   64    34.834515662    29.680393232    31.343205042    -0.015632481     0.010301123     0.499649389
   65    35.961461371    24.407017148    34.190157613    -0.095605752    -0.000301181     0.490774337
   66    32.359770947    27.288764599    38.783513561    -0.017581682     0.000537703     0.499690500
   67    39.190754413    23.317668658    38.895309665     0.000647214     0.002018588     0.499995506
   68    32.353795220    22.848154768    35.994677597    -0.038967215    -0.221432441     0.446597392
   21     3.024109292    36.507917500    33.939458287     0.006442892    -0.019590681    -0.499574513
   22    10.356414963    31.891539954    35.979385008    -0.014748199    -0.147425941     0.477543802
   23    10.240488544    39.418865666    36.844224639    -0.013571453    -0.005870532     0.499781305
   24     5.187279118    34.306579314    37.672336059     0.000290128     0.011214722     0.499874130
   25     6.465937928    30.550429597    30.957352130    -0.000033272     0.003938592     0.499984486
   26     3.025163885    31.132807479    37.494497338    -0.042387912    -0.405667236    -0.289201242
   27     1.689787062    33.133065957    32.782700763     0.048694484     0.043798106     0.495692014
   28     8.682947780    35.571879704    31.051979627     0.016607290     0.005471852     0.499694163
   29     9.395577601    38.224692606    35.131494453    -0.014925661    -0.010343826     0.499670121
   30     8.165544331    39.138353987    31.828539727     0.004100231    -0.010602945     0.499870749
   31     6.677913393    40.102104679    38.842930943     0.007331624     0.007209582     0.499894258
   32     8.804788281    30.753091916    38.071859445     0.001188967    -0.002899649     0.499990178
   33     1.868011613    38.127418504    35.474076830    -0.004767922    -0.010535708     0.499866248
   34    11.465315584    33.112184464    38.192309305    -0.006928264    -0.426016851     0.261651756
   35     8.837604795    37.713828730    30.368521804     0.011709953     0.001175345     0.499861476
   36     8.351373164    32.700588606    35.702592511     0.002560224    -0.100136282     0.489863420
   37     8.856932525    35.313468491    37.639303770    -0.004605863     0.003040632     0.499969540
   38     6.941980715    36.230675261    34.338442517     0.008773850    -0.012209163     0.499773905
   39     9.128487415    35.926015975    33.763968507     0.024281067    -0.004723506     0.499387743
   40     3.894897847    38.944771723    36.310933408    -0.002130248     0.004033988     0.499979189
   41     7.394269891    32.136676287    33.751910521     0.011506455    -0.079114969     0.493567040
   42     1.678380170    38.578263753    33.200944571    -0.000999879     0.010854750     0.499881161
   43     5.216190898    37.162954247    35.345335582     0.006067069    -0.006826114     0.499916588
   44    10.156586106    34.162295636    34.628674415     0.028748418    -0.014288485     0.498968303
   45     5.496016916    39.679003085    34.804499667    -0.005887651     0.006415624     0.499924170
   46     8.588043326    31.357506726    32.104241012     0.021603025    -0.064118026     0.495401038
   47     8.012507356    31.927240465    39.669005741    -0.002582695     0.002241410     0.499988306
   48    11.217422462    33.584090333    30.590107833     0.013274677     0.002421456     0.499817886
   49     4.456888900    35.436248940    31.680002661    -0.002674587    -0.023218162    -0.499453465
   50     7.611648924    39.510335276    36.801056572    -0.013902408     0.023056724     0.499274584
   51    10.888619028    35.943947654    30.729441457     0.003421088     0.010482440     0.499878400
   52    10.596071598    39.706329412    31.430620086    -0.022562832     0.000044829     0.499490657
   53     9.865298261    34.386491031    39.353632892     0.002722896     0.008638328     0.499917958
   54     6.024410493    32.493200319    39.665050631     0.000888857    -0.027414551     0.499247085
   55     4.470633639    40.161509546    32.566457165    -0.006867059     0.005612496     0.499921337
   56     7.581775172    34.154131197    39.530509877    -0.000071541     0.005169588     0.499973270
   57     6.471441691    36.080298901    37.160278534    -0.000121013     0.000340106     0.499999870
   58     5.344402036    30.368430716    36.950608205    -0.000658427     0.002456167     0.499993534
   59     6.996132077    31.847460490    37.665721917     0.000923404    -0.008706446     0.499923339
   60    10.101437996    36.526775650    38.911343166    -0.002453773     0.006802929     0.499947696
   61    10.266315300    31.900271985    39.814752992    -0.000568603    -0.026287826     0.499308148
   62    10.098084496    37.416182446    32.248915060     0.007743081     0.005787827     0.499906537
   63     3.360663799    37.949813964    39.442751018    -0.011912445     0.002990961     0.499849125
   64     4.700623283    39.271506118    30.509569857    -0.009220126     0.010531950     0.499804029
   65     5.827568993    33.998130034    33.356522428    -0.056545350    -0.019321780     0.496416450
   66     2.225878569    36.879877485    37.949878375    -0.018494405     0.000233411     0.499657785
   67     9.056862035    32.908781544    38.061674480     0.013055243    -0.001841473     0.499826139
   68     2.219902841    32.439267654    35.161042412    -0.058566461    -0.220436791     0.444946728
   21    13.113765242    36.652577711    34.227545157     0.006325919    -0.018230955    -0.499627476
   22    20.446070912    32.036200166    36.267471877    -0.016042233    -0.147216744     0.477566620
   23    20.330144494    39.563525878    37.132311508    -0.017731533    -0.005962546     0.499649918
   24    15.276935068    34.451239526    37.960422929    -0.001990035     0.012422984     0.499841684
   25    16.555593878    30.695089808    31.245439000    -0.008643913     0.008446545     0.499853917
   26    13.114819835    31.277467691    37.782584207     0.035576978    -0.406463457    -0.289001275
   27    11.779443012    33.277726168    33.070787632     0.050483631     0.035973787     0.496142409
   28    18.772603730    35.716539915    31.340066497     0.014424694     0.009880265     0.499694215
   29    19.485233551    38.369352818    35.419581323    -0.019399203    -0.008556715     0.499550251
   30    18.255200281    39.283014198    32.116626597     0.004896662    -0.005590962     0.499944761
   31    16.767569342    40.246764891    39.131017812    -0.000370116     0.002638899     0.499992899
   32    18.894444231    30.897752128    38.359946314    -0.002353160    -0.006237102     0.499955559
   33    11.957667562    38.272078715    35.762163699    -0.003050631    -0.011989440     0.499846924
   34    21.554971534    33.256844676    38.480396174    -0.005944874    -0.427795133     0.258758541
   35    18.927260745    37.858488942    30.656608674     0.010141862     0.005372202     0.499868265
   36    18.441029114    32.845248818    35.990679381    -0.000286012    -0.098228571     0.490256123
   37    18.946588475    35.458128702    37.927390640    -0.008210143     0.001944307     0.499928808
   38    17.031636665    36.375335473    34.626529386     0.003835527    -0.006270565     0.499945966
   39    19.218143365    36.070676187    34.052055377     0.020687267     0.001216982     0.499570371
   40    13.984553797    39.089431934    36.599020277    -0.003105103     0.003465411     0.499978349
   41    17.483925841    32.281336498    34.039997390     0.007625599    -0.076294496     0.494086025
   42    11.768036120    38.722923965    33.489031441     0.002118680     0.008646552     0.499920742
   43    15.305846847    37.307614458    35.633422452    -0.001555897    -0.001240188     0.499996041
   44    20.246242056    34.306955847    34.916761285     0.025076299    -0.008038206     0.499306085
   45    15.585672865    39.823663297    35.092586537    -0.009177366     0.006098716     0.499878567
   46    18.677699276    31.502166938    32.392327882     0.017442952    -0.060459352     0.496024606
   47    18.102163306    32.071900677    39.957092611    -0.005868551    -0.001036421     0.499964485
   48    21.307078412    33.728750544    30.878194703     0.008370189     0.009414540     0.499841281
   49    14.546544850    35.580909152    31.968089530     0.020398605    -0.030624454    -0.498644202
   50    17.701304874    39.654995487    37.089143442    -0.020628343     0.019596982     0.499189773
   51    20.978274977    36.088607866    31.017528327     0.000712480     0.014269159     0.499795842
   52    20.685727547    39.850989623    31.718706955    -0.024765594     0.002755599     0.499378686
   53    19.954954211    34.531151243    39.641719762    -0.003234745     0.004354280     0.499970576
   54    16.114066443    32.637860531    39.953137500     0.000530939    -0.030363472     0.499076926
   55    14.560289589    40.306169758    32.854544034    -0.008504381     0.005213022     0.499900490
   56    17.671431122    34.298791409    39.818596747     0.000087467     0.002441211     0.499994033
   57    16.561097640    36.224959113    37.448365403    -0.003366824     0.002382690     0.499982987
   58    15.434057986    30.513090928    37.238695074    -0.000399459     0.000142794     0.499999820
   59    17.085788027    31.992120702    37.953808787     0.001141578    -0.011057914     0.499876404
   60    20.191093946    36.671435862    39.199430036    -0.006076114     0.004352102     0.499944137
   61    20.355971250    32.044932196    40.102839862    -0.004095523    -0.028695738     0.499159074
   62    20.187740445    37.560842658    32.537001930     0.005399723     0.009047473     0.499888974
   63    13.450319749    38.094474176    39.730837887    -0.011073296     0.000740840     0.499876818
   64    14.790279233    39.416166330    30.797656726    -0.009722117     0.010225571     0.499800878
   65    15.917224943    34.142790246    33.644609297    -0.090280568    -0.004737206     0.491759065
   66    12.315534518    37.024537696    38.237965245    -0.016194884    -0.001217321     0.499736174
   67    19.146517985    33.053441755    38.349761349     0.008652914    -0.004078025     0.499908488
   68    12.309558791    32.583927865    35.449129282    -0.030948983    -0.225506447     0.445184235
   21    23.203421192    36.797237923    34.515632027     0.007106492    -0.019993028    -0.499549574
   22    30.535726862    32.180860378    36.555558747    -0.024019112    -0.140421365     0.479275414
   23    30.419800444    39.708186089    37.420398378    -0.018353917    -0.004532334     0.499642464
   24    25.366591018    34.595899737    38.248509798    -0.002096756     0.016133897     0.499735231
   25    26.645249828    30.839750020    31.533525869    -0.007088723     0.011332879     0.499821284
   26    23.204475785    31.422127903    38.070671077     0.026344531    -0.406458574    -0.289995506
   27    21.869098962    33.422386380    33.358874502     0.043739682     0.047136188     0.495847779
   28    28.862259680    35.861200127    31.628153366     0.011755420     0.009944581     0.499762859
   29    29.574889501    38.514013030    35.707668192    -0.019954573    -0.007817876     0.499540485
   30    28.344856231    39.427674410    32.404713467    -0.004189381    -0.002530960     0.499976043
   31    26.857225292    40.391425102    39.419104682     0.000153121     0.005370880     0.499971129
   32    28.984100181    31.042412339    38.648033184    -0.005485232     0.002666778     0.499962799
   33    22.047323512    38.416738927    36.050250569    -0.005678399    -0.010942543     0.499847993
   34    31.644627483    33.401504888    38.768483044    -0.029745688    -0.421347549     0.267547074
   35    29.016916695    38.003149153    30.944695543     0.006828057     0.005766892     0.499920114
   36    28.530685063    32.989909029    36.278766251    -0.004945998    -0.092967551     0.491256116
   37    29.036244425    35.602788914    38.215477509    -0.007585808     0.006519523     0.499899941
   38    27.121292614    36.519995685    34.914616256     0.006180837    -0.007295453     0.499908565
   39    29.307799315    36.215336398    34.340142246     0.020961190     0.001518819     0.499558126
   40    24.074209747    39.234092146    36.887107147    -0.004081477     0.004269833     0.499965109
   41    27.573581790    32.425996710    34.328084260     0.002568730    -0.072100146     0.494767592
   42    21.857692070    38.867584176    33.777118310    -0.000219952     0.010613918     0.499887284
   43    25.395502797    37.452274670    35.921509321     0.003273702    -0.002812973     0.499981370
   44    30.335898005    34.451616059    35.204848155     0.025341394    -0.005261217     0.499329684
   45    25.675328815    39.968323509    35.380673406    -0.009127576     0.007218397     0.499864564
   46    28.767355226    31.646827150    32.680414751     0.013682783    -0.056983402     0.496553797
   47    28.191819256    32.216560889    40.245179481    -0.006275579     0.006746266     0.499915098
   48    31.396734362    33.873410756    31.166281572     0.005662180     0.010166036     0.499864573
   49    24.636200799    35.725569363    32.256176400     0.022675166    -0.026859705    -0.498762863
   50    27.790960824    39.799655699    37.377230311    -0.019925543     0.021938591     0.499120898
   51    31.067930927    36.233268077    31.305615196    -0.000224284     0.014448198     0.499791156
   52    30.775383497    39.995649835    32.006793825    -0.029164087     0.006527991     0.499106042
   53    30.044610161    34.675811454    39.929806631    -0.000254159     0.012128271     0.499852819
   54    26.203722393    32.782520742    40.241224370     0.003001639    -0.021649885     0.499522044
   55    24.649945539    40.450829970    33.142630904    -0.010440095     0.006542598     0.499848176
   56    27.761087072    34.443451620    40.106683617    -0.000450883     0.010192568     0.499895897
   57    26.650753590    36.369619324    37.736452273    -0.002746070     0.004924018     0.499968212
   58    25.523713935    30.657751140    37.526781944    -0.003584974     0.009090343     0.499904505
   59    27.175443976    32.136780914    38.241895656    -0.003392142    -0.000339800     0.499988378
   60    30.280749896    36.816096074    39.487516905    -0.005484814     0.008812596     0.499892243
   61    30.445627200    32.189592408    40.390926731    -0.004274628    -0.021488821     0.499519727
   62    30.277396395    37.705502870    32.825088799     0.004524544     0.009585929     0.499887626
   63    23.539975699    38.239134387    40.018924757    -0.013013369    -0.000493004     0.499830380
   64    24.879935183    39.560826541    31.085743596    -0.012006922     0.011624092     0.499720636
   65    26.006880893    34.287450457    33.932696167    -0.063829270     0.009468154     0.495818695
   66    22.405190468    37.169197908    38.526052115    -0.018792702    -0.002610852     0.499639888
   67    29.236173935    33.198101967    38.637848219     0.008389676     0.004073539     0.499913012
   68    22.399214741    32.728588077    35.737216151    -0.030963301    -0.226468219     0.444694749
   21    33.293077142    36.941898135    34.803718896     0.007350143    -0.019275165    -0.499574262
   22    40.625382812    32.325520589    36.843645616    -0.036844361    -0.143064690     0.477676656
   23    40.509456394    39.852846301    37.708485247    -0.020131348    -0.003329021     0.499583473
   24    35.456246967    34.740559949    38.536596668    -0.003962022     0.015097414     0.499756311
   25    36.734905777    30.984410232    31.821612739    -0.015773608     0.008890864     0.499672038
   26    33.294131734    31.566788114    38.358757946     0.006823981    -0.420049815    -0.271130202
   27    31.958754912    33.567046592    33.646961372     0.046450398     0.047214387     0.495593747
   28    38.951915629    36.005860339    31.916240236     0.010255419     0.009337321     0.499807604
   29    39.664545451    38.658673241    35.995755062    -0.022190699    -0.006846021     0.499460414
   30    38.434512180    39.572334622    32.692800336    -0.005736636    -0.003866928     0.499952136
   31    36.946881242    40.536085314    39.707191551     0.001298219     0.006434383     0.499956911
   32    39.073756131    31.187072551    38.936120054    -0.011409253    -0.000313815     0.499869713
   33    32.136979462    38.561399138    36.338337439    -0.005735104    -0.009478740     0.499877247
   34    41.734283433    33.546165099    39.056569913    -0.058558984    -0.423180245     0.259787077
   35    39.106572645    38.147809365    31.232782413     0.004956277     0.005356158     0.499946744
   36    38.620341013    33.134569241    36.566853120    -0.014703562    -0.095966115     0.490483751
   37    39.125900374    35.747449126    38.503564379    -0.010340856     0.005313981     0.499864810
   38    37.210948564    36.664655896    35.202703125     0.005605780    -0.007264357     0.499915797
   39    39.397455265    36.359996610    34.628229116     0.019622655     0.000192705     0.499614766
   40    34.163865697    39.378752358    37.175194017    -0.003700767     0.005931598     0.499951118
   41    37.663237740    32.570656922    34.616171130    -0.006374716    -0.075172252     0.494275728
   42    31.947348020    39.012244388    34.065205180    -0.000417238     0.011450054     0.499868705
   43    35.485158747    37.596934882    36.209596191     0.002889421    -0.002338263     0.499986184
   44    40.425553955    34.596276271    35.492935024     0.023297467    -0.007691614     0.499397704
   45    35.764984765    40.112983720    35.668760276    -0.009158997     0.008576625     0.499842529
   46    38.857011175    31.791487361    32.968501621     0.004055586    -0.060113787     0.496356611
   47    38.281475205    32.361221100    40.533266350    -0.012852583     0.003203032     0.499824521
   48    41.486390312    34.018070968    31.454368442     0.004726722     0.009618953     0.499885121
   49    34.725856749    35.870229575    32.544263269     0.000846607     0.000736169    -0.499998741
   50    37.880616773    39.944315911    37.665317181    -0.019452040     0.023360261     0.499075061
   51    41.157586877    36.377928289    31.593702066    -0.001668584     0.013799922     0.499806741
   52    40.865039447    40.140310047    32.294880694    -0.030924133     0.005990154     0.499006830
   53    40.134266111    34.820471666    40.217893501    -0.003443723     0.010082157     0.499886478
   54    36.293378342    32.927180954    40.529311239    -0.000530012    -0.025096231     0.499369501
   55    34.739601488    40.595490181    33.430717773    -0.012305724     0.007381811     0.499794036
   56    37.850743021    34.588111832    40.394770486    -0.005277112     0.007259773     0.499919441
   57    36.740409540    36.514279536    38.024539142    -0.004055589     0.004485344     0.499963433
   58    35.613369885    30.802411351    37.814868814    -0.009656731     0.006228961     0.499867930
   59    37.265099926    32.281441125    38.529982526    -0.008784307    -0.005340186     0.499894307
   60    40.370405845    36.960756285    39.775603775    -0.007406077     0.007643516     0.499886714
   61    40.535283150    32.334252620    40.679013601    -0.011414691    -0.025286944     0.499229682
   62    40.367052345    37.850163081    33.113175669     0.003500939     0.008725007     0.499911610
   63    33.629631649    38.383794599    40.307011627    -0.012417263     0.002710905     0.499838436
   64    34.969591133    39.705486753    31.373830466    -0.014163244     0.012331721     0.499647207
   65    36.096536842    34.432110669    34.220783037    -0.075829169     0.025614653     0.493552253
   66    32.494846418    37.313858120    38.814138984    -0.018156149     0.000882939     0.499669465
   67    39.325829884    33.342762179    38.925935088     0.000885979     0.002067763     0.499994939
   68    32.488870691    32.873248289    36.025303021    -0.043140235    -0.218269702     0.447769201
