CRYSTAL
PRIMVEC
    40.358642790     0.578641119     1.152348021
     0.540302138    40.100392953     0.122501752
     1.147485224     0.128543006    40.047960291
PRIMCOORD
 3072    1
   21     1.758269367     6.336229727     3.811625931     0.402954744    -0.217973613     0.200287238
   22     9.090575037     1.719852182     5.851552651    -0.450859134     0.184131305    -0.113232962
   23     8.974648619     9.247177894     6.716392283    -0.399295018     0.231075204    -0.192789364
   24     3.921439192     4.134891542     7.544503703    -0.408409950     0.215517573    -0.191711992
   25     5.200098002     0.378741824     0.829519774    -0.392883520     0.235558186    -0.200386829
   26     1.759323959     0.961119707     7.366664982    -0.120340533    -0.363054480     0.322039750
   27     0.423947137     2.961378184     2.654868407    -0.408163222     0.226284833    -0.179437897
   28     7.417107854     5.400191931     0.924147271    -0.414659742     0.211655675    -0.182370977
   29     8.129737675     8.053004834     5.003662097    -0.391210254     0.237602389    -0.201245227
   30     6.899704405     8.966666214     1.700707371    -0.404488178     0.230449287    -0.182434755
   31     5.412073467     9.930416906     8.715098586    -0.397557651     0.240695380    -0.184427894
   32     7.538948355     0.581404143     7.944027089    -0.396437371     0.239936992    -0.187796835
   33     0.602171687     7.955730731     5.346244474    -0.398953378     0.238361538    -0.184445057
   34    10.199475658     2.940496692     8.064476948    -0.486931266    -0.086373887     0.073739365
   35     7.571764870     7.542140958     0.240689448    -0.406870766     0.226088904    -0.182592408
   36     7.085533238     2.528900833     5.574760155    -0.442241883     0.190553249    -0.134579255
   37     7.591092599     5.141780718     7.511471414    -0.400833359     0.227914855    -0.193358313
   38     5.676140789     6.058987489     4.210610160    -0.418397756     0.211237681    -0.174132018
   39     7.862647489     5.754328203     3.636136151    -0.426235787     0.198649081    -0.169887011
   40     2.629057922     8.773083950     6.183101052    -0.397744661     0.236586584    -0.189277503
   41     6.128429965     1.964988514     3.624078165    -0.441220617     0.189469521    -0.139375993
   42     0.412540245     8.406575980     3.073112215    -0.409299428     0.212839045    -0.192804355
   43     3.950350972     6.991266474     5.217503226    -0.415100790     0.214050229    -0.178532445
   44     8.890746180     3.990607863     4.500842059    -0.428030303     0.199294263    -0.164535272
   45     4.230176990     9.507315313     4.676667311    -0.403601735     0.223857280    -0.192337094
   46     7.322203400     1.185818954     1.976408656    -0.438925086     0.195708457    -0.137996264
   47     6.746667430     1.755552693     9.541173385    -0.404686086     0.223635643    -0.190305731
   48     9.951582536     3.412402560     0.462275477    -0.397866434     0.240903489    -0.183487900
   49     3.191048974     5.264561167     1.552170305     0.406048302    -0.198409913     0.213911858
   50     6.345808998     9.338647503     6.673224216    -0.392470310     0.230847755    -0.206582598
   51     9.622779102     5.772259882     0.601609101    -0.409679786     0.209923361    -0.195178522
   52     9.330231672     9.534641639     1.302787729    -0.392704748     0.226078779    -0.211356019
   53     8.599458335     4.214803259     9.225800536    -0.397192844     0.237506231    -0.189284534
   54     4.758570567     2.321512547     9.537218274    -0.393918676     0.256613360    -0.170228259
   55     3.204793713     9.989821774     2.438624809    -0.394158791     0.234749458    -0.198825400
   56     6.315935246     3.982443425     9.402677521    -0.404988556     0.225394170    -0.187567954
   57     5.205601765     5.908611129     7.032446177    -0.407345957     0.221267772    -0.187376212
   58     4.078562110     0.196742944     6.822775849    -0.395795914     0.238452990    -0.191012475
   59     5.730292151     1.675772718     7.537889561    -0.402428502     0.232014698    -0.184987786
   60     8.835598070     6.355087878     8.783510810    -0.397964043     0.232465238    -0.193867308
   61     9.000475374     1.728584212     9.686920636    -0.414355759     0.219709181    -0.173312380
   62     8.832244570     7.244494674     2.121082704    -0.411832348     0.211783852    -0.188525111
   63     2.094823873     7.778126192     9.314918662    -0.389984702     0.240324305    -0.200390022
   64     3.434783357     9.099818346     0.381737501    -0.396910240     0.225521517    -0.203966435
   65     4.561729067     3.826442261     3.228690072    -0.356245406     0.274607790    -0.218356984
   66     0.960038643     6.708189712     7.822046019    -0.386469120     0.244805858    -0.201771433
   67     7.791022109     2.737093771     7.933842124    -0.403928880     0.234935323    -0.177895627
   68     0.954062916     2.267579881     5.033210056    -0.464245897     0.170807515    -0.072804807
   21    11.847925316     6.480889939     4.099712801     0.403159824    -0.217726693     0.200143057
   22    19.180230987     1.864512394     6.139639521    -0.451588456     0.183695328    -0.111013030
   23    19.064304568     9.391838105     7.004479152    -0.399535563     0.230890286    -0.192512363
   24    14.011095142     4.279551753     7.832590573    -0.408649910     0.215384637    -0.191349704
   25    15.289753952     0.523402036     1.117606644    -0.393194787     0.235442444    -0.199911769
   26    11.848979909     1.105779919     7.654751851    -0.121680361    -0.376223648     0.306022313
   27    10.513603086     3.106038396     2.942955276    -0.408079464     0.226566023    -0.179273502
   28    17.506763804     5.544852143     1.212234141    -0.414677469     0.211947577    -0.181991266
   29    18.219393625     8.197665046     5.291748967    -0.391419880     0.237578014    -0.200866038
   30    16.989360355     9.111326426     1.988794241    -0.404575194     0.230589902    -0.182063753
   31    15.501729417    10.075077118     9.003185456    -0.397843767     0.240248698    -0.184393332
   32    17.628604305     0.726064355     8.232113958    -0.396852160     0.239738879    -0.187172734
   33    10.691827637     8.100390943     5.634331343    -0.399105432     0.238087584    -0.184469934
   34    20.289131608     3.085156904     8.352563818    -0.485822679    -0.088431278     0.078461669
   35    17.661420819     7.686801169     0.528776317    -0.406895591     0.226380796    -0.182174951
   36    17.175189188     2.673561045     5.862847025    -0.442813381     0.190312905    -0.133031229
   37    17.680748549     5.286440930     7.799558284    -0.401092525     0.227622213    -0.193165511
   38    15.765796739     6.203647701     4.498697030    -0.418545005     0.211273146    -0.173734672
   39    17.952303439     5.898988414     3.924223021    -0.426294496     0.198944392    -0.169393422
   40    12.718713871     8.917744162     6.471187921    -0.397962166     0.236265391    -0.189221510
   41    16.218085915     2.109648726     3.912165034    -0.441758105     0.189299700    -0.137896340
   42    10.502196194     8.551236192     3.361199084    -0.409333202     0.212652957    -0.192937942
   43    14.040006922     7.135926686     5.505590095    -0.415281494     0.213974182    -0.178203059
   44    18.980402130     4.135268075     4.788928929    -0.428061593     0.199697700    -0.163963719
   45    14.319832940     9.651975525     4.964754181    -0.403812344     0.223571105    -0.192227864
   46    17.411859350     1.330479165     2.264495525    -0.439373992     0.195585723    -0.136735951
   47    16.836323380     1.900212905     9.829260255    -0.404963153     0.223501941    -0.189872923
   48    20.041238486     3.557062772     0.750362347    -0.397923191     0.241214656    -0.182955251
   49    13.280704924     5.409221379     1.840257174     0.408845632    -0.197272068     0.209592416
   50    16.435464948     9.483307715     6.961311085    -0.392772071     0.230435671    -0.206469130
   51    19.712435052     5.916920093     0.889695971    -0.409698341     0.210265704    -0.194770642
   52    19.419887622     9.679301851     1.590874599    -0.392811107     0.226341386    -0.210876767
   53    18.689114285     4.359463470     9.513887405    -0.397430628     0.237221765    -0.189142090
   54    14.848226517     2.466172758     9.825305144    -0.393999533     0.256840633    -0.169697547
   55    13.294449663    10.134481985     2.726711678    -0.394385498     0.234458471    -0.198719159
   56    16.405591196     4.127103636     9.690764391    -0.405219582     0.225300912    -0.187180634
   57    15.295257715     6.053271340     7.320533047    -0.407563788     0.221147739    -0.187043942
   58    14.168218060     0.341403156     7.110862718    -0.396153034     0.238462325    -0.190259016
   59    15.819948101     1.820432930     7.825976431    -0.402805191     0.231909640    -0.184298391
   60    18.925254020     6.499748089     9.071597680    -0.398275683     0.232074767    -0.193695077
   61    19.090131324     1.873244424     9.975007506    -0.414672418     0.219447345    -0.172886230
   62    18.921900520     7.389154886     2.409169573    -0.411856487     0.212083430    -0.188135198
   63    12.184479823     7.922786403     9.603005531    -0.390073234     0.240078938    -0.200511784
   64    13.524439307     9.244478557     0.669824370    -0.397125335     0.225212478    -0.203889205
   65    14.651385017     3.971102473     3.516776941    -0.364627730     0.286175686    -0.187483586
   66    11.049694593     6.852849924     8.110132889    -0.386483030     0.244695891    -0.201878153
   67    17.880678059     2.881753983     8.221928993    -0.404274326     0.234679226    -0.177448387
   68    11.043718865     2.412240093     5.321296926    -0.465165298     0.167613602    -0.074343301
   21    21.937581266     6.625550151     4.387799670     0.403067611    -0.218270520     0.199736028
   22    29.269886936     2.009172605     6.427726391    -0.451385122     0.183660794    -0.111893629
   23    29.153960518     9.536498317     7.292566022    -0.399403488     0.231098091    -0.192537077
   24    24.100751092     4.424211965     8.120677442    -0.408717426     0.215335867    -0.191260372
   25    25.379409902     0.668062247     1.405693513    -0.393353226     0.235588178    -0.199427806
   26    21.938635859     1.250440130     7.942838721    -0.116637121    -0.375856649     0.308427563
   27    20.603259036     3.250698608     3.231042146    -0.407534132     0.227559329    -0.179255917
   28    27.596419754     5.689512354     1.500321010    -0.414898590     0.211910435    -0.181529964
   29    28.309049575     8.342325257     5.579835836    -0.391362465     0.237721391    -0.200808270
   30    27.079016305     9.255986637     2.276881110    -0.404673090     0.230645082    -0.181776060
   31    25.591385366    10.219737330     9.291272326    -0.397871196     0.240236708    -0.184349765
   32    27.718260255     0.870724567     8.520200828    -0.396849074     0.239813769    -0.187083320
   33    20.781483586     8.245051154     5.922418213    -0.399108331     0.238267557    -0.184231136
   34    30.378787558     3.229817115     8.640650688    -0.486346148    -0.088536401     0.075024866
   35    27.751076769     7.831461381     0.816863187    -0.407069630     0.226343313    -0.181832398
   36    27.264845138     2.818221257     6.150933894    -0.442699983     0.190286519    -0.133445740
   37    27.770404499     5.431101141     8.087645153    -0.401101386     0.227653740    -0.193109950
   38    25.855452689     6.348307912     4.786783900    -0.418680399     0.211135135    -0.173576146
   39    28.041959389     6.043648626     4.212309890    -0.426473380     0.198733638    -0.169190416
   40    22.808369821     9.062404373     6.759274791    -0.397942256     0.236441075    -0.189043855
   41    26.307741865     2.254308937     4.200251904    -0.441690945     0.189241321    -0.138191285
   42    20.591852144     8.695896404     3.649285954    -0.409362682     0.212915668    -0.192585339
   43    24.129662871     7.280586898     5.793676965    -0.415381639     0.213914954    -0.178040689
   44    29.070058080     4.279928286     5.077015799    -0.428282729     0.199378691    -0.163774362
   45    24.409488889     9.796635736     5.252841050    -0.403835719     0.223675055    -0.192057756
   46    27.501515300     1.475139377     2.552582395    -0.439383895     0.195464549    -0.136877326
   47    26.925979330     2.044873116    10.117347125    -0.404992814     0.223418650    -0.189907680
   48    30.130894436     3.701722983     1.038449216    -0.398095108     0.241522265    -0.182173764
   49    23.370360874     5.553881591     2.128344044     0.407412110    -0.197842544     0.211834134
   50    26.525120898     9.627967926     7.249397955    -0.392717508     0.230509986    -0.206489963
   51    29.802091001     6.061580305     1.177782840    -0.409880849     0.210194499    -0.194463268
   52    29.509543571     9.823962063     1.878961469    -0.392836784     0.226577392    -0.210575276
   53    28.778770235     4.504123682     9.801974275    -0.397432181     0.237296777    -0.189044706
   54    24.937882467     2.610832970    10.113392014    -0.394305032     0.256235537    -0.169902594
   55    23.384105613    10.279142197     3.014798548    -0.394383464     0.234666069    -0.198478007
   56    26.495247146     4.271763848     9.978851261    -0.405290496     0.225150558    -0.187208013
   57    25.384913664     6.197931552     7.608619917    -0.407622274     0.221108938    -0.186962348
   58    24.257874010     0.486063367     7.398949588    -0.396300574     0.238461732    -0.189952251
   59    25.909604051     1.965093141     8.114063300    -0.402886219     0.231895379    -0.184139153
   60    29.014909970     6.644408301     9.359684549    -0.398257092     0.232099833    -0.193703268
   61    29.179787274     2.017904635    10.263094375    -0.414645650     0.219403726    -0.173005751
   62    29.011556469     7.533815097     2.697256443    -0.412015761     0.211988332    -0.187893480
   63    22.274135773     8.067446615     9.891092401    -0.390337569     0.239744971    -0.200396934
   64    23.614095257     9.389138769     0.957911240    -0.397139087     0.225449923    -0.203599799
   65    24.741040967     4.115762685     3.804863811    -0.355425312     0.284675756    -0.206476540
   66    21.139350542     6.997510135     8.398219758    -0.386743658     0.244377299    -0.201764910
   67    27.970334009     3.026414194     8.510015863    -0.404246694     0.234742641    -0.177427458
   68    21.133374815     2.556900304     5.609383795    -0.465928174     0.166793057    -0.071351334
   21    32.027237216     6.770210362     4.675886540     0.402949434    -0.218342679     0.199895543
   22    39.359542886     2.153832817     6.715813260    -0.450165770     0.186334880    -0.112383684
   23    39.243616468     9.681158529     7.580652891    -0.399443349     0.231005366    -0.192565656
   24    34.190407042     4.568872177     8.408764312    -0.408597032     0.215405704    -0.191438888
   25    35.469065852     0.812722459     1.693780383    -0.392843911     0.236319038    -0.199566967
   26    32.028291809     1.395100342     8.230925590    -0.124610773    -0.380071045     0.300030259
   27    30.692914986     3.395358819     3.519129016    -0.408110293     0.227099781    -0.178526408
   28    37.686075704     5.834172566     1.788407880    -0.414636962     0.211916798    -0.182119358
   29    38.398705525     8.486985469     5.867922706    -0.391389231     0.237610000    -0.200887924
   30    37.168672255     9.400646849     2.564967980    -0.404537832     0.230694239    -0.182014588
   31    35.681041316    10.364397541     9.579359195    -0.397857157     0.240347995    -0.184234969
   32    37.807916205     1.015384778     8.808287698    -0.396489791     0.240307690    -0.187211271
   33    30.871139536     8.389711366     6.210505082    -0.399101752     0.238291861    -0.184213953
   34    40.468443507     3.374477327     8.928737557    -0.487275474    -0.079508066     0.079000508
   35    37.840732719     7.976121592     1.104950057    -0.406847371     0.226351292    -0.182319251
   36    37.354501087     2.962881468     6.439020764    -0.441774444     0.191972946    -0.134095968
   37    37.860060449     5.575761353     8.375732023    -0.401014668     0.227721140    -0.193210554
   38    35.945108638     6.492968124     5.074870769    -0.418578025     0.211087158    -0.173881134
   39    38.131615339     6.188308837     4.500396760    -0.426237841     0.198795019    -0.169711058
   40    32.898025771     9.207064585     7.047361661    -0.397965865     0.236426263    -0.189012677
   41    36.397397814     2.398969149     4.488338774    -0.440720575     0.190866054    -0.139052235
   42    30.681508094     8.840556615     3.937372824    -0.409427185     0.212883855    -0.192483363
   43    34.219318821     7.425247109     6.081763835    -0.415304644     0.213854378    -0.178292898
   44    39.159714029     4.424588498     5.365102668    -0.427969491     0.199527775    -0.164410407
   45    34.499144839     9.941295948     5.540927920    -0.403881969     0.223605530    -0.192041459
   46    37.591171250     1.619799589     2.840669265    -0.438481978     0.196934173    -0.137660767
   47    37.015635280     2.189533328    10.405433994    -0.404842041     0.223794453    -0.189786629
   48    40.220550386     3.846383195     1.326536086    -0.397661052     0.241470603    -0.183187434
   49    33.460016823     5.698541802     2.416430913     0.405893064    -0.200885692     0.211886193
   50    36.614776848     9.772628138     7.537484825    -0.392779367     0.230540498    -0.206338186
   51    39.891746951     6.206240517     1.465869710    -0.409621452     0.210234951    -0.194965464
   52    39.599199521     9.968622274     2.167048338    -0.392787634     0.226424787    -0.210830953
   53    38.868426185     4.648783894    10.090061145    -0.397363682     0.237238281    -0.189261995
   54    35.027538417     2.755493182    10.401478883    -0.393981181     0.256821400    -0.169769249
   55    33.473761563    10.423802409     3.302885417    -0.394482124     0.234599674    -0.198360396
   56    36.584903096     4.416424060    10.266938130    -0.405112760     0.225480074    -0.187196122
   57    35.474569614     6.342591764     7.896706786    -0.407517316     0.221149579    -0.187142997
   58    34.347529959     0.630723579     7.687036458    -0.395868310     0.239216442    -0.189904647
   59    35.999260000     2.109753353     8.402150170    -0.402505259     0.232525476    -0.184177685
   60    39.104565920     6.789068513     9.647771419    -0.398163097     0.232212083    -0.193761959
   61    39.269443224     2.162564847    10.551181245    -0.414523260     0.219884237    -0.172688706
   62    39.101212419     7.678475309     2.985343313    -0.411827710     0.212014208    -0.188276162
   63    32.363791723     8.212106827    10.179179270    -0.390300974     0.239849826    -0.200342733
   64    33.703751207     9.533798980     1.245998110    -0.397239706     0.225394170    -0.203465191
   65    34.830696916     4.260422896     4.092950681    -0.319152735     0.295534245    -0.246578673
   66    31.229006492     7.142170347     8.686306628    -0.386706545     0.244456203    -0.201740459
   67    38.059989959     3.171074406     8.798102732    -0.404050260     0.234896683    -0.177670863
   68    31.223030765     2.701560516     5.897470665    -0.465696318     0.166800933    -0.072831229
   21     1.893344838    16.361323248     3.842251355     0.403391165    -0.218449143     0.198885746
   22     9.225650508    11.744945703     5.882178075    -0.450893867     0.184307045    -0.112807951
   23     9.109724090    19.272271415     6.747017706    -0.399502403     0.231187867    -0.192223829
   24     4.056514663    14.159985063     7.575129127    -0.408418685     0.215896699    -0.191266288
   25     5.335173473    10.403835345     0.860145198    -0.392591780     0.235946967    -0.200501180
   26     1.894399430    10.986213228     7.397290405    -0.117284142    -0.373903160     0.310549283
   27     0.559022608    12.986471705     2.685493830    -0.408625559     0.226919091    -0.177574994
   28     7.552183325    15.425285452     0.954772694    -0.414663807     0.211953840    -0.182015102
   29     8.264813147    18.078098355     5.034287521    -0.391404945     0.237816787    -0.200612425
   30     7.034779876    18.991759735     1.731332795    -0.404580111     0.230664723    -0.181958014
   31     5.547148938    19.955510427     8.745724010    -0.397721631     0.240824434    -0.183905128
   32     7.674023826    10.606497664     7.974652512    -0.396335771     0.240314737    -0.187528089
   33     0.737247158    17.980824252     5.376869897    -0.399183206     0.238815609    -0.183357229
   34    10.334551129    12.965590213     8.095102372    -0.486725391    -0.086165956     0.075324777
   35     7.706840341    17.567234479     0.271314871    -0.406889135     0.226404615    -0.182159771
   36     7.220608709    12.553994354     5.605385579    -0.442240486     0.190786823    -0.134252524
   37     7.726168070    15.166874239     7.542096838    -0.400770008     0.228364124    -0.192959134
   38     5.811216260    16.084081010     4.241235584    -0.418498705     0.211566679    -0.173488831
   39     7.997722960    15.779421724     3.666761575    -0.426302883     0.198919437    -0.169401621
   40     2.764133393    18.798177471     6.213726475    -0.397918263     0.237015325    -0.188374073
   41     6.263505436    11.990082035     3.654703588    -0.441202599     0.189703035    -0.139115152
   42     0.547615716    18.431669501     3.103737638    -0.409615223     0.213322647    -0.191595452
   43     4.085426443    17.016359995     5.248128649    -0.415236030     0.214379813    -0.177821076
   44     9.025821651    14.015701384     4.531467483    -0.428107923     0.199461482    -0.164130202
   45     4.365252461    19.532408834     4.707292735    -0.403799962     0.224188706    -0.191533326
   46     7.457278871    11.210912475     2.007034079    -0.438887981     0.195914283    -0.137822110
   47     6.881742901    11.780646214     9.571798809    -0.404589501     0.224134559    -0.189923761
   48    10.086658007    13.437496081     0.492900900    -0.397806947     0.241146288    -0.183297847
   49     3.326124445    15.289654688     1.582795728     0.412223445    -0.192982510     0.206953091
   50     6.480884469    19.363741024     6.703849639    -0.392653181     0.231081871    -0.205972447
   51     9.757854573    15.797353403     0.632234525    -0.409679912     0.210308121    -0.194763611
   52     9.465307143    19.559735160     1.333413153    -0.392757233     0.226439505    -0.210871777
   53     8.734533807    14.239896780     9.256425959    -0.397100921     0.237958126    -0.188909473
   54     4.893646038    12.346606068     9.567843698    -0.393865334     0.256990583    -0.169782033
   55     3.339869184    20.014915295     2.469250232    -0.394401405     0.235015422    -0.198028491
   56     6.451010717    14.007536946     9.433302945    -0.404927046     0.225833719    -0.187171628
   57     5.340677236    15.933704650     7.063071601    -0.407357359     0.221661564    -0.186885348
   58     4.213637581    10.221836465     6.853401272    -0.395715227     0.238917272    -0.190599045
   59     5.865367622    11.700866239     7.568514984    -0.402363522     0.232414284    -0.184627182
   60     8.970673541    16.380181399     8.814136233    -0.397898203     0.232950317    -0.193419673
   61     9.135550845    11.753677733     9.717546060    -0.414291759     0.220174457    -0.172874366
   62     8.967320041    17.269588195     2.151708127    -0.411858471     0.212126453    -0.188082345
   63     2.229899344    17.803219713     9.345544085    -0.390077175     0.240691663    -0.199768168
   64     3.569858828    19.124911867     0.412362924    -0.397193497     0.225759554    -0.203150066
   65     4.696804538    13.851535782     3.259315495    -0.358424263     0.277141625    -0.211481837
   66     1.095114114    16.733283233     7.852671443    -0.386557582     0.245229430    -0.201086456
   67     7.926097580    12.762187292     7.964467547    -0.403848148     0.235350025    -0.177530389
   68     1.089138387    12.292673402     5.063835480    -0.465136677     0.167852641    -0.073982178
   21    11.983000787    16.505983460     4.130338224     0.403066683    -0.218404934     0.199590915
   22    19.315306458    11.889605915     6.170264945    -0.451422465     0.183361100    -0.112233977
   23    19.199380039    19.416931626     7.035104576    -0.399342242     0.230919939    -0.192877566
   24    14.146170613    14.304645274     7.863215996    -0.408458702     0.215682201    -0.191422770
   25    15.424829423    10.548495557     1.148232067    -0.392752420     0.235844622    -0.200306891
   26    11.984055380    11.130873440     7.685377275    -0.119457350    -0.373519790     0.310182056
   27    10.648678557    13.131131917     2.973580700    -0.408243070     0.226470301    -0.179021782
   28    17.641839275    15.569945664     1.242859564    -0.414621542     0.211965481    -0.182097809
   29    18.354469096    18.222758567     5.322374390    -0.391224897     0.237532055    -0.201299783
   30    17.124435826    19.136419947     2.019419664    -0.404489762     0.230633301    -0.182198553
   31    15.636804888    20.100170639     9.033810880    -0.397777562     0.240519438    -0.184183092
   32    17.763679776    10.751157876     8.262739382    -0.396616073     0.239920302    -0.187440497
   33    10.826903108    18.125484464     5.664956767    -0.399015070     0.238518690    -0.184108143
   34    20.424207079    13.110250425     8.383189242    -0.485895240    -0.088873346     0.077507062
   35    17.796496290    17.711894690     0.559401741    -0.406847764     0.226384485    -0.182277156
   36    17.310264659    12.698654566     5.893472448    -0.442625316     0.190129559    -0.133916320
   37    17.815824020    15.311534451     7.830183707    -0.400949034     0.228014286    -0.193000926
   38    15.900872210    16.228741222     4.529322454    -0.418396352     0.211433575    -0.173897486
   39    18.087378910    15.924081935     3.954848444    -0.426221747     0.198900354    -0.169628038
   40    12.853789342    18.942837683     6.501813345    -0.397804323     0.236641500    -0.189083371
   41    16.353161386    12.134742247     3.942790458    -0.441550840     0.189160889    -0.138748022
   42    10.637271665    18.576329713     3.391824508    -0.409356397     0.213039115    -0.192462140
   43    14.175082393    17.161020207     5.536215519    -0.415128135     0.214199448    -0.178289729
   44    19.115477601    14.160361596     4.819554353    -0.428031890     0.199493178    -0.164289905
   45    14.454908411    19.677069046     4.995379604    -0.403692395     0.223897626    -0.192099723
   46    17.546934821    11.355572686     2.295120949    -0.439180032     0.195494027    -0.137488127
   47    16.971398851    11.925306426     9.859885678    -0.404835483     0.223619678    -0.190006503
   48    20.176313957    13.582156293     0.780987770    -0.397738891     0.241336150    -0.183195625
   49    13.415780395    15.434314900     1.870882598     0.411373597    -0.198349365     0.203541871
   50    16.570540419    19.508401236     6.991936509    -0.392673192     0.230705727    -0.206355596
   51    19.847510523    15.942013614     0.920321394    -0.409648171     0.210246620    -0.194896728
   52    19.554963093    19.704395372     1.621500023    -0.392776719     0.226371705    -0.210908274
   53    18.824189756    14.384556991     9.544512829    -0.397305886     0.237562325    -0.188976651
   54    14.983301988    12.491266279     9.855930568    -0.394006728     0.256634890    -0.169991857
   55    13.429525134    20.159575507     2.757337102    -0.394264502     0.234794952    -0.198561911
   56    16.540666667    14.152197157     9.721389815    -0.405092905     0.225440583    -0.187286630
   57    15.430333186    16.078364861     7.351158471    -0.407386882     0.221437090    -0.187086994
   58    14.303293531    10.366496677     7.141488142    -0.395973143     0.238528616    -0.190550177
   59    15.955023572    11.845526451     7.856601854    -0.402633074     0.231966184    -0.184603079
   60    19.060329491    16.524841611     9.102223103    -0.398092488     0.232550044    -0.193501546
   61    19.225206795    11.898337945    10.005632929    -0.414544155     0.219598205    -0.173002231
   62    19.056975991    17.414248407     2.439794997    -0.411817329     0.212055055    -0.188252864
   63    12.319555294    17.947879924     9.633630955    -0.389959643     0.240666507    -0.200027771
   64    13.659514778    19.269572078     0.700449794    -0.397024335     0.225556984    -0.203704993
   65    14.786460488    13.996195994     3.547402365    -0.363278709     0.282388312    -0.195666606
   66    11.184770064    16.877943445     8.140758312    -0.386351190     0.245250862    -0.201456628
   67    18.015753530    12.906847504     8.252554417    -0.404098824     0.234879256    -0.177583432
   68    11.178794336    12.437333614     5.351922349    -0.465199329     0.167801751    -0.073703163
   21    22.072656737    16.650643672     4.418425094     0.403020117    -0.218382120     0.199709876
   22    29.404962407    12.034266126     6.458351814    -0.450872525     0.184550575    -0.112494674
   23    29.289035989    19.561591838     7.323191445    -0.399860182     0.230892770    -0.191834208
   24    24.235826563    14.449305486     8.151302866    -0.408668067     0.215444308    -0.191243722
   25    25.514485373    10.693155768     1.436318937    -0.392757911     0.236074393    -0.200025258
   26    22.073711330    11.275533651     7.973464144    -0.113595464    -0.374095600     0.311686626
   27    20.738334507    13.275792129     3.261667569    -0.407737952     0.227138922    -0.179325604
   28    27.731495225    15.714605876     1.530946434    -0.414965135     0.211515554    -0.181838134
   29    28.444125046    18.367418778     5.610461260    -0.391798360     0.237429252    -0.200303259
   30    27.214091776    19.281080158     2.307506534    -0.405030243     0.230147314    -0.181611443
   31    25.726460837    20.244830851     9.321897749    -0.397853982     0.240935637    -0.183472691
   32    27.853335726    10.895818088     8.550826252    -0.396586384     0.239980231    -0.187426596
   33    20.916559057    18.270144675     5.953043636    -0.399077016     0.238502450    -0.183994883
   34    30.513863029    13.254910636     8.671276111    -0.486925121    -0.084823859     0.075556865
   35    27.886152240    17.856554902     0.847488611    -0.407260294     0.225994014    -0.181839925
   36    27.399920609    12.843314778     6.181559318    -0.442323350     0.190818547    -0.133934072
   37    27.905479970    15.456194662     8.118270577    -0.401095533     0.227833685    -0.192909786
   38    25.990528160    16.373401433     4.817409323    -0.418714782     0.211157203    -0.173466329
   39    28.177034860    16.068742147     4.242935314    -0.426516279     0.198594966    -0.169245097
   40    22.943445292    19.087497894     6.789900215    -0.397969862     0.236694284    -0.188668506
   41    26.442817336    12.279402459     4.230877327    -0.441324658     0.189726015    -0.138696017
   42    20.726927615    18.720989925     3.679911378    -0.409327779     0.212949828    -0.192621755
   43    24.264738342    17.305680419     5.824302389    -0.415427175     0.213984763    -0.177850453
   44    29.205133551    14.305021807     5.107641222    -0.428245631     0.199270168    -0.164003293
   45    24.544564360    19.821729257     5.283466474    -0.403909901     0.223979823    -0.191545897
   46    27.636590771    11.500232898     2.583207819    -0.439001089     0.195992712    -0.137349556
   47    27.061054801    12.069966637    10.147972548    -0.404890123     0.223548362    -0.189973993
   48    30.265969907    13.726816504     1.069074640    -0.398027072     0.240821096    -0.183247510
   49    23.505436345    15.578975112     2.158969467     0.406235514    -0.203950082     0.208271628
   50    26.660196369    19.653061447     7.280023379    -0.392781622     0.231199957    -0.205594691
   51    29.937166472    16.086673826     1.208408264    -0.410010215     0.209914172    -0.194493351
   52    29.644619042    19.849055584     1.909586892    -0.393168690     0.226096329    -0.210472875
   53    28.913845706    14.529217203     9.832599699    -0.397418531     0.237394290    -0.188950951
   54    25.072957938    12.635926491    10.144017437    -0.394180855     0.256395203    -0.169949856
   55    23.519181084    20.304235718     3.045423971    -0.394656475     0.234650132    -0.197953486
   56    26.630322617    14.296857369    10.009476684    -0.405212980     0.225268239    -0.187234243
   57    25.519989135    16.223025073     7.639245340    -0.407615488     0.221215878    -0.186850606
   58    24.392949481    10.511156888     7.429575012    -0.395986992     0.238591238    -0.190442967
   59    26.044679522    11.990186662     8.144688724    -0.402641756     0.232018623    -0.184518225
   60    29.149985441    16.669501822     9.390309973    -0.398235135     0.232484182    -0.193287046
   61    29.314862745    12.042998156    10.293719799    -0.414527468     0.219678511    -0.172940250
   62    29.146631940    17.558908618     2.727881867    -0.412167012     0.211733823    -0.187848723
   63    22.409211244    18.092540136     9.921717824    -0.390193147     0.240393712    -0.199900405
   64    23.749170728    19.414232290     0.988536664    -0.397433696     0.225356046    -0.203128309
   65    24.876116438    14.140856206     3.835489234    -0.363313141     0.275689919    -0.204935673
   66    21.274426013    17.022603656     8.428845182    -0.386597877     0.244946549    -0.201353594
   67    28.105409480    13.051507715     8.540641286    -0.404135082     0.234878772    -0.177501545
   68    21.268450286    12.581993825     5.640009219    -0.465848218     0.166381018    -0.072820291
   21    32.162312687    16.795303883     4.706511964     0.403368012    -0.218031212     0.199390665
   22    39.494618357    12.178926338     6.746438684    -0.450850716     0.184422578    -0.112791599
   23    39.378691939    19.706252050     7.611278315    -0.399580519     0.231860367    -0.191248997
   24    34.325482513    14.593965698     8.439389735    -0.408740893     0.215698098    -0.190801502
   25    35.604141323    10.837815980     1.724405806    -0.392846160     0.235992704    -0.199948339
   26    32.163367280    11.420193863     8.261551014    -0.116666956    -0.374497374     0.310065378
   27    30.827990457    13.420452340     3.549754439    -0.408243493     0.226467100    -0.179024868
   28    37.821151175    15.859266087     1.819033303    -0.415012394     0.212069014    -0.181084086
   29    38.533780996    18.512078990     5.898548129    -0.391557541     0.238484088    -0.199519503
   30    37.303747726    19.425740370     2.595593404    -0.404877270     0.230905139    -0.180989538
   31    35.816116787    20.389491062     9.609984619    -0.397869094     0.241263136    -0.183008971
   32    37.942991676    11.040478299     8.838913121    -0.396613205     0.239995418    -0.187350381
   33    31.006215007    18.414804887     6.241130506    -0.399302105     0.238455182    -0.183567304
   34    40.603518978    13.399570848     8.959362981    -0.486872357    -0.085967643     0.074598071
   35    37.975808190    18.001215114     1.135575480    -0.407214243     0.226574278    -0.181219913
   36    37.489576558    12.987974989     6.469646188    -0.442259768     0.190949200    -0.133957831
   37    37.995135920    15.600854874     8.406357446    -0.401065138     0.228120510    -0.192633818
   38    36.080184109    16.518061645     5.105496193    -0.418801346     0.211496701    -0.172842640
   39    38.266690810    16.213402359     4.531022183    -0.426595803     0.199004163    -0.168562641
   40    33.033101242    19.232158106     7.077987084    -0.398059166     0.236862105    -0.188269072
   41    36.532473285    12.424062670     4.518964197    -0.441183043     0.190018552    -0.138746072
   42    30.816583565    18.865650136     3.967998247    -0.409670738     0.212735379    -0.192128979
   43    34.354394292    17.450340630     6.112389258    -0.415496717     0.214311649    -0.177293530
   44    39.294789500    14.449682019     5.395728092    -0.428381501     0.199609503    -0.163233992
   45    34.634220310    19.966389469     5.571553343    -0.404004207     0.224174911    -0.191118313
   46    37.726246721    11.644893110     2.871294688    -0.438902793     0.196193151    -0.137377531
   47    37.150710751    12.214626849    10.436059418    -0.404874112     0.223615102    -0.189929565
   48    40.355625857    13.871476716     1.357161509    -0.398083812     0.241389321    -0.182374542
   49    33.595092294    15.723635323     2.447056337     0.403545496    -0.204881336     0.212543339
   50    36.749852319    19.797721659     7.568110248    -0.392861230     0.231409459    -0.205206520
   51    40.026822422    16.231334038     1.496495133    -0.410039700     0.210438867    -0.193863168
   52    39.734274992    19.993715795     2.197673762    -0.393128363     0.226704252    -0.209893479
   53    39.003501656    14.673877415    10.120686568    -0.397395715     0.237639135    -0.188690983
   54    35.162613888    12.780586703    10.432104307    -0.394190290     0.256536661    -0.169714340
   55    33.608837034    20.448895930     3.333510841    -0.394649651     0.234940960    -0.197621857
   56    36.719978567    14.441517581    10.297563554    -0.405224723     0.225409830    -0.187038319
   57    35.609645085    16.367685285     7.927332210    -0.407671161     0.221487777    -0.186406515
   58    34.482605430    10.655817100     7.717661881    -0.395984522     0.238668340    -0.190351470
   59    36.134335471    12.134846874     8.432775593    -0.402625701     0.232147672    -0.184390898
   60    39.239641391    16.814162034     9.678396842    -0.398152357     0.232737337    -0.193152873
   61    39.404518695    12.187658368    10.581806669    -0.414515353     0.219698983    -0.172943283
   62    39.236287890    17.703568830     3.015968736    -0.412169666     0.212313422    -0.187187546
   63    32.498867194    18.237200348    10.209804694    -0.390169793     0.240640481    -0.199648921
   64    33.838826678    19.558892502     1.276623533    -0.397432351     0.225629474    -0.202827184
   65    34.965772388    14.285516417     4.123576104    -0.327536497     0.308451718    -0.218122398
   66    31.364081963    17.167263868     8.716932052    -0.386639848     0.245050690    -0.201146183
   67    38.195065430    13.196167927     8.828728156    -0.404139117     0.234948246    -0.177400382
   68    31.358106236    12.726654037     5.928096088    -0.465081703     0.168256299    -0.073408634
   21     2.028420309    26.386416769     3.872876778     0.403273518    -0.218201438     0.199395593
   22     9.360725979    21.770039224     5.912803499    -0.451436043     0.183300787    -0.112277871
   23     9.244799561    29.297364936     6.777643130    -0.399499488     0.230818605    -0.192673119
   24     4.191590134    24.185078584     7.605754550    -0.408515413     0.215798089    -0.191170976
   25     5.470248944    20.428928866     0.890770621    -0.392792561     0.236093008    -0.199935227
   26     2.029474901    21.011306749     7.427915829    -0.115284605    -0.370241907     0.315642820
   27     0.694098079    23.011565226     2.716119254    -0.408214603     0.226761157    -0.178718259
   28     7.687258796    25.450378973     0.985398118    -0.414868684     0.211541803    -0.182027583
   29     8.399888618    28.103191876     5.064912944    -0.391325708     0.237545599    -0.201087739
   30     7.169855347    29.016853256     1.761958218    -0.404803160     0.230159121    -0.182102116
   31     5.682224409    29.980603948     8.776349434    -0.397744337     0.240477522    -0.184309533
   32     7.809099297    20.631591185     8.005277936    -0.396534955     0.240401494    -0.186995056
   33     0.872322629    28.005917773     5.407495321    -0.399176816     0.238417668    -0.183888239
   34    10.469626600    22.990683734     8.125727796    -0.486282152    -0.089719749     0.074027258
   35     7.841915812    27.592328000     0.301940295    -0.407135217     0.225891353    -0.182247118
   36     7.355684180    22.579087875     5.636011002    -0.442680706     0.190089697    -0.133789759
   37     7.861243541    25.191967760     7.572722261    -0.400920275     0.228158611    -0.192890075
   38     5.946291731    26.109174531     4.271861008    -0.418576772     0.211204098    -0.173742094
   39     8.132798432    25.804515245     3.697386998    -0.426432032     0.198554191    -0.169505029
   40     2.899208864    28.823270992     6.244351899    -0.397954312     0.236509782    -0.188932497
   41     6.398580907    22.015175556     3.685329012    -0.441617256     0.189126278    -0.138583731
   42     0.682691187    28.456763022     3.134363062    -0.409513206     0.213086206    -0.192076034
   43     4.220501914    27.041453516     5.278754073    -0.415286990     0.214019682    -0.178135599
   44     9.160897122    24.040794905     4.562092906    -0.428206839     0.199231140    -0.164151929
   45     4.500327932    29.557502355     4.737918158    -0.403822369     0.223715754    -0.192038422
   46     7.592354342    21.236005996     2.037659503    -0.439239301     0.195501581    -0.137287904
   47     7.016818372    21.805739735     9.602424232    -0.404711577     0.224219908    -0.189562581
   48    10.221733479    23.462589602     0.523526324    -0.397905894     0.241122225    -0.183114642
   49     3.461199916    25.314748209     1.613421152     0.403941805    -0.210475645     0.206230506
   50     6.615959940    29.388834545     6.734475063    -0.392628737     0.230686605    -0.206461534
   51     9.892930044    25.822446924     0.662859948    -0.409908746     0.209805668    -0.194824026
   52     9.600382614    29.584828681     1.364038577    -0.393098450     0.225812268    -0.210908578
   53     8.869609278    24.264990301     9.287051383    -0.397211631     0.237961002    -0.188672949
   54     5.028721509    22.371699589     9.598469122    -0.393901365     0.257244114    -0.169313852
   55     3.474944655    30.040008816     2.499875656    -0.394477604     0.234516076    -0.198468210
   56     6.586086188    24.032630467     9.463928369    -0.405039210     0.225902217    -0.186845997
   57     5.475752707    25.958798171     7.093697025    -0.407444049     0.221494310    -0.186894670
   58     4.348713052    20.246929986     6.884026696    -0.395926018     0.239009379    -0.190045007
   59     6.000443093    21.725959760     7.599140408    -0.402577978     0.232450741    -0.184113076
   60     9.105749012    26.405274920     8.844761657    -0.398087625     0.232635724    -0.193408537
   61     9.270626317    21.778771254     9.748171483    -0.414360107     0.220242968    -0.172623107
   62     9.102395512    27.294681716     2.182333551    -0.412065268     0.211666351    -0.188147736
   63     2.364974815    27.828313234     9.376169509    -0.390175258     0.240345894    -0.199992797
   64     3.704934300    29.150005388     0.442988348    -0.397257200     0.225278666    -0.203558934
   65     4.831880009    23.876629303     3.289940919    -0.359620026     0.276478885    -0.210316103
   66     1.230189585    26.758376754     7.883296866    -0.386621984     0.244946599    -0.201307241
   67     8.061173051    22.787280813     7.995092971    -0.404024262     0.235327297    -0.177159416
   68     1.224213858    22.317766923     5.094460903    -0.465106469     0.169826365    -0.069534007
   21    12.118076258    26.531076981     4.160963648     0.403423254    -0.217724688     0.199613722
   22    19.450381929    21.914699436     6.200890368    -0.450512364     0.183667024    -0.115347449
   23    19.334455510    29.442025147     7.065729999    -0.400309972     0.229629771    -0.192411264
   24    14.281246084    24.329738795     7.893841420    -0.408982765     0.214934670    -0.191144411
   25    15.559904894    20.573589078     1.178857491    -0.392688457     0.235988894    -0.200262372
   26    12.119130851    21.155966961     7.716002698    -0.119099683    -0.380903456     0.301210595
   27    10.783754028    23.156225438     3.004206123    -0.407862912     0.227088260    -0.179105464
   28    17.776914746    25.595039185     1.273484988    -0.415177702     0.210985247    -0.181968956
   29    18.489544567    28.247852088     5.352999814    -0.392266827     0.236143161    -0.200905809
   30    17.259511297    29.161513468     2.050045088    -0.405259478     0.229461789    -0.181967147
   31    15.771880359    30.125264160     9.064436303    -0.398611305     0.239088337    -0.184243844
   32    17.898755247    20.776251397     8.293364805    -0.396579175     0.240023177    -0.187386853
   33    10.961978579    28.150577985     5.695582190    -0.399507685     0.237690519    -0.184110908
   34    20.559282550    23.135343946     8.413814665    -0.488323651    -0.086151864     0.064170621
   35    17.931571761    27.736988211     0.590027165    -0.407478470     0.225352450    -0.182147111
   36    17.445340130    22.723748087     5.924097872    -0.442102092     0.190241751    -0.135476258
   37    17.950899491    25.336627972     7.860809131    -0.401509498     0.227133978    -0.192873739
   38    16.035947681    26.253834743     4.559947877    -0.419068840     0.210310748    -0.173639559
   39    18.222454381    25.949175456     3.985473868    -0.426820615     0.197810783    -0.169396154
   40    12.988864813    28.967931204     6.532438768    -0.398539963     0.235530192    -0.188921748
   41    16.488236857    22.159835768     3.973415881    -0.441122976     0.189317832    -0.139890237
   42    10.772347136    28.601423234     3.422449932    -0.409618250     0.212448229    -0.192558145
   43    14.310157864    27.186113728     5.566840943    -0.415810808     0.213082755    -0.178036826
   44    19.250553072    24.185455117     4.850179776    -0.428569995     0.198478260    -0.164116240
   45    14.589983882    29.702162567     5.026005028    -0.404461594     0.222640529    -0.191942736
   46    17.682010292    21.380666207     2.325746373    -0.438833408     0.195661668    -0.138353718
   47    17.106474322    21.950399947     9.890511102    -0.404908247     0.223698249    -0.189758807
   48    20.311389428    23.607249814     0.811613194    -0.398098494     0.240710768    -0.183237319
   49    13.550855866    25.459408421     1.901508021     0.406185963    -0.202395908     0.209878202
   50    16.705615890    29.533494757     7.022561933    -0.393535810     0.229276749    -0.206304964
   51    19.982585994    25.967107135     0.950946818    -0.410263882     0.209227305    -0.194698438
   52    19.690038564    29.729488893     1.652125446    -0.393544709     0.225091326    -0.210846998
   53    18.959265227    24.409650512     9.575138253    -0.397822677     0.236938711    -0.188672110
   54    15.118377459    22.516359800     9.886555991    -0.394270837     0.256285558    -0.169906503
   55    13.564600605    30.184669028     2.787962525    -0.395148393     0.233452878    -0.198387251
   56    16.675742138    24.177290678     9.752015238    -0.405358403     0.225160904    -0.187048477
   57    15.565408657    26.103458382     7.381783894    -0.407974290     0.220568823    -0.186832472
   58    14.438369002    20.391590198     7.172113565    -0.395877956     0.238952521    -0.190216552
   59    16.090099043    21.870619972     7.887227278    -0.402586219     0.232154684    -0.184468260
   60    19.195404962    26.549935132     9.132848527    -0.398791773     0.231503819    -0.193316071
   61    19.360282266    21.923431466    10.036258353    -0.414520707     0.219739650    -0.172878772
   62    19.192051462    27.439341928     2.470420421    -0.412490971     0.210987937    -0.187976831
   63    12.454630765    27.972973445     9.664256378    -0.390492560     0.239689374    -0.200161345
   64    13.794590249    29.294665599     0.731075218    -0.397855086     0.224246616    -0.203530797
   65    14.921535959    24.021289515     3.578027788    -0.366955482     0.286471743    -0.182421531
   66    11.319845535    26.903036966     8.171383736    -0.386789325     0.244510767    -0.201515515
   67    18.150829001    22.931941025     8.283179840    -0.404340774     0.234629255    -0.177363048
   68    11.313869807    22.462427135     5.382547773    -0.465834879     0.166205566    -0.073304673
   21    22.207732208    26.675737193     4.449050518     0.403898424    -0.217098162     0.199335021
   22    29.540037878    22.059359647     6.488977238    -0.452350305     0.181228412    -0.111961886
   23    29.424111460    29.586685359     7.353816869    -0.400048211     0.230857706    -0.191484067
   24    24.370902034    24.474399007     8.181928289    -0.409054860     0.215581284    -0.190259906
   25    25.649560844    20.718249289     1.466944360    -0.393287238     0.235611845    -0.199529964
   26    22.208786801    21.300627172     8.004089568    -0.142920852    -0.380538286     0.291142993
   27    20.873409978    23.300885650     3.292292993    -0.409012445     0.225992471    -0.177865745
   28    27.866570696    25.739699397     1.561571857    -0.415457019     0.211770955    -0.180412105
   29    28.579200517    28.392512299     5.641086683    -0.392053200     0.237467606    -0.199758415
   30    27.349167247    29.306173679     2.338131958    -0.405231137     0.230496818    -0.180717853
   31    25.861536308    30.269924372     9.352523173    -0.398395614     0.240010887    -0.183509425
   32    27.988411197    20.920911609     8.581451675    -0.396769666     0.240352723    -0.186559376
   33    21.051634528    28.295238196     5.983669060    -0.399834613     0.237446653    -0.183715457
   34    30.648938500    23.280004157     8.701901535    -0.485446848    -0.096378913     0.071080682
   35    28.021227711    27.881648423     0.878114034    -0.407617277     0.226242908    -0.180727148
   36    27.534996080    22.868408299     6.212184742    -0.443427306     0.188869960    -0.133042709
   37    28.040555441    25.481288183     8.148896000    -0.401421239     0.228015045    -0.192015958
   38    26.125603631    26.398494954     4.848034747    -0.419168463     0.211035197    -0.172516507
   39    28.312110331    26.093835668     4.273560737    -0.426957958     0.198721544    -0.167978124
   40    23.078520763    29.112591416     6.820525638    -0.398588347     0.235963701    -0.188277617
   41    26.577892807    22.304495980     4.261502751    -0.442362112     0.188045932    -0.137675303
   42    20.862003086    28.746083446     3.710536801    -0.410073103     0.211783845    -0.192321744
   43    24.399813813    27.330773940     5.854927812    -0.415896183     0.213740491    -0.177046229
   44    29.340209022    24.330115329     5.138266646    -0.428771480     0.199351957    -0.162523276
   45    24.679639831    29.846822778     5.314091897    -0.404412943     0.223338519    -0.191233046
   46    27.771666242    21.525326419     2.613833242    -0.439953108     0.194532883    -0.136375292
   47    27.196130272    22.095060158    10.178597972    -0.405043115     0.223808699    -0.189340278
   48    30.401045378    23.751910026     1.099700063    -0.398614932     0.241347454    -0.181266496
   49    23.640511816    25.604068633     2.189594891     0.407751298    -0.201764408     0.207436744
   50    26.795271840    29.678154968     7.310648802    -0.393305436     0.230335925    -0.205563119
   51    30.072241943    26.111767347     1.239033687    -0.410416751     0.210197498    -0.193326413
   52    29.779694513    29.874149105     1.940212316    -0.393526188     0.226289802    -0.209595002
   53    29.048921177    24.554310724     9.863225122    -0.397708086     0.237843864    -0.187772667
   54    25.208033409    22.661020012    10.174642861    -0.394225838     0.256918989    -0.169052127
   55    23.654256555    30.329329239     3.076049395    -0.394895606     0.234454450    -0.197708298
   56    26.765398088    24.321950890    10.040102108    -0.405402541     0.225693106    -0.186309962
   57    25.655064606    26.248118594     7.669870764    -0.408012154     0.221281875    -0.185904313
   58    24.528024952    20.536250409     7.460200435    -0.395896462     0.239527626    -0.189453181
   59    26.179754993    22.015280183     8.175314147    -0.402755707     0.232588974    -0.183548929
   60    29.285060912    26.694595343     9.420935396    -0.398607228     0.232420155    -0.192595819
   61    29.449938216    22.068091677    10.324345223    -0.414762304     0.219537953    -0.172555263
   62    29.281707411    27.584002139     2.758507290    -0.412560174     0.211977186    -0.186707728
   63    22.544286715    28.117633657     9.952343248    -0.390923109     0.239290182    -0.199798229
   64    23.884246199    29.439325811     1.019162087    -0.397621374     0.225226602    -0.202904463
   65    25.011191909    24.165949727     3.866114658    -0.363798253     0.286776470    -0.188175683
   66    21.409501484    27.047697177     8.459470606    -0.387325200     0.243881887    -0.201248142
   67    28.240484951    23.076601236     8.571266710    -0.404443469     0.235150436    -0.176436256
   68    21.403525757    22.607087346     5.670634642    -0.464742560     0.167083823    -0.078085527
   21    32.297388158    26.820397404     4.737137387     0.403618615    -0.218452974     0.198419534
   22    39.629693828    22.204019859     6.777064107    -0.451043001     0.185845802    -0.109642826
   23    39.513767410    29.731345571     7.641903738    -0.399494063     0.231413218    -0.191969832
   24    34.460557984    24.619059219     8.470015159    -0.408651065     0.216181011    -0.190447046
   25    35.739216794    20.862909501     1.755031230    -0.393035790     0.236316453    -0.199191872
   26    32.298442751    21.445287384     8.292176437    -0.114981116    -0.388814632     0.292579092
   27    30.963065928    23.445545861     3.580379863    -0.408263203     0.228281575    -0.176659786
   28    37.956226646    25.884359608     1.849658727    -0.414947416     0.212047205    -0.181258448
   29    38.668856467    28.537172511     5.929173553    -0.391402283     0.238082401    -0.200302330
   30    37.438823197    29.450833891     2.626218827    -0.404783281     0.230828229    -0.181297613
   31    35.951192258    30.414584583     9.640610042    -0.397887467     0.240899170    -0.183447957
   32    38.078067147    21.065571820     8.869538545    -0.396656480     0.240775529    -0.186254615
   33    31.141290478    28.439898408     6.271755930    -0.399522438     0.238506054    -0.183020993
   34    40.738594449    23.424664369     8.989988404    -0.486165455    -0.082746573     0.082438795
   35    38.110883661    28.026308635     1.166200904    -0.407124016     0.226507758    -0.181505568
   36    37.624652029    23.013068510     6.500271611    -0.442550948     0.191741033    -0.131848529
   37    38.130211391    25.625948395     8.436982870    -0.401052108     0.228261240    -0.192494190
   38    36.215259580    26.543155166     5.136121616    -0.418746153     0.211620275    -0.172825109
   39    38.401766281    26.238495880     4.561647607    -0.426519065     0.199133715    -0.168603826
   40    33.168176713    29.257251627     7.108612508    -0.398176650     0.236850339    -0.188035295
   41    36.667548756    22.449156191     4.549589621    -0.441551477     0.190583154    -0.136785799
   42    30.951659036    28.890743657     3.998623671    -0.409980544     0.212935222    -0.191244724
   43    34.489469763    27.475434151     6.143014682    -0.415484291     0.214408734    -0.177205243
   44    39.429864971    24.474775540     5.426353515    -0.428300189     0.199835931    -0.163170308
   45    34.769295781    29.991482990     5.602178767    -0.404052127     0.224130115    -0.191069543
   46    37.861322192    21.669986631     2.901920112    -0.439189915     0.196715793    -0.135702303
   47    37.285786222    22.239720370    10.466684841    -0.404835607     0.224393163    -0.189092147
   48    40.490701328    23.896570237     1.387786933    -0.398111343     0.241431747    -0.182258251
   49    33.730167765    25.748728844     2.477681760     0.410067775    -0.196878417     0.207565192
   50    36.884927790    29.822815180     7.598735672    -0.392783022     0.231186648    -0.205606982
   51    40.161897893    26.256427559     1.527120557    -0.409928745     0.210420184    -0.194117929
   52    39.869350463    30.018809316     2.228299185    -0.392983795     0.226549526    -0.210330809
   53    39.138577127    24.698970936    10.151311992    -0.397344588     0.237821009    -0.188569473
   54    35.297689359    22.805680224    10.462729730    -0.394043063     0.257436355    -0.168690804
   55    33.743912505    30.473989451     3.364136264    -0.394723191     0.234978638    -0.197430095
   56    36.855054038    24.466611102    10.328188977    -0.405143220     0.226123806    -0.186351807
   57    35.744720556    26.392778806     7.957957633    -0.407594947     0.221824053    -0.186173169
   58    34.617680902    20.680910621     7.748287305    -0.396075896     0.239693193    -0.188867831
   59    36.269410942    22.159940395     8.463401017    -0.402711622     0.233014082    -0.183105945
   60    39.374716862    26.839255555     9.709022266    -0.398161861     0.232711126    -0.193164864
   61    39.539594166    22.212751889    10.612432092    -0.414522248     0.220374013    -0.172065687
   62    39.371363361    27.728662351     3.046594160    -0.412071620     0.212272772    -0.187449328
   63    32.633942665    28.262293869    10.240430118    -0.390609484     0.240246028    -0.199263837
   64    33.973902149    29.583986023     1.307248957    -0.397516302     0.225750594    -0.202527675
   65    35.100847859    24.310609938     4.154201528    -0.360457381     0.292370419    -0.185983909
   66    31.499157434    27.192357389     8.747557475    -0.387054046     0.244843147    -0.200601592
   67    38.330140901    23.221261448     8.859353579    -0.404111927     0.235434295    -0.176816978
   68    31.493181707    22.751747558     5.958721512    -0.466911280     0.163004120    -0.073644505
   21     2.163495780    36.411510290     3.903502202     0.402801461    -0.218802071     0.199691354
   22     9.495801450    31.795132745     5.943428922    -0.451221403     0.183364769    -0.113033653
   23     9.379875032    39.322458457     6.808268553    -0.399414039     0.230762183    -0.192917704
   24     4.326665605    34.210172105     7.636379974    -0.408490839     0.215512984    -0.191544743
   25     5.605324415    30.454022387     0.921396045    -0.392954613     0.235576698    -0.200225601
   26     2.164550372    31.036400270     7.458541252    -0.121930889    -0.373219857     0.309580033
   27     0.829173550    33.036658747     2.746744677    -0.408075450     0.227179342    -0.178504829
   28     7.822334267    35.475472494     1.016023542    -0.414965820     0.211183162    -0.182222502
   29     8.534964089    38.128285397     5.095538368    -0.391358218     0.237313694    -0.201298176
   30     7.304930818    39.041946777     1.792583642    -0.404787207     0.230021566    -0.182311261
   31     5.817299880    40.005697469     8.806974857    -0.397652360     0.240285220    -0.184758257
   32     7.944174769    30.656684706     8.035903359    -0.396516196     0.240037741    -0.187501439
   33     1.007398100    38.031011294     5.438120744    -0.398984565     0.238601613    -0.184066801
   34    10.604702071    33.015777255     8.156353219    -0.486660882    -0.087551437     0.074134554
   35     7.976991283    37.617421521     0.332565719    -0.407179735     0.225670415    -0.182421289
   36     7.490759651    32.604181396     5.666636426    -0.442549879     0.189977018    -0.134381315
   37     7.996319012    35.217061281     7.603347685    -0.400878659     0.227835969    -0.193357369
   38     6.081367202    36.134268052     4.302486431    -0.418586358     0.211015225    -0.173948369
   39     8.267873903    35.829608766     3.728012422    -0.426468530     0.198288984    -0.169723516
   40     3.034284335    38.848364513     6.274977322    -0.397868208     0.236564985    -0.189044695
   41     6.533656378    32.040269077     3.715954435    -0.441529750     0.188934001    -0.139123768
   42     0.817766658    38.481856543     3.164988486    -0.409261361     0.213319380    -0.192353789
   43     4.355577385    37.066547037     5.309379497    -0.415280562     0.213857474    -0.178345271
   44     9.295972593    34.065888426     4.592718330    -0.428239805     0.198928350    -0.164432908
   45     4.635403403    39.582595876     4.768543582    -0.403780743     0.223643312    -0.192210251
   46     7.727429813    31.261099517     2.068284927    -0.439207808     0.195226947    -0.137778592
   47     7.151893843    31.830833256     9.633049656    -0.404670264     0.223861366    -0.190073845
   48    10.356808950    33.487683123     0.554151748    -0.398095387     0.240729608    -0.183219318
   49     3.596275387    35.339841730     1.644046575     0.406234364    -0.205794534     0.206451570
   50     6.751035411    39.413928066     6.765100486    -0.392519538     0.230569806    -0.206799365
   51    10.028005515    35.847540445     0.693485372    -0.409947983     0.209523927    -0.195044548
   52     9.735458085    39.609922202     1.394664000    -0.393038454     0.225722282    -0.211116615
   53     9.004684749    34.290083822     9.317676806    -0.397230397     0.237474748    -0.189245227
   54     5.163796980    32.396793110     9.629094545    -0.393800350     0.256985127    -0.169940957
   55     3.610020126    40.065102337     2.530501079    -0.394451443     0.234484565    -0.198557417
   56     6.721161659    34.057723988     9.494553792    -0.404986415     0.225556092    -0.187377835
   57     5.610828178    35.983891692     7.124322448    -0.407436841     0.221221398    -0.187233314
   58     4.483788523    30.272023507     6.914652119    -0.395892787     0.238755897    -0.190432462
   59     6.135518564    31.751053281     7.629765832    -0.402542443     0.232162608    -0.184553799
   60     9.240824483    36.430368441     8.875387081    -0.398036202     0.232299316    -0.193918048
   61     9.405701788    31.803864775     9.778796907    -0.414341830     0.219870196    -0.173141401
   62     9.237470983    37.319775237     2.212958975    -0.412085423     0.211385600    -0.188419035
   63     2.500050287    37.853406755     9.406794932    -0.390155587     0.240202803    -0.200202976
   64     3.840009771    39.175098909     0.473613771    -0.397206699     0.225274558    -0.203662003
   65     4.966955480    33.901722824     3.320566342    -0.362144020     0.278463184    -0.203248529
   66     1.365265056    36.783470275     7.913922290    -0.386621870     0.244800883    -0.201484632
   67     8.196248522    32.812374334     8.025718394    -0.404020960     0.234898243    -0.177735418
   68     1.359289329    32.342860444     5.125086327    -0.465299340     0.168032067    -0.072537912
   21    12.253151729    36.556170502     4.191589072     0.403681741    -0.216863342     0.200028355
   22    19.585457400    31.939792957     6.231515792    -0.451894982     0.182132993    -0.112332091
   23    19.469530981    39.467118668     7.096355423    -0.399947451     0.230607747    -0.191995061
   24    14.416321555    34.354832316     7.924466843    -0.409254503     0.214257236    -0.191323257
   25    15.694980365    30.598682599     1.209482914    -0.393529609     0.234757536    -0.200058356
   26    12.254206322    31.181060482     7.746628122    -0.121195187    -0.373572918     0.309443050
   27    10.918829499    33.181318959     3.034831547    -0.408089521     0.226559057    -0.179259410
   28    17.911990217    35.620132706     1.304110411    -0.415443191     0.210773701    -0.181607825
   29    18.624620038    38.272945609     5.383625237    -0.392011641     0.237114181    -0.200259178
   30    17.394586768    39.186606989     2.080670512    -0.405201549     0.229794045    -0.181676640
   31    15.906955830    40.150357681     9.095061727    -0.398006569     0.240151762    -0.184168135
   32    18.033830718    30.801344918     8.323990229    -0.397410576     0.238671942    -0.187351377
   33    11.097054050    38.175671506     5.726207614    -0.399319281     0.237771977    -0.184414203
   34    20.694358021    33.160437467     8.444440089    -0.486016620    -0.088617978     0.077036995
   35    18.066647233    37.762081732     0.620652588    -0.407626547     0.225321218    -0.181854190
   36    17.580415601    32.748841608     5.954723296    -0.443198203     0.188763092    -0.133954650
   37    18.085974962    35.361721493     7.891434554    -0.401552896     0.226844156    -0.193124314
   38    16.171023152    36.278928264     4.590573301    -0.419115560     0.210154463    -0.173716000
   39    18.357529852    35.974268977     4.016099291    -0.426948936     0.197595277    -0.169324281
   40    13.123940284    38.993024725     6.563064192    -0.398196452     0.235967219    -0.189100654
   41    16.623312328    32.184929289     4.004041305    -0.442178199     0.187668129    -0.138777208
   42    10.907422607    38.626516755     3.453075355    -0.409606210     0.212224491    -0.192830284
   43    14.445233335    37.211207249     5.597466366    -0.415804398     0.212994102    -0.178157839
   44    19.385628543    34.210548638     4.880805200    -0.428762885     0.198142395    -0.164018229
   45    14.725059353    39.727256088     5.056630451    -0.404137824     0.223137208    -0.192047925
   46    17.817085763    31.405759728     2.356371796    -0.439839965     0.194046191    -0.137429549
   47    17.241549793    31.975493468     9.921136526    -0.405589866     0.222312127    -0.189932037
   48    20.446464899    33.632343335     0.842238617    -0.398710403     0.240004424    -0.182832958
   49    13.685931337    35.484501942     1.932133445     0.417867353    -0.180032792     0.207304291
   50    16.840691361    39.558588278     7.053187356    -0.392954417     0.230281765    -0.206293807
   51    20.117661465    35.992200656     0.981572241    -0.410427374     0.209137151    -0.194450566
   52    19.825114035    39.754582414     1.682750870    -0.393448543     0.225492064    -0.210598132
   53    19.094340698    34.434744033     9.605763676    -0.397964485     0.236354366    -0.189105479
   54    15.253452930    32.541453321     9.917181415    -0.395083677     0.255068393    -0.169849942
   55    13.699676076    40.209762549     2.818587949    -0.394793070     0.234004799    -0.198444415
   56    16.810817609    34.202384199     9.782640662    -0.405917169     0.224006731    -0.187222426
   57    15.700484128    36.128551903     7.412409318    -0.408145401     0.220086248    -0.187027740
   58    14.573444473    30.416683719     7.202738989    -0.396701002     0.237461110    -0.190369473
   59    16.225174514    31.895713493     7.917852701    -0.403381688     0.230758345    -0.184482519
   60    19.330480433    36.575028653     9.163473950    -0.398607778     0.231540639    -0.193651161
   61    19.495357737    31.948524987    10.066883776    -0.415219553     0.218331020    -0.172986382
   62    19.327126933    37.464435449     2.501045844    -0.412567378     0.211036850    -0.187754111
   63    12.589706236    37.998066966     9.694881802    -0.390129430     0.239911987    -0.200602258
   64    13.929665720    39.319759120     0.761700641    -0.397541212     0.224740229    -0.203599642
   65    15.056611430    34.046383036     3.608653212    -0.358481881     0.279656777    -0.208045255
   66    11.454921006    36.928130487     8.202009160    -0.386548736     0.244519734    -0.201965775
   67    18.285904472    32.957034546     8.313805264    -0.404825298     0.233649000    -0.177551747
   68    11.448945278    32.487520656     5.413173196    -0.465555563     0.166617980    -0.074138157
   21    22.342807679    36.700830714     4.479675941     0.403859027    -0.217467031     0.199012504
   22    29.675113349    32.084453168     6.519602661    -0.451778178     0.182954234    -0.111464014
   23    29.559186931    39.611778880     7.384442292    -0.399790700     0.230815313    -0.192072091
   24    24.505977505    34.499492528     8.212553713    -0.409039117     0.215410698    -0.190486828
   25    25.784636315    30.743342810     1.497569784    -0.393286102     0.235953664    -0.199127875
   26    22.343862272    31.325720693     8.034714991    -0.120544765    -0.372268681     0.311263536
   27    21.008485449    33.325979171     3.322918417    -0.408676209     0.225697042    -0.179010061
   28    28.001646167    35.764792918     1.592197281    -0.415244333     0.211653623    -0.181038359
   29    28.714275988    38.417605820     5.671712107    -0.391805285     0.237374946    -0.200354070
   30    27.484242718    39.331267200     2.368757381    -0.405139617     0.230293935    -0.181181108
   31    25.996611779    40.295017893     9.383148596    -0.398103973     0.240173518    -0.183929085
   32    28.123486668    30.946005130     8.612077099    -0.397119243     0.239782808    -0.186548953
   33    21.186710000    38.320331717     6.014294484    -0.399637884     0.237755042    -0.183744665
   34    30.784013971    33.305097678     8.732526958    -0.486035447    -0.090233769     0.075016076
   35    28.156303182    37.906741944     0.908739458    -0.407443954     0.226118171    -0.181273266
   36    27.670071551    32.893501820     6.242810165    -0.443018797     0.189917024    -0.132913015
   37    28.175630912    35.506381704     8.179521424    -0.401375809     0.227714353    -0.192467226
   38    26.260679102    36.423588475     4.878660170    -0.419017349     0.211080027    -0.172828480
   39    28.447185802    36.118929189     4.304186161    -0.426783764     0.198686312    -0.168461771
   40    23.213596234    39.137684937     6.851151062    -0.398404166     0.236087388    -0.188512242
   41    26.712968278    32.329589501     4.292128175    -0.441939645     0.189066972    -0.137633681
   42    20.997078557    38.771176967     3.741162225    -0.410030968     0.212077420    -0.192087931
   43    24.534889284    37.355867461     5.885553236    -0.415758557     0.213782167    -0.177318944
   44    29.475284493    34.355208850     5.168892069    -0.428591823     0.199337080    -0.163014654
   45    24.814715302    39.871916299     5.344717321    -0.404297383     0.223374598    -0.191435146
   46    27.906741713    31.550419940     2.644458666    -0.439556956     0.195487877    -0.136287096
   47    27.331205743    32.120153679    10.209223395    -0.405282212     0.223349393    -0.189371005
   48    30.536120849    33.777003547     1.130325487    -0.398421997     0.241086585    -0.182036181
   49    23.775587287    35.629162154     2.220220314     0.410549464    -0.197022044     0.206473852
   50    26.930347311    39.703248490     7.341274226    -0.393051745     0.230390669    -0.205986567
   51    30.207317415    36.136860868     1.269659111    -0.410219585     0.210075802    -0.193876377
   52    29.914769984    39.899242626     1.970837739    -0.393377418     0.226010068    -0.210175300
   53    29.183996648    34.579404245     9.893850546    -0.397716983     0.237333538    -0.188398495
   54    25.343108880    32.686113533    10.205268284    -0.394459819     0.256487531    -0.169161456
   55    23.789332026    40.354422760     3.106674818    -0.395011845     0.234212072    -0.197763363
   56    26.900473559    34.347044411    10.070727531    -0.405572870     0.225202506    -0.186532782
   57    25.790140077    36.273212115     7.700496187    -0.407944816     0.221160116    -0.186196751
   58    24.663100423    30.561343930     7.490825859    -0.396550098     0.238267764    -0.189674700
   59    26.314830464    32.040373704     8.205939571    -0.403159439     0.231778166    -0.183688183
   60    29.420136383    36.719688864     9.451560820    -0.398447665     0.232222723    -0.193163312
   61    29.585013687    32.093185198    10.354970646    -0.414915192     0.219260314    -0.172540713
   62    29.416782882    37.609095660     2.789132714    -0.412357393     0.211885488    -0.187258967
   63    22.679362186    38.142727178     9.982968672    -0.390530365     0.239574883    -0.200224647
   64    24.019321670    39.464419332     1.049787511    -0.397803136     0.224885138    -0.202926932
   65    25.146267380    34.191043248     3.896740082    -0.358904428     0.278660460    -0.208652725
   66    21.544576955    37.072790698     8.490096029    -0.387000280     0.244104680    -0.201602798
   67    28.375560422    33.101694757     8.601892133    -0.404543766     0.234712919    -0.176788537
   68    21.538601228    32.632180867     5.701260066    -0.466178892     0.165349791    -0.073052636
   21    32.432463629    36.845490925     4.767762811     0.403511590    -0.218134680     0.198986579
   22    39.764769299    32.229113380     6.807689531    -0.451056018     0.184606532    -0.111664215
   23    39.648842881    39.756439092     7.672529162    -0.399218641     0.231530729    -0.192400619
   24    34.595633455    34.644152740     8.500640582    -0.408665101     0.215792773    -0.190856790
   25    35.874292265    30.888003022     1.785656654    -0.392971415     0.236301785    -0.199336232
   26    32.433518222    31.470380905     8.322801861    -0.117756363    -0.380565745     0.302164116
   27    31.098141399    33.470639382     3.611005286    -0.408285854     0.227426151    -0.177707647
   28    38.091302117    35.909453129     1.880284150    -0.414725396     0.212238517    -0.181542441
   29    38.803931938    38.562266032     5.959798976    -0.391135102     0.238166878    -0.200723366
   30    37.573898668    39.475927412     2.656844251    -0.404552030     0.230989596    -0.181607990
   31    36.086267729    40.439678104     9.671235466    -0.397754775     0.240738146    -0.183946416
   32    38.213142618    31.090665341     8.900163968    -0.396625080     0.240429484    -0.186767795
   33    31.276365949    38.464991929     6.302381353    -0.399321671     0.238374252    -0.183629842
   34    40.873669920    33.449757890     9.020613828    -0.486656957    -0.085901718     0.076065111
   35    38.245959132    38.051402156     1.196826327    -0.406926716     0.226647676    -0.181773152
   36    37.759727501    33.038162031     6.530897035    -0.442457584     0.191051006    -0.133157046
   37    38.265286862    35.651041916     8.467608294    -0.401104194     0.227959139    -0.192743498
   38    36.350335051    36.568248687     5.166747040    -0.418616385     0.211495699    -0.173291348
   39    38.536841752    36.263589401     4.592273030    -0.426373285     0.199104523    -0.169006542
   40    33.303252184    39.282345148     7.139237931    -0.398015678     0.236644971    -0.188633713
   41    36.802624227    32.474249712     4.580215044    -0.441444979     0.190036573    -0.137885573
   42    31.086734507    38.915837178     4.029249094    -0.409759411     0.212824196    -0.191841305
   43    34.624545234    37.500527672     6.173640105    -0.415351475     0.214269454    -0.177684419
   44    39.564940442    34.499869061     5.456978939    -0.428160973     0.199773452    -0.163611581
   45    34.904371252    40.016576511     5.632804190    -0.403886903     0.223957209    -0.191620819
   46    37.996397663    31.695080152     2.932545535    -0.439090613     0.196296721    -0.136627342
   47    37.420861693    32.264813891    10.497310265    -0.404901024     0.223904550    -0.189530771
   48    40.625776799    33.921663758     1.418412356    -0.397893367     0.241666579    -0.182422952
   49    33.865243236    35.773822365     2.508307184     0.414825024    -0.192630041     0.202024420
   50    37.020003261    39.847908701     7.629361095    -0.392659472     0.230956083    -0.206101496
   51    40.296973364    36.281521080     1.557745980    -0.409728418     0.210538074    -0.194412815
   52    40.004425934    40.043902837     2.258924609    -0.392822090     0.226681104    -0.210491051
   53    39.273652598    34.724064457    10.181937415    -0.397454701     0.237538465    -0.188693505
   54    35.432764830    32.830773745    10.493355154    -0.394056020     0.256958634    -0.169387467
   55    33.878987976    40.499082972     3.394761688    -0.394563594     0.234822737    -0.197933960
   56    36.990129509    34.491704623    10.358814401    -0.405210167     0.225681029    -0.186742587
   57    35.879796027    36.417872327     7.988583057    -0.407593028     0.221489852    -0.186574836
   58    34.752756373    30.706004142     7.778912728    -0.396081589     0.239303985    -0.189348825
   59    36.404486414    32.185033916     8.494026440    -0.402689372     0.232626683    -0.183646661
   60    39.509792333    36.864349076     9.739647689    -0.398285665     0.232405876    -0.193277102
   61    39.674669637    32.237845410    10.643057516    -0.414574259     0.219837778    -0.172625419
   62    39.506438832    37.753755872     3.077219583    -0.411876256     0.212357977    -0.187781892
   63    32.769018136    38.287387390    10.271055541    -0.390393717     0.240123922    -0.199833050
   64    34.108977620    39.609079544     1.337874380    -0.397380223     0.225546219    -0.203021825
   65    35.235923330    34.335703459     4.184826951    -0.358557267     0.295901616    -0.184062271
   66    31.634232905    37.217450910     8.778182899    -0.386855064     0.244689644    -0.201171909
   67    38.465216372    33.246354969     8.889979003    -0.404178600     0.235091590    -0.177120309
   68    31.628257178    32.776841079     5.989346936    -0.466119563     0.165731309    -0.072565051
   21     2.045140537     6.368365464    13.823611293     0.403375791    -0.217712023     0.199723425
   22     9.377446208     1.751987918    15.863538013    -0.451220094     0.183286088    -0.113166413
   23     9.261519789     9.279313630    16.728377644    -0.399158971     0.231496801    -0.192565175
   24     4.208310363     4.167027278    17.556489065    -0.408401938     0.215679447    -0.191546948
   25     5.486969173     0.410877561    10.841505136    -0.392657402     0.235859229    -0.200475904
   26     2.046195130     0.993255443    17.378650343    -0.124986152    -0.371900379     0.309949303
   27     0.710818307     2.993513921    12.666853769    -0.408120750     0.226332295    -0.179474637
   28     7.703979025     5.432327668    10.936132633    -0.414602473     0.211952331    -0.182156522
   29     8.416608846     8.085140570    15.015647459    -0.391072153     0.238101608    -0.200923358
   30     7.186575576     8.998801951    11.712692733    -0.404380434     0.230871055    -0.182140112
   31     5.698944638     9.962552643    18.727083948    -0.397542105     0.240747024    -0.184393994
   32     7.825819526     0.613539880    17.956012451    -0.396376911     0.240120607    -0.187689741
   33     0.889042858     7.987866467    15.358229835    -0.399178047     0.238165646    -0.184211867
   34    10.486346829     2.972632428    18.076462310    -0.486583594    -0.088738459     0.073224939
   35     7.858636041     7.574276694    10.252674810    -0.406787507     0.226460119    -0.182317687
   36     7.372404409     2.561036570    15.586745517    -0.442431511     0.190177617    -0.134487295
   37     7.877963770     5.173916455    17.523456776    -0.400784199     0.228017116    -0.193339650
   38     5.963011960     6.091123225    14.222595522    -0.418388985     0.211499715    -0.173834772
   39     8.149518660     5.786463939    13.648121513    -0.426172579     0.198997376    -0.169637783
   40     2.915929093     8.805219687    16.195086414    -0.397815325     0.236620578    -0.189086406
   41     6.415301136     1.997124251    13.636063527    -0.441368054     0.189226135    -0.139239759
   42     0.699411415     8.438711717    13.085097577    -0.409594505     0.212543002    -0.192504063
   43     4.237222143     7.023402211    15.229488588    -0.415119479     0.214270176    -0.178224886
   44     9.177617351     4.022743600    14.512827421    -0.427920559     0.199666868    -0.164368906
   45     4.517048161     9.539451049    14.688652673    -0.403628913     0.223998146    -0.192115931
   46     7.609074571     1.217954690    11.988394018    -0.439011129     0.195584093    -0.137898843
   47     7.033538601     1.787688429    19.553158747    -0.404603532     0.223770930    -0.190322234
   48    10.238453707     3.444538297    10.474260839    -0.397732698     0.241340879    -0.183202841
   49     3.477920145     5.296696904    11.564155666     0.410736859    -0.192727829     0.210121909
   50     6.632680169     9.370783240    16.685209578    -0.392394948     0.231046782    -0.206503244
   51     9.909650273     5.804395618    10.613594463    -0.409590880     0.210323037    -0.194934684
   52     9.617102843     9.566777376    11.314773091    -0.392483872     0.226698719    -0.211102111
   53     8.886329506     4.246938995    19.237785898    -0.397114134     0.237643382    -0.189277541
   54     5.045441738     2.353648283    19.549203636    -0.393819507     0.256740953    -0.170265320
   55     3.491664884    10.021957510    12.450610170    -0.394165858     0.234935695    -0.198591278
   56     6.602806417     4.014579161    19.414662883    -0.404895993     0.225549239    -0.187581383
   57     5.492472936     5.940746865    17.044431539    -0.407323184     0.221457436    -0.187201569
   58     4.365433281     0.228878680    16.834761211    -0.395680406     0.238896442    -0.190697421
   59     6.017163322     1.707908454    17.549874923    -0.402345541     0.232314542    -0.184791827
   60     9.122469241     6.387223614    18.795496172    -0.397941542     0.232544237    -0.193818748
   61     9.287346545     1.760719949    19.698905998    -0.414301004     0.219765600    -0.173371737
   62     9.119115741     7.276630410    12.133068066    -0.411727290     0.212179197    -0.188309923
   63     2.381695044     7.810261928    19.326904024    -0.390304085     0.239850104    -0.200336340
   64     3.721654528     9.131954082    10.393722863    -0.396930486     0.225682955    -0.203748358
   65     4.848600238     3.858577998    13.240675434    -0.359002195     0.272522659    -0.216445893
   66     1.246909814     6.740325449    17.834031381    -0.386783902     0.244366968    -0.201700268
   67     8.077893280     2.769229508    17.945827485    -0.403920371     0.234996841    -0.177833682
   68     1.240934086     2.299715618    15.045195418    -0.465463030     0.167777096    -0.072076445
   21    12.134796487     6.513025675    14.111698163     0.403100961    -0.218051527     0.199907846
   22    19.467102157     1.896648130    16.151624883    -0.451246809     0.184052742    -0.111807448
   23    19.351175739     9.423973842    17.016464514    -0.399429997     0.230996954    -0.192603439
   24    14.297966313     4.311687490    17.844575934    -0.408742429     0.214993427    -0.191591891
   25    15.576625123     0.555537772    11.129592005    -0.392951103     0.235630443    -0.200169241
   26    12.135851080     1.137915655    17.666737213    -0.118816298    -0.375646846     0.307850831
   27    10.800474257     3.138174132    12.954940638    -0.407485945     0.227642371    -0.179260022
   28    17.793634975     5.576987879    11.224219502    -0.414859560     0.211503280    -0.182093130
   29    18.506264796     8.229800782    15.303734328    -0.391328904     0.237624540    -0.200988226
   30    17.276231526     9.143462162    12.000779603    -0.404698790     0.230322241    -0.182127852
   31    15.788600587    10.107212855    19.015170818    -0.397716023     0.240533486    -0.184297605
   32    17.915475476     0.758200091    18.244099320    -0.396785168     0.239539859    -0.187569150
   33    10.978698808     8.132526679    15.646316705    -0.398972288     0.238463182    -0.184272690
   34    20.576002779     3.117292640    18.364549180    -0.486308525    -0.086173590     0.077962371
   35    17.948291990     7.718936906    10.540761679    -0.407062395     0.225971683    -0.182310188
   36    17.462060359     2.705696781    15.874832387    -0.442619109     0.190349165    -0.133624548
   37    17.967619720     5.318576666    17.811543646    -0.401095915     0.227459447    -0.193350115
   38    16.052667910     6.235783437    14.510682392    -0.418666146     0.210905832    -0.173889011
   39    18.239174610     5.931124151    13.936208382    -0.426463613     0.198430138    -0.169570833
   40    13.005585042     8.949879898    16.483173283    -0.397836863     0.236564656    -0.189111063
   41    16.504957086     2.141784462    13.924150396    -0.441597159     0.189265752    -0.138457303
   42    10.789067365     8.583371928    13.373184446    -0.409255282     0.213013891    -0.192704947
   43    14.326878093     7.168062422    15.517575457    -0.415360512     0.213737287    -0.178303161
   44    19.267273301     4.167403811    14.800914291    -0.428283650     0.199045149    -0.164177172
   45    14.606704110     9.684111261    14.976739542    -0.403783565     0.223693585    -0.192145811
   46    17.698730521     1.362614902    12.276480887    -0.439257621     0.195516730    -0.137207693
   47    17.123194551     1.932348641    19.841245617    -0.405016439     0.223192024    -0.190123655
   48    20.328109657     3.589198508    10.762347708    -0.397990225     0.240956037    -0.183150127
   49    13.567576095     5.441357116    11.852242536     0.410134650    -0.196142096     0.208129399
   50    16.722336119     9.515443451    16.973296447    -0.392596480     0.230713121    -0.206493244
   51    19.999306223     5.949055830    10.901681332    -0.409854819     0.209833275    -0.194907731
   52    19.706758793     9.711437587    11.602859961    -0.392855157     0.226045621    -0.211111825
   53    18.975985456     4.391599207    19.525872767    -0.397472412     0.236980740    -0.189356305
   54    15.135097688     2.498308495    19.837290506    -0.394366174     0.256029408    -0.170071347
   55    13.581320834    10.166617722    12.738697040    -0.394399015     0.234520694    -0.198618884
   56    16.692462367     4.159239373    19.702749753    -0.405315812     0.224893611    -0.187461879
   57    15.582128885     6.085407077    17.332518409    -0.407649539     0.220809204    -0.187256906
   58    14.455089231     0.373538892    17.122848080    -0.396090149     0.238286701    -0.190609659
   59    16.106819272     1.852568666    17.837961792    -0.402779354     0.231666757    -0.184659973
   60    19.212125191     6.531883826    19.083583041    -0.398210997     0.232055174    -0.193851486
   61    19.377002495     1.905380160    19.986992868    -0.414683083     0.219260813    -0.173097189
   62    19.208771690     7.421290622    12.421154935    -0.412008495     0.211695368    -0.188239400
   63    12.471350994     7.954922140    19.614990893    -0.389960979     0.240320390    -0.200440878
   64    13.811310478     9.276614294    10.681809732    -0.397132438     0.225291430    -0.203788120
   65    14.938256188     4.003238210    13.528762303    -0.361317458     0.282462746    -0.199159462
   66    11.336565763     6.884985660    18.122118251    -0.386363608     0.244917225    -0.201838339
   67    18.167549230     2.913889719    18.233914355    -0.404275476     0.234425962    -0.177780223
   68    11.330590036     2.444375829    15.333282288    -0.465652493     0.166239210    -0.074379301
   21    22.224452437     6.657685887    14.399785032     0.403346672    -0.217528208     0.199982351
   22    29.556758107     2.041308342    16.439711752    -0.451263219     0.182918768    -0.113587990
   23    29.440831689     9.568634053    17.304551384    -0.399611053     0.230880025    -0.192367931
   24    24.387622263     4.456347701    18.132662804    -0.408890957     0.215035276    -0.191227654
   25    25.666281073     0.700197984    11.417678875    -0.393069245     0.235630365    -0.199937240
   26    22.225507030     1.282575867    17.954824083    -0.116537970    -0.372982088     0.311934710
   27    20.890130207     3.282834344    13.243027508    -0.408293825     0.226175556    -0.179278472
   28    27.883290925     5.721648091    11.512306372    -0.414829534     0.211597503    -0.182052067
   29    28.595920746     8.374460994    15.591821198    -0.391575373     0.237404978    -0.200767537
   30    27.365887476     9.288122374    12.288866472    -0.404746215     0.230276717    -0.182080023
   31    25.878256537    10.251873066    19.303257687    -0.397896878     0.240311244    -0.184197124
   32    28.005131426     0.902860303    18.532186190    -0.396902435     0.239512755    -0.187355538
   33    21.068354757     8.277186891    15.934403575    -0.399211581     0.238026287    -0.184319289
   34    30.665658728     3.261952852    18.652636049    -0.486671849    -0.090158500     0.070865764
   35    28.037947940     7.863597117    10.828848549    -0.407075161     0.226028055    -0.182211776
   36    27.551716309     2.850356993    16.162919256    -0.442572259     0.189793749    -0.134566446
   37    28.057275670     5.463236878    18.099630515    -0.401332503     0.227446102    -0.192874293
   38    26.142323859     6.380443649    14.798769261    -0.418749302     0.210875475    -0.173725519
   39    28.328830560     6.075784362    14.224295252    -0.426477758     0.198456573    -0.169504308
   40    23.095240992     9.094540110    16.771260153    -0.398046382     0.236228846    -0.189089952
   41    26.594613035     2.286444674    14.212237266    -0.441536284     0.188897256    -0.139152925
   42    20.878723315     8.728032140    13.661271316    -0.409472492     0.212594368    -0.192706806
   43    24.416534042     7.312722634    15.805662327    -0.415459383     0.213672905    -0.178149911
   44    29.356929250     4.312064023    15.089001160    -0.428256669     0.199116739    -0.164160744
   45    24.696360060     9.828771473    15.264826412    -0.403953146     0.223415917    -0.192112424
   46    27.788386471     1.507275113    12.564567757    -0.439197726     0.195277245    -0.137739445
   47    27.212850501     2.077008853    20.129332486    -0.405164412     0.223094430    -0.189922814
   48    30.417765607     3.733858720    11.050434578    -0.398009649     0.241062376    -0.182967894
   49    23.657232044     5.586017327    12.140329406     0.412823831    -0.189773125     0.208716663
   50    26.811992069     9.660103663    17.261383317    -0.392834019     0.230511818    -0.206266175
   51    30.088962172     6.093716041    11.189768202    -0.409863368     0.209886892    -0.194832011
   52    29.796414742     9.856097799    11.890946830    -0.392959719     0.226018120    -0.210946602
   53    29.065641406     4.536259418    19.813959637    -0.397684234     0.237110671    -0.188747927
   54    25.224753638     2.642968706    20.125377375    -0.394476308     0.256078093    -0.169742314
   55    23.670976784    10.311277934    13.026783910    -0.394534256     0.234277073    -0.198637795
   56    26.782118317     4.303899584    19.990836622    -0.405478832     0.224893482    -0.187109161
   57    25.671784835     6.230067288    17.620605278    -0.407798726     0.220829987    -0.186907239
   58    24.544745181     0.518199104    17.410934950    -0.396287171     0.238116356    -0.190412918
   59    26.196475222     1.997228878    18.126048662    -0.402927120     0.231557412    -0.184474661
   60    29.301781141     6.676544038    19.371669911    -0.398452885     0.232058865    -0.193349377
   61    29.466658445     2.050040372    20.275079737    -0.414828566     0.219030019    -0.173040781
   62    29.298427640     7.565950834    12.709241805    -0.412067853     0.211635000    -0.188177340
   63    22.561006944     8.099582351    19.903077763    -0.390139403     0.240044599    -0.200424141
   64    23.900966428     9.421274505    10.969896602    -0.397289473     0.225029027    -0.203771961
   65    25.027912138     4.147898421    13.816849173    -0.358524001     0.284668144    -0.201058669
   66    21.426221713     7.029645872    18.410205120    -0.386586734     0.244572839    -0.201828699
   67    28.257205180     3.058549931    18.522001224    -0.404443918     0.234444335    -0.177372407
   68    21.420245986     2.589036041    15.621369157    -0.465487662     0.167621641    -0.072278779
   21    32.314108387     6.802346099    14.687871902     0.403388930    -0.217881307     0.199512173
   22    39.646414057     2.185968553    16.727798622    -0.451210735     0.184271351    -0.111592750
   23    39.530487639     9.713294265    17.592638253    -0.399760910     0.230623628    -0.192364125
   24    34.477278212     4.601007913    18.420749674    -0.408797160     0.215229580    -0.191209597
   25    35.755937022     0.844858196    11.705765745    -0.392873021     0.236015515    -0.199868622
   26    32.315162980     1.427236078    18.242910952    -0.116167784    -0.384246072     0.298093948
   27    30.979786157     3.427494556    13.531114377    -0.408149477     0.227075479    -0.178467731
   28    37.972946874     5.866308303    11.800393242    -0.414799331     0.211605854    -0.182111169
   29    38.685576696     8.519121205    15.879908068    -0.391714993     0.237228240    -0.200704076
   30    37.455543426     9.432782586    12.576953342    -0.404706220     0.230316380    -0.182118754
   31    35.967912487    10.396533278    19.591344557    -0.398187070     0.239981887    -0.183999324
   32    38.094787376     1.047520515    18.820273059    -0.396716861     0.239828951    -0.187344085
   33    31.158010707     8.421847102    16.222490444    -0.399356233     0.238010916    -0.184025549
   34    40.755314678     3.406613063    18.940722919    -0.486354778    -0.086216114     0.077626101
   35    38.127603890     8.008257329    11.116935418    -0.407051193     0.226055571    -0.182231187
   36    37.641372258     2.995017205    16.451006126    -0.442573022     0.190591249    -0.133431989
   37    38.146931619     5.607897089    18.387717385    -0.401264419     0.227371957    -0.193103234
   38    36.231979809     6.525103860    15.086856131    -0.418755806     0.210981888    -0.173580580
   39    38.418486510     6.220444574    14.512382122    -0.426496995     0.198480483    -0.169427893
   40    33.184896942     9.239200322    17.059347022    -0.398223081     0.236176210    -0.188783409
   41    36.684268985     2.431104886    14.500324135    -0.441510214     0.189576060    -0.138309974
   42    30.968379265     8.872692352    13.949358185    -0.409606627     0.212536932    -0.192484970
   43    34.506189992     7.457382846    16.093749196    -0.415506647     0.213736384    -0.177963437
   44    39.446585200     4.456724235    15.377088030    -0.428275625     0.199104012    -0.164126724
   45    34.786016010     9.973431684    15.552913282    -0.404097554     0.223396184    -0.191831467
   46    37.878042420     1.651935325    12.852654626    -0.439155222     0.195853888    -0.137054536
   47    37.302506451     2.221669064    20.417419356    -0.404931505     0.223176015    -0.190323258
   48    40.507421557     3.878518932    11.338521447    -0.398018840     0.240853110    -0.183223314
   49    33.746887994     5.730677539    12.428416275     0.406965885    -0.202758524     0.208009012
   50    36.901648019     9.804763875    17.549470186    -0.393143404     0.230163085    -0.206066052
   51    40.178618122     6.238376253    11.477855072    -0.409864572     0.209908564    -0.194806126
   52    39.886070692    10.000758011    12.179033700    -0.392995365     0.225968429    -0.210933431
   53    39.155297356     4.680919630    20.102046506    -0.397613967     0.236897337    -0.189163382
   54    35.314409587     2.787628918    20.413464245    -0.394259761     0.256233832    -0.170010189
   55    33.760632733    10.455938145    13.314870779    -0.394660133     0.234269457    -0.198396574
   56    36.871774267     4.448559796    20.278923492    -0.405300766     0.225019381    -0.187343448
   57    35.761440785     6.374727500    17.908692148    -0.407731576     0.220966718    -0.186892138
   58    34.634401130     0.662859315    17.699021819    -0.396045660     0.238880727    -0.189957451
   59    36.286131171     2.141889089    18.414135532    -0.402710247     0.232134556    -0.184222705
   60    39.391437091     6.821204249    19.659756781    -0.398452843     0.231819795    -0.193636035
   61    39.556314395     2.194700584    20.563166607    -0.414658205     0.219017069    -0.173464971
   62    39.388083590     7.710611045    12.997328674    -0.412065540     0.211676531    -0.188135687
   63    32.650662894     8.244242563    20.191164632    -0.390612975     0.239700932    -0.199912399
   64    33.990622378     9.565934717    11.257983471    -0.397374615     0.225043379    -0.203590012
   65    35.117568087     4.292558633    14.104936042    -0.363342739     0.274506597    -0.206465936
   66    31.515877663     7.174306084    18.698291990    -0.386996209     0.244322028    -0.201347166
   67    38.346861130     3.203210143    18.810088094    -0.404301851     0.234446149    -0.177693602
   68    31.509901936     2.733696253    15.909456027    -0.465657503     0.165843065    -0.075227437
   21     2.180216008    16.393458985    13.854236717     0.402850182    -0.219059470     0.199310509
   22     9.512521679    11.777081439    15.894163437    -0.450662302     0.185555898    -0.111680339
   23     9.396595261    19.304407151    16.759003068    -0.399077804     0.231977560    -0.192154411
   24     4.343385834    14.192120799    17.587114488    -0.408227427     0.216182964    -0.191351233
   25     5.622044644    10.435971082    10.872130559    -0.392540043     0.236256047    -0.200238346
   26     2.181270601    11.018348964    17.409275767    -0.117340584    -0.375117184     0.309060327
   27     0.845893778    13.018607442    12.697479192    -0.408081149     0.227416661    -0.178189331
   28     7.839054496    15.457421189    10.966758056    -0.414545228     0.212416701    -0.181745424
   29     8.551684317    18.110234091    15.046272882    -0.390973799     0.238582578    -0.200543867
   30     7.321651047    19.023895472    11.743318157    -0.404438683     0.231164804    -0.181637510
   31     5.834020109    19.987646164    18.757709372    -0.397318560     0.241492809    -0.183899932
   32     7.960894997    10.638633401    17.986637874    -0.396250812     0.240458984    -0.187522721
   33     1.024118329    18.012959989    15.388855259    -0.398865264     0.239107978    -0.183667843
   34    10.621422300    12.997725949    18.107087734    -0.486745944    -0.083925528     0.077684563
   35     7.993711512    17.599370215    10.283300233    -0.406734172     0.226881966    -0.181911755
   36     7.507479880    12.586130091    15.617370941    -0.442150341     0.191603104    -0.133384132
   37     8.013039241    15.199009976    17.554082199    -0.400655609     0.228369245    -0.193190503
   38     6.098087431    16.116216746    14.253220946    -0.418232149     0.212072517    -0.173514024
   39     8.284594131    15.811557460    13.678746936    -0.426105594     0.199468710    -0.169252050
   40     3.051004564    18.830313208    16.225711837    -0.397564420     0.237369007    -0.188675611
   41     6.550376607    12.022217772    13.666688950    -0.441184709     0.190398468    -0.138218941
   42     0.834486886    18.463805238    13.115723000    -0.409312509     0.213574269    -0.191961718
   43     4.372297614    17.048495732    15.260114011    -0.414936661     0.214885679    -0.177909282
   44     9.312692822    14.047837121    14.543452845    -0.427900527     0.200083973    -0.163913218
   45     4.652123632    19.564544570    14.719278096    -0.403452737     0.224653627    -0.191720205
   46     7.744150042    11.243048211    12.019019441    -0.438856054     0.196540909    -0.137029320
   47     7.168614072    11.812781950    19.583784171    -0.404462792     0.224130621    -0.190198093
   48    10.373529178    13.469631818    10.504886262    -0.397713604     0.241619079    -0.182877308
   49     3.612995616    15.321790425    11.594781090     0.409051640    -0.200430924     0.206165468
   50     6.767755640    19.395876761    16.715835001    -0.392206014     0.231734707    -0.206090922
   51    10.044725744    15.829489139    10.644219886    -0.409518847     0.210824120    -0.194544352
   52     9.752178314    19.591870897    11.345398515    -0.392696856     0.226892653    -0.210496801
   53     9.021404977    14.272032516    19.268411321    -0.396988245     0.237852695    -0.189278707
   54     5.180517209    12.378741804    19.579829060    -0.393636044     0.257189981    -0.170011700
   55     3.626740355    20.047051031    12.481235594    -0.394170708     0.235322840    -0.198122725
   56     6.737881888    14.039672682    19.445288307    -0.404762662     0.225910341    -0.187434534
   57     5.627548407    15.965840386    17.075056963    -0.407142174     0.221983165    -0.186972524
   58     4.500508752    10.253972201    16.865386634    -0.395698646     0.239070730    -0.190440982
   59     6.152238793    11.733001975    17.580500346    -0.402324502     0.232561249    -0.184527126
   60     9.257544712    16.412317135    18.826121595    -0.397828929     0.232860116    -0.193670623
   61     9.422422016    11.785813470    19.729531422    -0.414152665     0.220179086    -0.173201445
   62     9.254191212    17.301723931    12.163693489    -0.411665274     0.212691744    -0.187866772
   63     2.516770515    17.835355449    19.357529447    -0.390062628     0.240726068    -0.199755117
   64     3.856729999    19.157047603    10.424348286    -0.397009477     0.226012965    -0.203227987
   65     4.983675709    13.883671519    13.271300857    -0.366847026     0.285240718    -0.184556203
   66     1.381985285    16.765418970    17.864656805    -0.386573344     0.245214102    -0.201074846
   67     8.212968751    12.794323029    17.976452909    -0.403740209     0.235367887    -0.177752080
   68     1.376009558    12.324809139    15.075820841    -0.465668522     0.166345080    -0.074041487
   21    12.269871958    16.538119196    14.142323586     0.402675907    -0.219285067     0.199414577
   22    19.602177629    11.921741651    16.182250306    -0.451122850     0.184063749    -0.112288513
   23    19.486251210    19.449067363    17.047089938    -0.399381864     0.231881184    -0.191638312
   24    14.433041784    14.336781011    17.875201358    -0.408435176     0.215985731    -0.191130509
   25    15.711700594    10.580631293    11.160217429    -0.392830097     0.235765373    -0.200247856
   26    12.270926551    11.163009176    17.697362637    -0.119237087    -0.374912309     0.308582691
   27    10.935549728    13.163267653    12.985566062    -0.407927116     0.227041941    -0.179017946
   28    17.928710446    15.602081400    11.254844926    -0.414739988     0.212002582    -0.181784620
   29    18.641340267    18.254894303    15.334359752    -0.391317702     0.238512589    -0.199955497
   30    17.411306997    19.168555683    12.031405026    -0.404604805     0.230794414    -0.181738523
   31    15.923676059    20.132306376    19.045796241    -0.397677675     0.241117378    -0.183616113
   32    18.050550947    10.783293613    18.274724744    -0.396493509     0.240143920    -0.187413433
   33    11.113774279    18.157620200    15.676942129    -0.398785530     0.239150039    -0.183786180
   34    20.711078250    13.142386161    18.395174603    -0.486393722    -0.087620329     0.075788027
   35    18.083367461    17.744030427    10.571387103    -0.406971427     0.226496317    -0.181861694
   36    17.597135830    12.730790302    15.905457810    -0.442445388     0.190600319    -0.133841686
   37    18.102695191    15.343670187    17.842169069    -0.400905386     0.228204494    -0.192866742
   38    16.187743381    16.260876958    14.541307815    -0.418407522     0.211808892    -0.173413204
   39    18.374250081    15.956217672    13.966833806    -0.426253307     0.199182806    -0.169216808
   40    13.140660513    18.974973419    16.513798707    -0.397684403     0.237244847    -0.188578891
   41    16.640032557    12.166877983    13.954775820    -0.441417752     0.189517564    -0.138684755
   42    10.924142836    18.608465450    13.403809870    -0.409098506     0.213720825    -0.192254575
   43    14.461953564    17.193155943    15.548200881    -0.415112219     0.214649145    -0.177785236
   44    19.402348772    14.192497332    14.831539714    -0.428020624     0.199808037    -0.163936249
   45    14.741779581    19.709204782    15.007364966    -0.403643610     0.224442630    -0.191565504
   46    17.833805992    11.387708423    12.307106311    -0.439089621     0.195742561    -0.137423268
   47    17.258270022    11.957442162    19.871871040    -0.404731290     0.223929995    -0.189862951
   48    20.463185128    13.614292029    10.792973132    -0.397833347     0.241303121    -0.183033963
   49    13.702651566    15.466450637    11.882867960     0.409189196    -0.198565027     0.207692396
   50    16.857411590    19.540536972    17.003921871    -0.392594620     0.231396235    -0.205731005
   51    20.134381694    15.974149351    10.932306756    -0.409732957     0.210463000    -0.194484523
   52    19.841834264    19.736531108    11.633485384    -0.392787212     0.226507887    -0.210742457
   53    19.111060927    14.416692728    19.556498191    -0.397231044     0.237814792    -0.188816372
   54    15.270173159    12.523402016    19.867915929    -0.393802443     0.257039357    -0.169854070
   55    13.716396305    20.191711243    12.769322464    -0.394259930     0.235166430    -0.198130910
   56    16.827537838    14.184332894    19.733375176    -0.404983225     0.225745169    -0.187156904
   57    15.717204356    16.110500598    17.363143832    -0.407362636     0.221744245    -0.186775727
   58    14.590164702    10.398632413    17.153473504    -0.395854801     0.238827033    -0.190422227
   59    16.241894743    11.877662187    17.868587216    -0.402503458     0.232279684    -0.184491504
   60    19.347200662    16.556977347    19.114208465    -0.398055612     0.232737008    -0.193352567
   61    19.512077966    11.930473681    20.017618291    -0.414452282     0.219913402    -0.172821879
   62    19.343847161    17.446384143    12.451780359    -0.411864641     0.212318148    -0.187852393
   63    12.606426465    17.980015661    19.645616317    -0.389866408     0.240813549    -0.200032543
   64    13.946385949    19.301707815    10.712435156    -0.397023632     0.225914171    -0.203310164
   65    15.073331659    14.028331731    13.559387727    -0.362210366     0.281795889    -0.198481052
   66    11.471641234    16.910079181    18.152743674    -0.386267224     0.245363158    -0.201480899
   67    18.302624701    12.938983240    18.264539778    -0.404013098     0.235139468    -0.177434066
   68    11.465665507    12.469469350    15.363907711    -0.464868823     0.169357930    -0.072214047
   21    22.359527908    16.682779408    14.430410456     0.403229207    -0.218356830     0.199315081
   22    29.691833578    12.066401863    16.470337176    -0.451073086     0.184380405    -0.111968464
   23    29.575907160    19.593727574    17.335176807    -0.399667183     0.230655085    -0.192521102
   24    24.522697734    14.481441222    18.163288228    -0.408554182     0.215680428    -0.191220901
   25    25.801356544    10.725291505    11.448304299    -0.392901579     0.235658779    -0.200233087
   26    22.360582501    11.307669388    17.985449506    -0.113104408    -0.376191429     0.309333803
   27    21.025205678    13.307927865    13.273652931    -0.407837839     0.227277459    -0.178922479
   28    28.018366396    15.746741612    11.542931795    -0.414829398     0.211896705    -0.181704036
   29    28.730996217    18.399554515    15.622446622    -0.391570217     0.237355614    -0.200835947
   30    27.500962947    19.313215895    12.319491896    -0.404732308     0.230641246    -0.181649043
   31    26.013332008    20.276966587    19.333883111    -0.397896365     0.240190685    -0.184355411
   32    28.140206897    10.927953824    18.562811613    -0.396675889     0.239956053    -0.187268075
   33    21.203430228    18.302280412    15.965028998    -0.399119979     0.238634670    -0.183730065
   34    30.800734199    13.287046373    18.683261473    -0.486452080    -0.085378965     0.077941042
   35    28.173023411    17.888690638    10.859473972    -0.407032324     0.226348675    -0.181909221
   36    27.686791780    12.875450514    16.193544680    -0.442434608     0.190717154    -0.133710827
   37    28.192351141    15.488330399    18.130255939    -0.401010206     0.227954477    -0.192944475
   38    26.277399330    16.405537170    14.829394685    -0.418527814     0.211518515    -0.173477339
   39    28.463906031    16.100877883    14.254920676    -0.426304789     0.199015097    -0.169284429
   40    23.230316463    19.119633631    16.801885576    -0.397960268     0.236740471    -0.188630790
   41    26.729688506    12.311538195    14.242862689    -0.441413813     0.189568978    -0.138627010
   42    21.013798786    18.753125661    13.691896739    -0.409410290     0.213257836    -0.192104944
   43    24.551609513    17.337816155    15.836287750    -0.415257046     0.214292731    -0.177876956
   44    29.492004722    14.337157544    15.119626584    -0.428060504     0.199682152    -0.163985496
   45    24.831435531    19.853864994    15.295451836    -0.403830671     0.223907293    -0.191797583
   46    27.923461942    11.532368635    12.595193180    -0.439086817     0.195782357    -0.137375527
   47    27.347925972    12.102102374    20.159957910    -0.404854643     0.223738406    -0.189825825
   48    30.552841078    13.758952241    11.081060001    -0.397965121     0.241150315    -0.182948867
   49    23.792307516    15.611110848    12.170954829     0.408903808    -0.198146221     0.208652224
   50    26.947067540    19.685197184    17.292008740    -0.392788133     0.230512819    -0.206352424
   51    30.224037643    16.118809562    11.220393626    -0.409819283     0.210250235    -0.194532758
   52    29.931490213    19.881191320    11.921572254    -0.392907624     0.226503879    -0.210522187
   53    29.200716877    14.561352939    19.844585060    -0.397333051     0.237517395    -0.188976014
   54    25.359829109    12.668062227    20.156002799    -0.394037352     0.256731188    -0.169775328
   55    23.806052255    20.336371455    13.057409333    -0.394453011     0.234903271    -0.198058769
   56    26.917193788    14.328993105    20.021462046    -0.405131045     0.225497940    -0.187135020
   57    25.806860306    16.255160809    17.651230702    -0.407480244     0.221452244    -0.186865604
   58    24.679820652    10.543292625    17.441560373    -0.396059779     0.238560254    -0.190330389
   59    26.331550693    12.022322399    18.156674085    -0.402671887     0.232068806    -0.184389317
   60    29.436856612    16.701637559    19.402295334    -0.398172661     0.232487757    -0.193411415
   61    29.601733916    12.075133893    20.305705161    -0.414512296     0.219843175    -0.172767286
   62    29.433503111    17.591044355    12.739867228    -0.411953425     0.212135779    -0.187863747
   63    22.696082415    18.124675872    19.933703186    -0.390230787     0.240282490    -0.199960641
   64    24.036041899    19.446368026    11.000522025    -0.397224851     0.225679961    -0.203177195
   65    25.162987609    14.172991942    13.847474596    -0.360446633     0.272700415    -0.213805306
   66    21.561297184    17.054739393    18.440830544    -0.386595111     0.244983811    -0.201313568
   67    28.392280651    13.083643452    18.552626648    -0.404154474     0.234848634    -0.177497268
   68    21.555321457    12.614129562    15.651994581    -0.465476671     0.167289963    -0.073113176
   21    32.449183858    16.827439620    14.718497325     0.402902654    -0.218760396     0.199532806
   22    39.781489528    12.211062074    16.758424046    -0.451232599     0.183393196    -0.112942807
   23    39.665563110    19.738387786    17.623263677    -0.399295852     0.231962677    -0.191718907
   24    34.612353683    14.626101434    18.451375097    -0.408796865     0.215591929    -0.190801581
   25    35.891012493    10.869951717    11.736391168    -0.392915257     0.235740700    -0.200109778
   26    32.450238451    11.452329599    18.273536376    -0.118581351    -0.373277421     0.310809315
   27    31.114861628    13.452588077    13.561739801    -0.407712420     0.227353603    -0.179111479
   28    38.108022345    15.891401824    11.831018665    -0.414795373     0.212193512    -0.181435145
   29    38.820652167    18.544214726    15.910533491    -0.391217449     0.238630969    -0.200010420
   30    37.590618897    19.457876107    12.607578765    -0.404643790     0.231087220    -0.181279067
   31    36.102987958    20.421626799    19.621969981    -0.397701943     0.241419526    -0.183165982
   32    38.229862847    11.072614036    18.850898483    -0.396960935     0.239636426    -0.187073246
   33    31.293086178    18.446940623    16.253115868    -0.399060627     0.238698102    -0.183776583
   34    40.890390149    13.431706584    18.971348343    -0.486296868    -0.089164867     0.074598811
   35    38.262679361    18.033350850    11.147560842    -0.407008082     0.226719265    -0.181501503
   36    37.776447729    13.020110726    16.481631549    -0.442435883     0.190305706    -0.134291575
   37    38.282007090    15.632990610    18.418342808    -0.401227784     0.227972751    -0.192469971
   38    36.367055280    16.550197381    15.117481555    -0.418674287     0.211550449    -0.173084513
   39    38.553561981    16.245538095    14.543007545    -0.426417811     0.199091475    -0.168909546
   40    33.319972413    19.264293843    17.089972446    -0.397857923     0.237062347    -0.188442344
   41    36.819344456    12.456198407    14.530949559    -0.441283032     0.189436203    -0.139223600
   42    31.103454736    18.897785873    13.979983609    -0.409393911     0.213091097    -0.192324750
   43    34.641265463    17.482476367    16.124374620    -0.415366395     0.214393430    -0.177499902
   44    39.581660671    14.481817756    15.407713454    -0.428196935     0.199662740    -0.163652605
   45    34.921091481    19.998525205    15.583538705    -0.403775778     0.224465162    -0.191260326
   46    38.013117892    11.677028846    12.883280050    -0.438967944     0.195734902    -0.137822321
   47    37.437581922    12.246762585    20.448044779    -0.405232974     0.223253296    -0.189589563
   48    40.642497028    13.903612453    11.369146871    -0.397923687     0.241401336    -0.182707785
   49    33.881963465    15.755771060    12.459041699     0.398779785    -0.211217991     0.215317542
   50    37.036723490    19.829857396    17.580095610    -0.392608033     0.231716758    -0.205344287
   51    40.313693593    16.263469774    11.508480495    -0.409798291     0.210615651    -0.194181380
   52    40.021146163    20.025851532    12.209659124    -0.392934606     0.226819263    -0.210131905
   53    39.290372827    14.706013151    20.132671930    -0.397632937     0.237474319    -0.188398500
   54    35.449485059    12.812722439    20.444089669    -0.394502322     0.256270583    -0.169390987
   55    33.895708204    20.481031666    13.345496203    -0.394365569     0.235366139    -0.197683025
   56    37.006849738    14.473653317    20.309548916    -0.405495023     0.225161259    -0.186751691
   57    35.896516256    16.399821021    17.939317572    -0.407687286     0.221433111    -0.186436193
   58    34.769476601    10.687952836    17.729647243    -0.396280901     0.238310910    -0.190182432
   59    36.421206642    12.166982610    18.444760955    -0.402929594     0.231759103    -0.184215798
   60    39.526512562    16.846297770    19.690382204    -0.398331920     0.232616409    -0.192928195
   61    39.691389866    12.219794105    20.593792030    -0.414898090     0.219221498    -0.172631138
   62    39.523159061    17.735704566    13.027954098    -0.411910138     0.212482481    -0.187566611
   63    32.785738365    18.269336084    20.221790056    -0.390214476     0.240451121    -0.199789692
   64    34.125697849    19.591028238    11.288608895    -0.397149113     0.226101621    -0.202856203
   65    35.252643558    14.317652154    14.135561466    -0.319326980     0.296572311    -0.245102314
   66    31.650953134    17.199399605    18.728917413    -0.386598487     0.245004499    -0.201281906
   67    38.481936601    13.228303664    18.840713518    -0.404411693     0.234709822    -0.177094558
   68    31.644977407    12.758789774    15.940081450    -0.465344404     0.167957869    -0.072420579
   21     2.315291480    26.418552506    13.884862140     0.402828674    -0.218960506     0.199462669
   22     9.647597150    21.802174960    15.924788860    -0.451024898     0.184799812    -0.111470044
   23     9.531670732    29.329500672    16.789628491    -0.399191540     0.231282710    -0.192754824
   24     4.478461305    24.217214320    17.617739912    -0.408184392     0.216455569    -0.191134739
   25     5.757120115    20.461064603    10.902755983    -0.392652533     0.236483582    -0.199748602
   26     2.316346072    21.043442485    17.439901190    -0.121319578    -0.378197740     0.303723607
   27     0.980969250    23.043700963    12.728104616    -0.407957665     0.227418619    -0.178469367
   28     7.974129967    25.482514710    10.997383480    -0.414646772     0.212265588    -0.181690327
   29     8.686759788    28.135327612    15.076898306    -0.391059401     0.237939795    -0.201139749
   30     7.456726518    29.048988993    11.773943580    -0.404497159     0.230887546    -0.181859808
   31     5.969095580    30.012739685    18.788334795    -0.397482182     0.240777090    -0.184483896
   32     8.095970468    20.663726922    18.017263298    -0.396119884     0.241030710    -0.187064787
   33     1.159193800    28.038053510    15.419480683    -0.398894733     0.238889088    -0.183888542
   34    10.756497771    23.022819470    18.137713157    -0.486348743    -0.087261946     0.076486945
   35     8.128786983    27.624463736    10.313925657    -0.406842036     0.226609001    -0.182010765
   36     7.642555351    22.611223612    15.647996364    -0.442299116     0.191366793    -0.133230035
   37     8.148114712    25.224103497    17.584707623    -0.400656510     0.228476276    -0.193062043
   38     6.233162902    26.141310267    14.283846369    -0.418255013     0.212077356    -0.173452988
   39     8.419669602    25.836650981    13.709372360    -0.426089148     0.199508880    -0.169246107
   40     3.186080035    28.855406729    16.256337261    -0.397670202     0.237038377    -0.188868257
   41     6.685452078    22.047311293    13.697314374    -0.441254583     0.190292245    -0.138142152
   42     0.969562358    28.488898759    13.146348424    -0.409313459     0.213374445    -0.192181784
   43     4.507373085    27.073589253    15.290739435    -0.414967531     0.214845975    -0.177885231
   44     9.447768293    24.072930642    14.574078268    -0.427819107     0.200287236    -0.163877501
   45     4.787199103    29.589638091    14.749903520    -0.403558896     0.224276801    -0.191937838
   46     7.879225513    21.268141732    12.049644865    -0.438894463     0.196555635    -0.136885108
   47     7.303689543    21.837875471    19.614409594    -0.404435008     0.224540641    -0.189773089
   48    10.508604649    23.494725339    10.535511686    -0.397680464     0.241914544    -0.182558489
   49     3.748071087    25.346883946    11.625406514     0.403533661    -0.206394037     0.211097337
   50     6.902831111    29.420970282    16.746460425    -0.392392241     0.230998690    -0.206562181
   51    10.179801215    25.854582660    10.674845310    -0.409639438     0.210506471    -0.194634419
   52     9.887253785    29.616964418    11.376023938    -0.392656258     0.226671952    -0.210810079
   53     9.156480448    24.297126037    19.299036745    -0.396976857     0.238109274    -0.188979756
   54     5.315592680    22.403835325    19.610454483    -0.393707756     0.257546328    -0.169304731
   55     3.761815826    30.072144552    12.511861017    -0.394277810     0.234999823    -0.198292944
   56     6.872957359    24.064766203    19.475913730    -0.404751447     0.226305264    -0.186981801
   57     5.762623878    25.990933907    17.105682386    -0.407135655     0.222126927    -0.186815916
   58     4.635584223    20.279065722    16.896012058    -0.395472822     0.239892445    -0.189875913
   59     6.287314264    21.758095496    17.611125770    -0.402160344     0.233257417    -0.184005531
   60     9.392620183    26.437410656    18.856747019    -0.397867999     0.232801136    -0.193661266
   61     9.557497487    21.810906991    19.760156845    -0.414152114     0.220456440    -0.172849601
   62     9.389266683    27.326817452    12.194318913    -0.411765164     0.212363764    -0.188018833
   63     2.651845986    27.860448970    19.388154871    -0.389967239     0.240664128    -0.200015825
   64     3.991805470    29.182141124    10.454973710    -0.397096722     0.225692445    -0.203413652
   65     5.118751180    23.908765040    13.301926281    -0.355966798     0.275130164    -0.218153689
   66     1.517060756    26.790512491    17.895282228    -0.386441220     0.245292520    -0.201233106
   67     8.348044222    22.819416550    18.007078332    -0.403728086     0.235697025    -0.177343016
   68     1.511085029    22.349902660    15.106446265    -0.465226415     0.168019001    -0.073034228
   21    12.404947429    26.563212718    14.172949010     0.403260725    -0.217729739     0.199936361
   22    19.737253100    21.946835172    16.212875730    -0.450620855     0.187008011    -0.109402236
   23    19.621326681    29.474160884    17.077715361    -0.400119866     0.229759552    -0.192651605
   24    14.568117255    24.361874532    17.905826782    -0.408807168     0.215308185    -0.191099671
   25    15.846776065    20.605724814    11.190842853    -0.392782612     0.236103653    -0.199942203
   26    12.406002022    21.188102697    17.727988060    -0.122190275    -0.378382173     0.303144301
   27    11.070625199    23.188361175    13.016191485    -0.407353660     0.228054821    -0.179036294
   28    18.063785917    25.627174921    11.285470349    -0.415357309     0.210906496    -0.181650092
   29    18.776415738    28.279987824    15.364985175    -0.392115799     0.236363782    -0.200941192
   30    17.546382468    29.193649204    12.062030450    -0.405376878     0.229299236    -0.181910546
   31    16.058751530    30.157399897    19.076421665    -0.398152822     0.239561565    -0.184620116
   32    18.185626418    20.808387134    18.305350167    -0.396510803     0.240628340    -0.186754343
   33    11.248849750    28.182713721    15.707567552    -0.399173945     0.238100402    -0.184305074
   34    20.846153721    23.167479682    18.425800027    -0.486303392    -0.077292625     0.086803576
   35    18.218442932    27.769123948    10.602012526    -0.407625447     0.225235812    -0.181962424
   36    17.732211301    22.755883824    15.936083234    -0.442322410     0.192053792    -0.132159853
   37    18.237770662    25.368763708    17.872794493    -0.401163428     0.227525165    -0.193132605
   38    16.322818852    26.285970479    14.571933239    -0.418965671     0.210515222    -0.173640743
   39    18.509325552    25.981311193    13.997459230    -0.426802677     0.197908355    -0.169327369
   40    13.275735984    29.000066940    16.544424130    -0.398219499     0.235881464    -0.189159102
   41    16.775108028    22.191971504    13.985401243    -0.441336632     0.190651692    -0.137382349
   42    11.059218307    28.633558971    13.434435293    -0.409324660     0.212950814    -0.192627293
   43    14.597029035    27.218249464    15.578826304    -0.415662322     0.213325145    -0.178093279
   44    19.537424243    24.217590853    14.862165138    -0.428517346     0.198691937    -0.163995117
   45    14.876855053    29.734298303    15.037990389    -0.404165288     0.223000997    -0.192148316
   46    17.968881463    21.412801944    12.337731734    -0.439000004     0.196655260    -0.136402730
   47    17.393345493    21.982535683    19.902496464    -0.404835540     0.224125400    -0.189409585
   48    20.598260599    23.639385550    10.823598555    -0.398366491     0.240853656    -0.182465490
   49    13.837727037    25.491544158    11.913493383     0.410038201    -0.198733022     0.205849118
   50    16.992487061    29.565630493    17.034547294    -0.393085534     0.229664239    -0.206731953
   51    20.269457165    25.999242872    10.962932180    -0.410365092     0.209146192    -0.194572253
   52    19.976909735    29.761624629    11.664110808    -0.393665970     0.224968223    -0.210751994
   53    19.246136398    24.441786249    19.587123614    -0.397437634     0.237113726    -0.189262802
   54    15.405248630    22.548495537    19.898541353    -0.394035570     0.257099306    -0.169221503
   55    13.851471776    30.216804764    12.799947887    -0.394929118     0.233732999    -0.198494023
   56    16.962613309    24.209426415    19.764000600    -0.405180589     0.225640161    -0.186856116
   57    15.852279828    26.135594119    17.393769256    -0.407778295     0.220920658    -0.186844654
   58    14.725240173    20.423725934    17.184098927    -0.395763175     0.239583694    -0.189660653
   59    16.376970214    21.902755708    17.899212639    -0.402497072     0.232859072    -0.183773664
   60    19.482276133    26.582070868    19.144833888    -0.398368597     0.231959604    -0.193641946
   61    19.647153437    21.955567202    20.048243715    -0.414574385     0.220194020    -0.172170476
   62    19.478922633    27.471477664    12.482405782    -0.412547226     0.210903477    -0.187948156
   63    12.741501936    28.005109182    19.676241740    -0.390099809     0.240059982    -0.200482777
   64    14.081461420    29.326801336    10.743060579    -0.397654089     0.224554241    -0.203584426
   65    15.208407130    24.053425252    13.590013150    -0.361682314     0.277752008    -0.205035913
   66    11.606716706    26.935172702    18.183369098    -0.386474332     0.244779773    -0.201793095
   67    18.437700172    22.964076761    18.295165202    -0.404136948     0.234979606    -0.177363785
   68    11.600740978    22.494562871    15.394533135    -0.465404296     0.167930188    -0.072099191
   21    22.494603379    26.707872929    14.461035879     0.403961289    -0.216501800     0.199855566
   22    29.826909049    22.091495384    16.500962600    -0.451726166     0.181480849    -0.114053376
   23    29.710982631    29.618821095    17.365802231    -0.399800975     0.230406361    -0.192541136
   24    24.657773205    24.506534743    18.193913651    -0.408893255     0.215290980    -0.190934806
   25    25.936432015    20.750385026    11.478929722    -0.392903091     0.236234722    -0.199550287
   26    22.495657972    21.332762909    18.016074930    -0.134327082    -0.354399952     0.326124070
   27    21.160281149    23.333021386    13.304278355    -0.408709922     0.224731490    -0.180144267
   28    28.153441867    25.771835133    11.573557219    -0.415228218     0.211888924    -0.180799919
   29    28.866071688    28.424648036    15.653072045    -0.391694422     0.237096962    -0.200899255
   30    27.636038418    29.338309416    12.350117319    -0.405109165     0.230314144    -0.181223508
   31    26.148407479    30.302060108    19.364508535    -0.398188646     0.239864011    -0.184149554
   32    28.275282368    20.953047345    18.593437037    -0.396745497     0.239829039    -0.187283322
   33    21.338505699    28.327373933    15.995654422    -0.399695147     0.237384583    -0.184098747
   34    30.935809670    23.312139894    18.713886897    -0.486371553    -0.094573899     0.067070783
   35    28.308098882    27.913784159    10.890099396    -0.407432120     0.226255577    -0.181128355
   36    27.821867251    22.900544035    16.224170103    -0.442883101     0.189055492    -0.134582986
   37    28.327426612    25.513423920    18.160881362    -0.401344285     0.227686863    -0.192565462
   38    26.412474801    26.430630691    14.860020109    -0.419007303     0.210855348    -0.173126838
   39    28.598981502    26.125971404    14.285546099    -0.426807080     0.198512814    -0.168607174
   40    23.365391934    29.144727152    16.832511000    -0.398450064     0.235783339    -0.188795560
   41    26.864763978    22.336631716    14.273488113    -0.441796145     0.188337539    -0.139086799
   42    21.148874257    28.778219182    13.722522163    -0.410060257     0.211678506    -0.192465051
   43    24.686684984    27.362909676    15.866913174    -0.415751559     0.213546718    -0.177618806
   44    29.627080193    24.362251065    15.150252007    -0.428608754     0.199107653    -0.163250356
   45    24.966511002    29.878958515    15.326077259    -0.404353243     0.223058743    -0.191685294
   46    28.058537413    21.557462156    12.625818604    -0.439421865     0.194900479    -0.137558088
   47    27.483001443    22.127195895    20.190583333    -0.405056081     0.223412761    -0.189779633
   48    30.687916549    23.784045762    11.111685425    -0.398140826     0.241747383    -0.181774820
   49    23.927382987    25.636204369    12.201580253     0.412423140    -0.173143004     0.223447206
   50    27.082143011    29.710290705    17.322634164    -0.393164870     0.229972153    -0.206238197
   51    30.359113114    26.143903083    11.251019049    -0.410226277     0.210129538    -0.193803970
   52    30.066565684    29.906284841    11.952197678    -0.393421516     0.226062768    -0.210036034
   53    29.335792348    24.586446460    19.875210484    -0.397699295     0.237472312    -0.188260916
   54    25.494904580    22.693155748    20.186628223    -0.394126801     0.256729308    -0.169570419
   55    23.941127726    30.361464976    13.088034757    -0.395108430     0.233911492    -0.197926103
   56    27.052269259    24.354086626    20.052087469    -0.405366109     0.225296748    -0.186868116
   57    25.941935777    26.280254330    17.681856126    -0.407877191     0.220994665    -0.186541027
   58    24.814896123    20.568386146    17.472185797    -0.395919895     0.238413776    -0.190804371
   59    26.466626164    22.047415920    18.187299509    -0.402694452     0.231860192    -0.184602355
   60    29.571932083    26.726731080    19.432920758    -0.398510131     0.232240292    -0.193013270
   61    29.736809387    22.100227414    20.336330584    -0.414748074     0.219241645    -0.172965709
   62    29.568578582    27.616137876    12.770492652    -0.412385938     0.211769032    -0.187327829
   63    22.831157886    28.149769393    19.964328610    -0.390456192     0.239640416    -0.200290872
   64    24.171117370    29.471461547    11.031147449    -0.397880932     0.224640360    -0.203045495
   65    25.298063080    24.198085463    13.878100020    -0.359580585     0.279795335    -0.205952357
   66    21.696372655    27.079832914    18.471455967    -0.386884974     0.244205584    -0.201701884
   67    28.527356122    23.108736973    18.583252072    -0.404392937     0.234781747    -0.177042040
   68    21.690396928    22.639223083    15.682620004    -0.464500169     0.171904051    -0.068473282
   21    32.584259329    26.852533141    14.749122749     0.403544962    -0.218160451     0.198890625
   22    39.916564999    22.236155595    16.789049469    -0.450956863     0.184678083    -0.111946028
   23    39.800638581    29.763481307    17.653889100    -0.399378587     0.231453776    -0.192161115
   24    34.747429155    24.651194955    18.482000521    -0.408647365     0.216234915    -0.190393782
   25    36.026087965    20.895045238    11.767016592    -0.392824235     0.236663453    -0.199197215
   26    32.585313922    21.477423120    18.304161799    -0.119920112    -0.388375751     0.291175965
   27    31.249937099    23.477681598    13.592365224    -0.408422218     0.227779071    -0.176940630
   28    38.243097817    25.916495345    11.861644089    -0.414813512     0.212107935    -0.181493730
   29    38.955727638    28.569308247    15.941158915    -0.391305404     0.238064148    -0.200513198
   30    37.725694368    29.482969628    12.638204189    -0.404723673     0.230764326    -0.181511913
   31    36.238063429    30.446720320    19.652595404    -0.397801362     0.241026514    -0.183467425
   32    38.364938318    21.097707557    18.881523906    -0.396448520     0.240998219    -0.186409307
   33    31.428161649    28.472034144    16.283741291    -0.399455133     0.238255355    -0.183493820
   34    41.025465620    23.456800105    19.001973766    -0.486806139    -0.086436918     0.074487866
   35    38.397754832    28.058444371    11.178186266    -0.407038027     0.226540679    -0.181657275
   36    37.911523200    23.045204247    16.512256973    -0.442381067     0.191089792    -0.133355475
   37    38.417082561    25.658084132    18.448968232    -0.400974355     0.228566177    -0.192294225
   38    36.502130751    26.575290902    15.148106978    -0.418680312     0.211684044    -0.172906512
   39    38.688637452    26.270631616    14.573632969    -0.426403245     0.199178725    -0.168843443
   40    33.455047884    29.289387364    17.120597869    -0.398136562     0.236687505    -0.188324993
   41    36.954419927    22.481291928    14.561574982    -0.441370348     0.189994067    -0.138182743
   42    31.238530207    28.922879394    14.010609033    -0.409819087     0.212678194    -0.191875745
   43    34.776340934    27.507569888    16.155000044    -0.415439037     0.214417185    -0.177301093
   44    39.716736142    24.506911277    15.438338877    -0.428146708     0.199875437    -0.163524330
   45    35.056166952    30.023618726    15.614164129    -0.404032320     0.224038578    -0.191218723
   46    38.148193363    21.702122367    12.913905474    -0.439032806     0.196298531    -0.136810388
   47    37.572657393    22.271856106    20.478670203    -0.404794641     0.224504528    -0.189047656
   48    40.777572499    23.928705974    11.399772295    -0.397823594     0.241618033    -0.182639302
   49    34.017038936    25.780864581    12.489667122     0.410900963    -0.193902978     0.208715197
   50    37.171798961    29.854950917    17.610721034    -0.392759139     0.231189099    -0.205649845
   51    40.448769064    26.288563295    11.539105919    -0.409795578     0.210508126    -0.194303663
   52    40.156221634    30.050945053    12.240284547    -0.392928166     0.226601846    -0.210378372
   53    39.425448298    24.731106672    20.163297354    -0.397309633     0.238209338    -0.188152508
   54    35.584560530    22.837815960    20.474715092    -0.394046985     0.257250405    -0.168965093
   55    34.030783676    30.506125187    13.376121626    -0.394687026     0.234885837    -0.197612739
   56    37.141925209    24.498746838    20.340174339    -0.405107300     0.226234044    -0.186296090
   57    36.031591727    26.424914542    17.969942995    -0.407576355     0.221902489    -0.186120393
   58    34.904552072    20.713046357    17.760272666    -0.395854130     0.239908014    -0.189059918
   59    36.556282113    22.192076131    18.475386379    -0.402536316     0.233141345    -0.183329288
   60    39.661588033    26.871391291    19.721007628    -0.398081609     0.233048991    -0.192922782
   61    39.826465337    22.244887626    20.624417454    -0.414502648     0.220434160    -0.172035856
   62    39.658234532    27.760798087    13.058579522    -0.411917005     0.212378937    -0.187668772
   63    32.920813836    28.294429605    20.252415479    -0.390410419     0.240302842    -0.199585192
   64    34.260773320    29.616121759    11.319234319    -0.397494958     0.225616219    -0.202719215
   65    35.387719029    24.342745675    14.166186889    -0.364555004     0.259290645    -0.223311464
   66    31.786028605    27.224493126    18.759542837    -0.386897207     0.244765560    -0.200998438
   67    38.617012072    23.253397185    18.871338941    -0.404021308     0.235717039    -0.176647276
   68    31.780052878    22.783883295    15.970706874    -0.466290665     0.163524013    -0.076373509
   21     2.450366951    36.443646027    13.915487564     0.403206503    -0.218030358     0.199717999
   22     9.782672621    31.827268481    15.955414284    -0.450632712     0.185075166    -0.112593704
   23     9.666746203    39.354594193    16.820253915    -0.399374080     0.230891335    -0.192845885
   24     4.613536776    34.242307841    17.648365336    -0.408396050     0.215593549    -0.191656172
   25     5.892195586    30.486158124    10.933381407    -0.392704664     0.236113437    -0.200083712
   26     2.451421543    31.068536007    17.470526614    -0.119707247    -0.372342841     0.311497968
   27     1.116044721    33.068794484    12.758730039    -0.408691935     0.226487184    -0.177973193
   28     8.109205438    35.507608231    11.028008903    -0.414659747     0.211755952    -0.182254523
   29     8.821835260    38.160421133    15.107523729    -0.391301438     0.237570111    -0.201106010
   30     7.591801989    39.074082514    11.804569004    -0.404531488     0.230456001    -0.182330213
   31     6.104171051    40.037833206    18.818960219    -0.397545832     0.240584481    -0.184597994
   32     8.231045939    30.688820443    18.047888721    -0.396266652     0.240346241    -0.187633752
   33     1.294269271    38.063147031    15.450106106    -0.399062961     0.238373515    -0.184192347
   34    10.891573242    33.047912991    18.168338581    -0.487005297    -0.084139108     0.075805349
   35     8.263862454    37.649557257    10.344551080    -0.406885343     0.226180761    -0.182446104
   36     7.777630822    32.636317133    15.678621788    -0.442114430     0.191161746    -0.134134327
   37     8.283190183    35.249197018    17.615333047    -0.400773992     0.227862894    -0.193542524
   38     6.368238373    36.166403788    14.314471793    -0.418431608     0.211264975    -0.174017528
   39     8.554745073    35.861744502    13.739997784    -0.426223207     0.198713652    -0.169843050
   40     3.321155506    38.880500250    16.286962684    -0.397777347     0.236617295    -0.189170394
   41     6.820527549    32.072404814    13.727939797    -0.441141443     0.190016651    -0.138880883
   42     1.104637829    38.513992280    13.176973847    -0.409538905     0.212738006    -0.192406928
   43     4.642448556    37.098682774    15.321364858    -0.415150758     0.214075990    -0.178385310
   44     9.582843764    34.098024163    14.604703692    -0.427980847     0.199356560    -0.164588446
   45     4.922274574    39.614731612    14.780528943    -0.403633649     0.223870638    -0.192254557
   46     8.014300984    31.293235253    12.080270288    -0.438843430     0.196177563    -0.137589273
   47     7.438765014    31.862968992    19.645035018    -0.404492122     0.224032250    -0.190251608
   48    10.643680120    33.519818860    10.566137109    -0.397780763     0.241278213    -0.183181027
   49     3.883146558    35.371977467    11.656031937     0.410940696    -0.196669486     0.206031206
   50     7.037906582    39.446063803    16.777085848    -0.392469500     0.230770815    -0.206670081
   51    10.314876686    35.879676181    10.705470734    -0.409656206     0.210077977    -0.195061622
   52    10.022329256    39.642057939    11.406649362    -0.392744162     0.226199069    -0.211153983
   53     9.291555919    34.322219558    19.329662168    -0.397030713     0.237538960    -0.189583373
   54     5.450668151    32.428928846    19.641079907    -0.393692101     0.257045182    -0.170100863
   55     3.896891297    40.097238073    12.542486441    -0.394256018     0.234707029    -0.198682668
   56     7.008032830    34.089859724    19.506539154    -0.404819568     0.225694295    -0.187571860
   57     5.897699349    36.016027428    17.136307810    -0.407327741     0.221325393    -0.187347756
   58     4.770659694    30.304159243    16.926637481    -0.395638386     0.239114265    -0.190511512
   59     6.422389735    31.783189017    17.641751193    -0.402297005     0.232496585    -0.184668509
   60     9.527695654    36.462504177    18.887372442    -0.397916187     0.232267164    -0.194202660
   61     9.692572958    31.836000512    19.790782269    -0.414156696     0.220113127    -0.173275625
   62     9.524342154    37.351910974    12.224944336    -0.411831840     0.211858510    -0.188442319
   63     2.786921457    37.885542491    19.418780294    -0.389833507     0.240497308    -0.200476635
   64     4.126880941    39.207234645    10.485599133    -0.397050009     0.225460014    -0.203762293
   65     5.253826651    33.933858561    13.332551704    -0.362539823     0.284321096    -0.194232828
   66     1.652136227    36.815606012    17.925907652    -0.386308324     0.245031770    -0.201805129
   67     8.483119693    32.844510071    18.037703756    -0.403789174     0.235129543    -0.177956178
   68     1.646160500    32.374996181    15.137071689    -0.465290110     0.167315399    -0.074233891
   21    12.540022900    36.588306239    14.203574433     0.403335402    -0.217493426     0.200042903
   22    19.872328571    31.971928693    16.243501154    -0.451977299     0.181686301    -0.112723596
   23    19.756402152    39.499254405    17.108340785    -0.399749822     0.230464929    -0.192577249
   24    14.703192726    34.386968053    17.936452205    -0.408934356     0.214582314    -0.191643217
   25    15.981851536    30.630818335    11.221468276    -0.393541709     0.234712097    -0.200087869
   26    12.541077493    31.213196218    17.758613484    -0.122240435    -0.372898894     0.309844624
   27    11.205700670    33.213454696    13.046816909    -0.408052821     0.226210230    -0.179782723
   28    18.198861388    35.652268442    11.316095773    -0.415186664     0.210929773    -0.182012814
   29    18.911491209    38.305081345    15.395610599    -0.391710532     0.237011562    -0.200968601
   30    17.681457939    39.218742725    12.092655873    -0.404925645     0.229989521    -0.182044068
   31    16.193827001    40.182493418    19.107047089    -0.397985875     0.239944357    -0.184482923
   32    18.320701889    30.833480655    18.335975591    -0.397036813     0.239022874    -0.187696125
   33    11.383925221    38.207807242    15.738192976    -0.399136701     0.237970751    -0.184553017
   34    20.981229192    33.192573203    18.456425451    -0.485951076    -0.091248695     0.074331873
   35    18.353518403    37.794217469    10.632637950    -0.407378809     0.225502499    -0.182184327
   36    17.867286772    32.780977345    15.966708657    -0.443148437     0.188666760    -0.134254670
   37    18.372846133    35.393857229    17.903419916    -0.401349540     0.226993984    -0.193370831
   38    16.457894323    36.311064000    14.602558662    -0.418836184     0.210454559    -0.174026233
   39    18.644401023    36.006404714    14.028084653    -0.426661323     0.197927044    -0.169661429
   40    13.410811455    39.025160461    16.575049554    -0.398026311     0.236056172    -0.189347668
   41    16.910183499    32.217065025    14.016026667    -0.442117087     0.187661757    -0.138980379
   42    11.194293778    38.658652492    13.465060717    -0.409386987     0.212623331    -0.192856459
   43    14.732104506    37.243342985    15.609451728    -0.415513659     0.213307557    -0.178460879
   44    19.672499714    34.242684374    14.892790561    -0.428471048     0.198507688    -0.164338853
   45    15.011930524    39.759391824    15.068615813    -0.403938643     0.223240794    -0.192346355
   46    18.103956934    31.437895465    12.368357158    -0.439810209     0.194001493    -0.137587792
   47    17.528420964    32.007629204    19.933121887    -0.405127995     0.222703403    -0.190458664
   48    20.733336070    33.664479071    10.854223979    -0.398537853     0.240074410    -0.183117060
   49    13.972802508    35.516637679    11.944118807     0.413282628    -0.190788300     0.206875069
   50    17.127562532    39.590724014    17.065172718    -0.392893416     0.230126421    -0.206583140
   51    20.404532636    36.024336393    10.993557603    -0.410151954     0.209334928    -0.194818537
   52    20.111985206    39.786718150    11.694736231    -0.393094729     0.225789557    -0.210939826
   53    19.381211869    34.466879770    19.617749038    -0.397698450     0.236643347    -0.189303643
   54    15.540324101    32.573589058    19.929166776    -0.394472081     0.255659244    -0.170382299
   55    13.986547247    40.241898285    12.830573311    -0.394458016     0.234293699    -0.198769555
   56    17.097688780    34.234519936    19.794626023    -0.405461181     0.224494832    -0.187625429
   57    15.987355299    36.160687640    17.424394680    -0.407840050     0.220394079    -0.187331105
   58    14.860315644    30.448819455    17.214724351    -0.396288930     0.237890734    -0.190691066
   59    16.512045685    31.927849229    17.929838063    -0.402991445     0.231191088    -0.184793333
   60    19.617351604    36.607164389    19.175459312    -0.398460169     0.231525794    -0.193972423
   61    19.782228908    31.980660723    20.078869138    -0.414785926     0.218660343    -0.173609591
   62    19.613998104    37.496571185    12.513031206    -0.412261862     0.211202433    -0.188238385
   63    12.876577407    38.030202703    19.706867164    -0.390291982     0.239603747    -0.200654462
   64    14.216536891    39.351894857    10.773686003    -0.397185567     0.225078567    -0.203919750
   65    15.343482601    34.078518773    13.620638574    -0.359342731     0.278864228    -0.207623562
   66    11.741792177    36.960266223    18.213994521    -0.386584877     0.244362091    -0.202087361
   67    18.572775643    32.989170282    18.325790626    -0.404523142     0.233936504    -0.177861575
   68    11.735816449    32.519656392    15.425158558    -0.464837286     0.168943695    -0.073377963
   21    22.629678850    36.732966450    14.491661303     0.403495239    -0.217213456     0.200024765
   22    29.961984520    32.116588905    16.531588023    -0.451393709     0.182232201    -0.114171558
   23    29.846058102    39.643914616    17.396427654    -0.399695038     0.230522458    -0.192622099
   24    24.792848676    34.531628264    18.224539075    -0.408960605     0.214914256    -0.191214764
   25    26.071507486    30.775478547    11.509555146    -0.393406381     0.235505121    -0.199421056
   26    22.630733443    31.357856430    18.046700353    -0.121705084    -0.377274963     0.304715400
   27    21.295356620    33.358114907    13.334903778    -0.408124068     0.226547432    -0.179195442
   28    28.288517338    35.796928654    11.604182643    -0.415034817     0.211636986    -0.181537562
   29    29.001147159    38.449741557    15.683697469    -0.391620593     0.237165847    -0.200961867
   30    27.771113889    39.363402937    12.380742743    -0.404883007     0.230272464    -0.181781030
   31    26.283482950    40.327153629    19.395133958    -0.398161395     0.239814467    -0.184272963
   32    28.410357839    30.978140866    18.624062460    -0.396955101     0.239448353    -0.187326276
   33    21.473581170    38.352467454    16.026279845    -0.399462993     0.237637609    -0.184276109
   34    31.070885142    33.337233415    18.744512320    -0.486785316    -0.091433414     0.068410432
   35    28.443174353    37.938877680    10.920724820    -0.407262745     0.226059914    -0.181752503
   36    27.956942722    32.925637556    16.254795527    -0.442683513     0.189353292    -0.134820765
   37    28.462502083    35.538517441    18.191506786    -0.401310795     0.227359691    -0.193021287
   38    26.547550273    36.455724212    14.890645532    -0.418891490     0.210719699    -0.173571679
   39    28.734056973    36.151064925    14.316171523    -0.426628024     0.198427056    -0.169160374
   40    23.500467405    39.169820673    16.863136423    -0.398268153     0.235924439    -0.189003010
   41    26.999839449    32.361725237    14.304113536    -0.441653649     0.188513937    -0.139300216
   42    21.283949728    38.803312703    13.753147587    -0.409772268     0.212068277    -0.192649252
   43    24.821760455    37.388003197    15.897538598    -0.415618315     0.213440760    -0.178057457
   44    29.762155664    34.387344586    15.180877431    -0.428415345     0.199081282    -0.163789302
   45    25.101586473    39.904052036    15.356702683    -0.404123214     0.223197910    -0.192008127
   46    28.193612884    31.582555677    12.656444028    -0.439346408     0.194952371    -0.137725475
   47    27.618076914    32.152289416    20.221208757    -0.405100485     0.223091850    -0.190062157
   48    30.822992020    33.809139283    11.142310849    -0.398277740     0.241089907    -0.182347191
   49    24.062458458    35.661297890    12.232205676     0.405050393    -0.197862157     0.216297818
   50    27.217218482    39.735384226    17.353259587    -0.393022308     0.230147650    -0.206314140
   51    30.494188585    36.168996604    11.281644473    -0.410031045     0.209965713    -0.194393780
   52    30.201641155    39.931378362    11.982823101    -0.393010484     0.226131322    -0.210730596
   53    29.470867819    34.611539981    19.905835907    -0.397726187     0.236989281    -0.188811972
   54    25.629980051    32.718249269    20.217253646    -0.394519939     0.255863591    -0.169964232
   55    24.076203197    40.386558497    13.118660180    -0.394715324     0.234190669    -0.198379796
   56    27.187344730    34.379180147    20.082712893    -0.405466652     0.224838278    -0.187201877
   57    26.077011248    36.305347851    17.712481549    -0.407878581     0.220686606    -0.186902342
   58    24.949971594    30.593479667    17.502811220    -0.396343255     0.238219869    -0.190166554
   59    26.601701635    32.072509441    18.217924933    -0.402972830     0.231550235    -0.184383803
   60    29.707007554    36.751824601    19.463546182    -0.398466193     0.231875213    -0.193542189
   61    29.871884858    32.125320935    20.366956008    -0.414745987     0.218999953    -0.173276619
   62    29.703654053    37.641231397    12.801118076    -0.412159348     0.211708567    -0.187893997
   63    22.966233357    38.174862914    19.994954033    -0.390633023     0.239229512    -0.200437228
   64    24.306192841    39.496555068    11.061772872    -0.397481594     0.224914826    -0.203523227
   65    25.433138551    34.223178984    13.908725443    -0.359583057     0.282306423    -0.202492244
   66    21.831448126    37.104926435    18.502081391    -0.387021584     0.243883038    -0.201830020
   67    28.662431593    33.133830494    18.613877495    -0.404457549     0.234370336    -0.177439108
   68    21.825472399    32.664316604    15.713245428    -0.466385151     0.164463227    -0.073734239
   21    32.719334800    36.877626662    14.779748173     0.403063804    -0.217840297     0.200212824
   22    40.051640470    32.261249116    16.819674893    -0.451000365     0.183923301    -0.113008363
   23    39.935714052    39.788574828    17.684514524    -0.399600060     0.230900848    -0.192365771
   24    34.882504626    34.676288476    18.512625944    -0.408594826     0.215824926    -0.190970860
   25    36.161163436    30.920138759    11.797642015    -0.392968361     0.236218625    -0.199440790
   26    32.720389393    31.502516641    18.334787223    -0.119527946    -0.384769914     0.296083069
   27    31.385012570    33.502775119    13.622990648    -0.408343180     0.227463729    -0.177527741
   28    38.378173288    35.941588866    11.892269512    -0.414933507     0.211780615    -0.181601641
   29    39.090803109    38.594401768    15.971784338    -0.391599317     0.237430461    -0.200690685
   30    37.860769839    39.508063149    12.668829613    -0.404757597     0.230558748    -0.181697416
   31    36.373138900    40.471813841    19.683220828    -0.397882833     0.240396661    -0.184115986
   32    38.500013789    31.122801078    18.912149330    -0.396541152     0.240544570    -0.186797817
   33    31.563237120    38.497127665    16.314366715    -0.399213047     0.238145623    -0.184161899
   34    41.160541091    33.481893626    19.032599190    -0.486796400    -0.086338073     0.074665933
   35    38.532830303    38.083537892    11.208811689    -0.407108333     0.226242913    -0.181870695
   36    38.046598671    33.070297768    16.542882397    -0.442422469     0.190421783    -0.134171173
   37    38.552158033    35.683177653    18.479593655    -0.400877137     0.228133023    -0.193009961
   38    36.637206222    36.600384423    15.178732402    -0.418695235     0.211202776    -0.173458029
   39    38.823712923    36.295725137    14.604258392    -0.426560160     0.198606791    -0.169120586
   40    33.590123355    39.314480885    17.151223293    -0.397994673     0.236422838    -0.188956297
   41    37.089495398    32.506385449    14.592200406    -0.441409450     0.189388428    -0.138887440
   42    31.373605678    38.947972915    14.041234456    -0.409562043     0.212622642    -0.192485182
   43    34.911416405    37.532663409    16.185625467    -0.415381055     0.214016421    -0.177920069
   44    39.851811613    34.532004798    15.468964301    -0.428401906     0.199163952    -0.163723935
   45    35.191242423    40.048712247    15.644789552    -0.403890271     0.223762589    -0.191840958
   46    38.283268834    31.727215888    12.944530897    -0.439089601     0.195686384    -0.137503315
   47    37.707732864    32.296949627    20.509295627    -0.404776619     0.224205995    -0.189440123
   48    40.912647970    33.953799495    11.430397718    -0.398061769     0.241257797    -0.182596559
   49    34.152114407    35.805958102    12.520292546     0.398789722    -0.195596033     0.229584297
   50    37.306874432    39.880044438    17.641346457    -0.392838517     0.230524506    -0.206243428
   51    40.583844535    36.313656816    11.569731342    -0.409920617     0.210094591    -0.194487405
   52    40.291297105    40.076038574    12.270909971    -0.392929820     0.226423563    -0.210567156
   53    39.560523769    34.756200193    20.193922777    -0.397191596     0.237856796    -0.188846447
   54    35.719636001    32.862909481    20.505340516    -0.393856704     0.257390641    -0.169195020
   55    34.165859147    40.531218708    13.406747050    -0.394520030     0.234675565    -0.198195170
   56    37.277000680    34.523840359    20.370799763    -0.405060140     0.225954117    -0.186737838
   57    36.166667198    36.450008063    18.000568419    -0.407523105     0.221505700    -0.186708714
   58    35.039627543    30.738139878    17.790898090    -0.396029394     0.239389939    -0.189349349
   59    36.691357584    32.217169652    18.506011802    -0.402619247     0.232704206    -0.183702191
   60    39.796663504    36.896484812    19.751633051    -0.397990140     0.232620890    -0.193626883
   61    39.961540808    32.269981147    20.655042877    -0.414418041     0.220219876    -0.172513458
   62    39.793310003    37.785891608    13.089204945    -0.412107756     0.211864954    -0.187830878
   63    33.055889307    38.319523126    20.283040903    -0.390271434     0.239911858    -0.200326005
   64    34.395848791    39.641215280    11.349859742    -0.397327349     0.225405221    -0.203281735
   65    35.522794500    34.367839196    14.196812313    -0.362533742     0.284348000    -0.194204791
   66    31.921104076    37.249586647    18.790168261    -0.386752793     0.244447183    -0.201662718
   67    38.752087543    33.278490706    18.901964365    -0.404039042     0.235250963    -0.177227077
   68    31.915128349    32.808976816    16.001332297    -0.465835801     0.164872965    -0.076249016
   21     2.332011708     6.400501200    23.835596655     0.403275081    -0.217869539     0.199755032
   22     9.664317379     1.784123655    25.875523375    -0.450916820     0.184275993    -0.112766927
   23     9.548390960     9.311449367    26.740363006    -0.399133063     0.231148721    -0.193036439
   24     4.495181534     4.199163015    27.568474427    -0.408405873     0.215661132    -0.191559180
   25     5.773840344     0.443013297    20.853490498    -0.392539245     0.236032106    -0.200503831
   26     2.333066301     1.025391180    27.390635705    -0.134082483    -0.395936432     0.274328689
   27     0.997689478     3.025649657    22.678839130    -0.408878212     0.227273972    -0.176536539
   28     7.990850196     5.464463404    20.948117995    -0.414570469     0.211985777    -0.182190441
   29     8.703480017     8.117276307    25.027632821    -0.390969314     0.237802616    -0.201476825
   30     7.473446747     9.030937687    21.724678095    -0.404403264     0.230738058    -0.182257918
   31     5.985815809     9.994688379    28.739069310    -0.397626580     0.240362351    -0.184713409
   32     8.112690697     0.645675616    27.967997812    -0.396322385     0.240462031    -0.187367497
   33     1.175914029     8.020002204    25.370215197    -0.399240468     0.238005085    -0.184284096
   34    10.773218000     3.004768165    28.088447672    -0.486463444    -0.087314972     0.075692886
   35     8.145507211     7.606412431    20.264660171    -0.406769614     0.226392376    -0.182441698
   36     7.659275580     2.593172306    25.598730879    -0.442249463     0.190796037    -0.134209852
   37     8.164834941     5.206052191    27.535442138    -0.400759437     0.227973588    -0.193442284
   38     6.249883131     6.123258962    24.234580884    -0.418485460     0.211139545    -0.174040259
   39     8.436389831     5.818599676    23.660106875    -0.426256246     0.198753514    -0.169713446
   40     3.202800263     8.837355423    26.207071775    -0.397889270     0.236336848    -0.189285558
   41     6.702172307     2.029259987    23.648048888    -0.441222575     0.189732797    -0.139011168
   42     0.986282586     8.470847453    23.097082939    -0.409724378     0.212249190    -0.192551852
   43     4.524093314     7.055537947    25.241473950    -0.415225828     0.213877000    -0.178449266
   44     9.464488522     4.054879336    24.524812783    -0.428070697     0.199399403    -0.164302635
   45     4.803919332     9.571586786    24.700638035    -0.403759022     0.223593762    -0.192313498
   46     7.895945742     1.250090427    22.000379380    -0.438880196     0.195987647    -0.137742572
   47     7.320409772     1.819824166    29.565144109    -0.404593127     0.223951572    -0.190131783
   48    10.525324878     3.476674033    20.486246201    -0.397706806     0.241425341    -0.183147758
   49     3.764791316     5.328832640    21.576141028     0.406405656    -0.207287603     0.204612543
   50     6.919551340     9.402918976    26.697194939    -0.392507902     0.230557134    -0.206835573
   51    10.196521444     5.836531355    20.625579825    -0.409568935     0.210257048    -0.195051945
   52     9.903974014     9.598913112    21.326758453    -0.392599367     0.226465735    -0.211137415
   53     9.173200677     4.279074732    29.249771259    -0.397054393     0.237657433    -0.189385198
   54     5.332312909     2.385784020    29.561188998    -0.393563046     0.257406818    -0.169852463
   55     3.778536055    10.054093247    22.462595532    -0.394417356     0.234476125    -0.198635082
   56     6.889677588     4.046714898    29.426648245    -0.404839819     0.225827056    -0.187368251
   57     5.779344107     5.972882602    27.056416901    -0.407366609     0.221321732    -0.187267554
   58     4.652304452     0.261014417    26.846746572    -0.395533312     0.239915658    -0.189720521
   59     6.304034493     1.740044191    27.561860285    -0.402275001     0.232929431    -0.184170312
   60     9.409340412     6.419359351    28.807481534    -0.397934759     0.232489125    -0.193898773
   61     9.574217716     1.792855685    29.710891360    -0.414297112     0.219867713    -0.173251527
   62     9.405986912     7.308766147    22.145053428    -0.411746568     0.212047799    -0.188415749
   63     2.668566215     7.842397665    29.338889385    -0.389966585     0.240335334    -0.200412051
   64     4.008525699     9.164089819    20.405708224    -0.397204646     0.225207263    -0.203740418
   65     5.135471409     3.890713734    23.252660795    -0.365472633     0.277495314    -0.198560080
   66     1.533780985     6.772461185    27.846016743    -0.386433031     0.244994177    -0.201611920
   67     8.364764451     2.801365244    27.957812847    -0.403836283     0.235193184    -0.177765078
   68     1.527805257     2.331851354    25.057180780    -0.465870884     0.161380157    -0.083191133
   21    12.421667658     6.545161412    24.123683524     0.402978159    -0.218030490     0.200178191
   22    19.753973328     1.928783866    26.163610245    -0.450980319     0.184500460    -0.112144248
   23    19.638046910     9.456109578    27.028449876    -0.399462554     0.231155466    -0.192345570
   24    14.584837484     4.343823226    27.856561296    -0.408699937     0.215278407    -0.191362402
   25    15.863496294     0.587673509    21.141577367    -0.393035265     0.235345920    -0.200338658
   26    12.422722251     1.170051392    27.678722575    -0.116777930    -0.375431795     0.308891376
   27    11.087345428     3.170309869    22.966926000    -0.408125545     0.226795212    -0.178878370
   28    18.080506146     5.609123616    21.236204864    -0.414847912     0.211456309    -0.182174201
   29    18.793135967     8.261936519    25.315719690    -0.391369640     0.237747197    -0.200763730
   30    17.563102697     9.175597899    22.012764964    -0.404643833     0.230431061    -0.182112313
   31    16.075471758    10.139348591    29.027156180    -0.397682726     0.240611666    -0.184267402
   32    18.202346647     0.790335828    28.256084682    -0.396778746     0.239735839    -0.187332203
   33    11.265569978     8.164662416    25.658302067    -0.398958635     0.238307249    -0.184503828
   34    20.862873950     3.149428376    28.376534542    -0.486518970    -0.085298185     0.077611282
   35    18.235163161     7.751072642    20.552747041    -0.407050796     0.225983240    -0.182321762
   36    17.748931530     2.737832518    25.886817749    -0.442429477     0.190661385    -0.133807301
   37    18.254490891     5.350712403    27.823529007    -0.401073116     0.227730007    -0.193078738
   38    16.339539081     6.267919174    24.522667754    -0.418576524     0.211046254    -0.173934391
   39    18.526045781     5.963259887    23.948193744    -0.426410226     0.198527232    -0.169591443
   40    13.292456213     8.982015635    26.495158645    -0.397809270     0.236497904    -0.189252545
   41    16.791828257     2.173920199    23.936135758    -0.441427813     0.189507278    -0.138666787
   42    11.075938536     8.615507665    23.385169808    -0.409211205     0.212890586    -0.192934673
   43    14.613749263     7.200198159    25.529560819    -0.415276927     0.213861854    -0.178348482
   44    19.554144472     4.199539548    24.812899653    -0.428223707     0.199154629    -0.164200763
   45    14.893575281     9.716246998    24.988724904    -0.403700684     0.223799991    -0.192196050
   46    17.985601692     1.394750638    22.288466249    -0.439120059     0.195657195    -0.137447576
   47    17.410065722     1.964484377    29.853230979    -0.405077340     0.223374890    -0.189778838
   48    20.614980828     3.621334245    20.774333070    -0.398053448     0.240696382    -0.183354040
   49    13.854447266     5.473492852    21.864227898     0.410857171    -0.195278362     0.207515653
   50    17.009207290     9.547579188    26.985281809    -0.392598010     0.230819136    -0.206371823
   51    20.286177393     5.981191566    20.913666694    -0.409821737     0.209873497    -0.194933986
   52    19.993629963     9.743573324    21.614845323    -0.392818376     0.226247641    -0.210963808
   53    19.262856627     4.423734943    29.537858129    -0.397456828     0.237244390    -0.189058641
   54    15.421968859     2.530444231    29.849275868    -0.394389103     0.256238645    -0.169702657
   55    13.868192005    10.198753458    22.750682402    -0.394264114     0.234768407    -0.198594068
   56    16.979333538     4.191375109    29.714735115    -0.405334014     0.225157553    -0.187105354
   57    15.869000056     6.117542813    27.344503771    -0.407603974     0.221056269    -0.187064496
   58    14.741960402     0.405674629    27.134833442    -0.396141325     0.238409987    -0.190348965
   59    16.393690443     1.884704402    27.849947154    -0.402804428     0.231824550    -0.184407079
   60    19.498996362     6.564019562    29.095568403    -0.398165944     0.232312397    -0.193635822
   61    19.663873666     1.937515897    29.998978229    -0.414741527     0.219444433    -0.172724076
   62    19.495642861     7.453426359    22.433140297    -0.411962624     0.211762935    -0.188263794
   63    12.758222165     7.987057876    29.626976255    -0.389964936     0.240262253    -0.200502863
   64    14.098181649     9.308750030    20.693795094    -0.397014066     0.225548828    -0.203734036
   65    15.225127359     4.035373946    23.540747665    -0.363122982     0.282572811    -0.195689312
   66    11.623436934     6.917121397    28.134103612    -0.386357022     0.244840568    -0.201943923
   67    18.454420401     2.946025456    28.245899717    -0.404257710     0.234654025    -0.177519555
   68    11.617461207     2.476511566    25.345267649    -0.465280422     0.167597300    -0.073656457
   21    22.511323608     6.689821624    24.411770394     0.403217500    -0.217997585     0.199731572
   22    29.843629278     2.073444078    26.451697114    -0.451672821     0.182609414    -0.112452054
   23    29.727702860     9.600769790    27.316536745    -0.399499693     0.231212131    -0.192200274
   24    24.674493434     4.488483438    28.144648166    -0.408810454     0.215191369    -0.191224182
   25    25.953152244     0.732333720    21.429664237    -0.393214207     0.235204210    -0.200153859
   26    22.512378201     1.314711603    27.966809444    -0.115396905    -0.372641274     0.312765144
   27    21.177001378     3.314970081    23.255012870    -0.408328430     0.226298164    -0.179044781
   28    28.170162096     5.753783827    21.524291734    -0.415025624     0.211530463    -0.181682676
   29    28.882791917     8.406596730    25.603806560    -0.391405685     0.237855623    -0.200564932
   30    27.652758647     9.320258110    22.300851834    -0.404806067     0.230374854    -0.181822646
   31    26.165127708    10.284008803    29.315243049    -0.397787233     0.240566085    -0.184101264
   32    28.292002597     0.934996040    28.544171552    -0.397004308     0.239433957    -0.187240379
   33    21.355225928     8.309322627    25.946388936    -0.399148374     0.238253104    -0.184163063
   34    30.952529899     3.294088588    28.664621411    -0.486257518    -0.089519111     0.074430876
   35    28.324819111     7.895732854    20.840833911    -0.407245014     0.225954923    -0.181922707
   36    27.838587479     2.882492730    26.174904618    -0.442909373     0.189466141    -0.133917396
   37    28.344146841     5.495372614    28.111615877    -0.401220511     0.227681789    -0.192829211
   38    26.429195030     6.412579385    24.810754623    -0.418740249     0.210976110    -0.173625129
   39    28.615701731     6.107920099    24.236280614    -0.426583969     0.198422740    -0.169276501
   40    23.382112163     9.126675846    26.783245515    -0.397942375     0.236527849    -0.188935023
   41    26.881484206     2.318580410    24.224222628    -0.441858800     0.188489299    -0.138681594
   42    21.165594486     8.760167877    23.673256678    -0.409449579     0.212717223    -0.192619899
   43    24.703405213     7.344858371    25.817647689    -0.415423213     0.213828094    -0.178048027
   44    29.643800421     4.344199759    25.100986522    -0.428392710     0.198993195    -0.163955464
   45    24.983231231     9.860907209    25.276811774    -0.403844466     0.223732911    -0.191971955
   46    28.075257642     1.539410850    22.576553119    -0.439488157     0.194847457    -0.137421354
   47    27.499721672     2.109144589    30.141317848    -0.405272659     0.223076798    -0.189712452
   48    30.704636778     3.765994456    21.062419940    -0.398255702     0.240869459    -0.182686342
   49    23.944103215     5.618153064    22.152314767     0.408788311    -0.200102000     0.207005570
   50    27.098863240     9.692239399    27.273368679    -0.392648223     0.230889538    -0.206197464
   51    30.375833343     6.125851778    21.201753564    -0.410032447     0.209857490    -0.194507652
   52    30.083285913     9.888233536    21.902932192    -0.393051566     0.226114862    -0.210671630
   53    29.352512577     4.568395155    29.825944999    -0.397602587     0.237319905    -0.188656951
   54    25.511624809     2.675104443    30.137362737    -0.394563527     0.256085713    -0.169527966
   55    23.957847955    10.343413670    23.038769271    -0.394374268     0.234643815    -0.198522585
   56    27.068989488     4.336035321    30.002821984    -0.405515033     0.224936403    -0.186979070
   57    25.958656006     6.262203025    27.632590640    -0.407719767     0.220973668    -0.186909683
   58    24.831616351     0.550334840    27.422920312    -0.396387625     0.238013430    -0.190332493
   59    26.483346392     2.029364614    28.138034024    -0.403021951     0.231473701    -0.184372539
   60    29.588652312     6.708679774    29.383655273    -0.398309593     0.232386685    -0.193250865
   61    29.753529616     2.082176108    30.287065099    -0.414930283     0.219082222    -0.172730541
   62    29.585298811     7.598086570    22.721227167    -0.412201434     0.211652032    -0.187865365
   63    22.847878115     8.131718088    29.915063125    -0.390187727     0.240125385    -0.200233208
   64    24.187837599     9.453410242    20.981881964    -0.397135404     0.225370242    -0.203695176
   65    25.314783308     4.180034158    23.828834535    -0.359779509     0.287559316    -0.194597905
   66    21.713092884     7.061781608    28.422190482    -0.386622746     0.244693443    -0.201613421
   67    28.544076351     3.090685667    28.533986586    -0.404485943     0.234453892    -0.177263911
   68    21.707117157     2.621171777    25.633354519    -0.465205432     0.168215701    -0.072714398
   21    32.600979558     6.834481835    24.699857264     0.403649527    -0.217621211     0.199268833
   22    39.933285228     2.218104290    26.739783984    -0.451202232     0.179822747    -0.118660548
   23    39.817358810     9.745430001    27.604623615    -0.399920144     0.230560628    -0.192108500
   24    34.764149383     4.633143649    28.432735035    -0.408589072     0.215535640    -0.191309586
   25    36.042808193     0.876993932    21.717751106    -0.392820818     0.235796627    -0.200229258
   26    32.602034150     1.459371815    28.254896314    -0.124175112    -0.374511380     0.307118492
   27    31.266657328     3.459630292    23.543099739    -0.408129664     0.226874107    -0.178768892
   28    38.259818045     5.898444039    21.812378603    -0.415106446     0.211120994    -0.181974076
   29    38.972447867     8.551256942    25.891893429    -0.391900070     0.237082774    -0.200514571
   30    37.742414596     9.464918322    22.588938704    -0.405047913     0.229895055    -0.181891318
   31    36.254783658    10.428669014    29.603329919    -0.398206329     0.240271011    -0.183579850
   32    38.381658547     1.079656251    28.832258421    -0.396419903     0.240016189    -0.187732494
   33    31.444881878     8.453982839    26.234475806    -0.399409648     0.238112129    -0.183778528
   34    41.042185849     3.438748800    28.952708281    -0.487416288    -0.097966241     0.053178737
   35    38.414475061     8.040393065    21.128920780    -0.407336022     0.225618995    -0.182135759
   36    37.928243429     3.027152941    26.462991488    -0.442413210     0.188029606    -0.137533339
   37    38.433802790     5.640032826    28.399702747    -0.400917440     0.228261980    -0.192773635
   38    36.518850980     6.557239597    25.098841493    -0.418853669     0.210686665    -0.173703002
   39    38.705357681     6.252580310    24.524367483    -0.426718701     0.197890528    -0.169559693
   40    33.471768113     9.271336058    27.071332384    -0.398284262     0.236273723    -0.188532158
   41    36.971140156     2.463240622    24.512309497    -0.441395508     0.187415137    -0.141582386
   42    31.255250436     8.904828088    23.961343547    -0.409679200     0.212636485    -0.192220390
   43    34.793061163     7.489518582    26.105734558    -0.415580858     0.213532485    -0.178034907
   44    39.733456371     4.488859971    25.389073392    -0.428568254     0.198321563    -0.164310101
   45    35.072887181    10.005567421    25.564898643    -0.404216648     0.223401732    -0.191573922
   46    38.164913591     1.684071062    22.864639988    -0.439118023     0.194065249    -0.139692667
   47    37.589377621     2.253804801    30.429404718    -0.404609101     0.223974014    -0.190071345
   48    40.794292728     3.910654668    21.350506809    -0.398201513     0.240554258    -0.183219005
   49    34.033759165     5.762813275    22.440401637     0.412026942    -0.196463137     0.204049098
   50    37.188519189     9.836899611    27.561455548    -0.393165729     0.230448934    -0.205703666
   51    40.465489293     6.270511990    21.489840433    -0.410105060     0.209461776    -0.194780914
   52    40.172941863    10.032893747    22.191019062    -0.393284245     0.225669429    -0.210715000
   53    39.442168527     4.713055366    30.114031868    -0.397239697     0.238299911    -0.188185482
   54    35.601280758     2.819764655    30.425449607    -0.393771162     0.257124595    -0.169797570
   55    34.047503904    10.488073882    23.326856141    -0.394933440     0.234084717    -0.198070502
   56    37.158645437     4.480695532    30.290908854    -0.404990981     0.225777294    -0.187101360
   57    36.048311956     6.406863237    27.920677510    -0.407558229     0.221238912    -0.186948212
   58    34.921272301     0.694995052    27.711007181    -0.395826933     0.238715330    -0.190620120
   59    36.573002342     2.174024826    28.426120893    -0.402477945     0.232051932    -0.184833451
   60    39.678308261     6.853339986    29.671742142    -0.398023459     0.232839709    -0.193295101
   61    39.843185566     2.226836320    30.575151969    -0.414162036     0.219958041    -0.173459703
   62    39.674954761     7.742746782    23.009314036    -0.412289285     0.211243169    -0.188132584
   63    32.937534065     8.276378300    30.203149994    -0.390410537     0.240084241    -0.199847868
   64    34.277493549     9.598070453    21.269968833    -0.397673312     0.224864171    -0.203204433
   65    35.404439258     4.324694369    24.116921404    -0.361295752     0.288612187    -0.190179875
   66    31.802748834     7.206441820    28.710277352    -0.386831828     0.244652820    -0.201261359
   67    38.633732300     3.235345879    28.822073456    -0.404005471     0.235238086    -0.177320676
   68    31.796773107     2.765831989    25.921441389    -0.466022738     0.165586669    -0.073510971
   21     2.467087179    16.425594721    23.866222078     0.403252807    -0.218487254     0.199124317
   22     9.799392850    11.809217176    25.906148799    -0.450536132     0.185116380    -0.112911999
   23     9.683466431    19.336542888    26.770988430    -0.399236453     0.231336889    -0.192596726
   24     4.630257005    14.224256536    27.599099850    -0.408372500     0.215689986    -0.191597838
   25     5.908915815    10.468106818    20.884115921    -0.392595848     0.236105186    -0.200306868
   26     2.468141772    11.050484701    27.421261129    -0.117255798    -0.375298894     0.308871847
   27     1.132764949    13.050743178    22.709464554    -0.408323632     0.227209717    -0.177897600
   28     8.125925667    15.489556925    20.978743418    -0.414468527     0.212273266    -0.182087617
   29     8.838555488    18.142369828    25.058258244    -0.391130599     0.237946970    -0.200992772
   30     7.608522218    19.056031208    21.755303518    -0.404280463     0.231197158    -0.181948294
   31     6.120891280    20.019781900    28.769694734    -0.397614977     0.240729678    -0.184259471
   32     8.247766168    10.670769137    27.998623236    -0.396328386     0.240057521    -0.187872821
   33     1.310989500    18.045095725    25.400840621    -0.399113858     0.238783356    -0.183550094
   34    10.908293471    13.029861686    28.119073096    -0.486877997    -0.085456926     0.075146055
   35     8.280582682    17.631505952    20.295285595    -0.406672717     0.226761103    -0.182199625
   36     7.794351051    12.618265827    25.629356302    -0.441924860     0.191403649    -0.134413771
   37     8.299910412    15.231145712    27.566067561    -0.400704814     0.228065035    -0.193447647
   38     6.384958602    16.148352483    24.265206308    -0.418390059     0.211579898    -0.173734584
   39     8.571465302    15.843693197    23.690732298    -0.426155620     0.199075281    -0.169588974
   40     3.337875734    18.862448944    26.237697199    -0.397791938     0.236965257    -0.188703579
   41     6.837247778    12.054353508    23.678674312    -0.440871022     0.190357893    -0.139271730
   42     1.121358057    18.495940974    23.127708362    -0.409559116     0.213295364    -0.191745712
   43     4.659168785    17.080631468    25.272099373    -0.415121368     0.214367580    -0.178103313
   44     9.599563993    14.079972857    24.555438207    -0.427903204     0.199730255    -0.164337073
   45     4.938994803    19.596680307    24.731263458    -0.403632645     0.224239114    -0.191826765
   46     8.031021213    11.275183948    22.031004803    -0.438563390     0.196569999    -0.137921675
   47     7.455485243    11.844917687    29.595769533    -0.404594847     0.223726469    -0.190392954
   48    10.660400349    13.501767554    20.516871624    -0.397567199     0.241476515    -0.183383247
   49     3.899866787    15.353926161    21.606766452     0.409420873    -0.194060827     0.211459085
   50     7.054626811    19.428012497    26.727820363    -0.392514907     0.230951858    -0.206381411
   51    10.331596915    15.861624876    20.656205248    -0.409516755     0.210533155    -0.194863589
   52    10.039049485    19.624006633    21.357383877    -0.392519693     0.226875658    -0.210845266
   53     9.308276148    14.304168253    29.280396683    -0.397071797     0.237560471    -0.189470343
   54     5.467388380    12.410877541    29.591814422    -0.393878631     0.256601566    -0.170338664
   55     3.913611526    20.079186768    22.493220956    -0.394144480     0.235356308    -0.198135148
   56     7.024753059    14.071808419    29.457273669    -0.404928091     0.225442305    -0.187640635
   57     5.914419578    15.997976123    27.087042325    -0.407296601     0.221487604    -0.187223716
   58     4.787379923    10.286107938    26.877371996    -0.395807024     0.238650936    -0.190742053
   59     6.439109964    11.765137712    27.592485708    -0.402399653     0.232143264    -0.184889222
   60     9.544415883    16.444452872    28.838106957    -0.397877548     0.232563510    -0.193926974
   61     9.709293187    11.817949206    29.741516783    -0.414287866     0.219792431    -0.173369119
   62     9.541062383    17.333859668    22.175678851    -0.411716626     0.212276981    -0.188223015
   63     2.803641686    17.867491186    29.369514809    -0.390220107     0.240510967    -0.199706642
   64     4.143601170    19.189183340    20.436333648    -0.396926321     0.226142432    -0.203246392
   65     5.270546880    13.915807255    23.283286219    -0.358814179     0.274343691    -0.214447953
   66     1.668856456    16.797554706    27.876642166    -0.386724657     0.245077389    -0.200950523
   67     8.499839922    12.826458765    27.988438271    -0.403799665     0.235053666    -0.178032593
   68     1.662880728    12.356944875    25.087806203    -0.465990628     0.165868708    -0.073077401
   21    12.556743129    16.570254933    24.154308948     0.403295557    -0.217452472     0.200167721
   22    19.889048799    11.953877388    26.194235668    -0.451143800     0.184646904    -0.111242045
   23    19.773122381    19.481203099    27.059075299    -0.399372364     0.231306879    -0.192350833
   24    14.719912955    14.368916747    27.887186720    -0.408524472     0.215781871    -0.191169925
   25    15.998571765    10.612767030    21.172202791    -0.392720369     0.236011105    -0.200173600
   26    12.557797722    11.195144913    27.709347998    -0.122638781    -0.376182858     0.305689691
   27    11.222420899    13.195403390    22.997551424    -0.407879406     0.226852100    -0.179366984
   28    18.215581617    15.634217137    21.266830288    -0.414682865     0.212242797    -0.181634568
   29    18.928211438    18.287030040    25.346345114    -0.391282042     0.237910077    -0.200741523
   30    17.698178168    19.200691420    22.043390388    -0.404569954     0.231028147    -0.181519002
   31    16.210547229    20.164442112    29.057781603    -0.397622881     0.240715523    -0.184260905
   32    18.337422118    10.815429349    28.286710106    -0.396501703     0.240217289    -0.187302039
   33    11.400645449    18.189755937    25.688927490    -0.398998108     0.238441653    -0.184244641
   34    20.997949421    13.174521897    28.407159965    -0.485907665    -0.086983416     0.079546381
   35    18.370238632    17.776166163    20.583372465    -0.406929291     0.226645233    -0.181770433
   36    17.884007001    12.762926039    25.917443172    -0.442433261     0.191072913    -0.133206425
   37    18.389566362    15.375805924    27.854154431    -0.400887447     0.228103577    -0.193023348
   38    16.474614552    16.293012695    24.553293177    -0.418480847     0.211666460    -0.173410179
   39    18.661121252    15.988353408    23.978819168    -0.426272408     0.199269054    -0.169067082
   40    13.427531684    19.007109156    26.525784069    -0.397790388     0.236767573    -0.188954819
   41    16.926903728    12.199013720    23.966761181    -0.441378777     0.189957699    -0.138205819
   42    11.211014007    18.640601186    23.415795232    -0.409289296     0.212971728    -0.192679307
   43    14.748824734    17.225291680    25.560186243    -0.415195393     0.214404597    -0.177886071
   44    19.689219943    14.224633069    24.843525076    -0.428021353     0.200001467    -0.163698304
   45    15.028650752    19.741340519    25.019350328    -0.403666455     0.224150439    -0.191859255
   46    18.120677163    11.419844159    22.319091673    -0.439026334     0.196166577    -0.137020262
   47    17.545141193    11.989577899    29.883856402    -0.404737287     0.223890421    -0.189896834
   48    20.750056299    13.646427766    20.804958494    -0.397805075     0.241544326    -0.182777079
   49    13.989522737    15.498586373    21.894853321     0.411718194    -0.175443338     0.222952380
   50    17.144282761    19.572672709    27.015907233    -0.392511245     0.230957417    -0.206382156
   51    20.421252864    16.006285087    20.944292118    -0.409705349     0.210553424    -0.194444805
   52    20.128705434    19.768666845    21.645470746    -0.392840402     0.226758280    -0.210373718
   53    19.397932098    14.448828464    29.568483553    -0.397176164     0.237717390    -0.189054324
   54    15.557044330    12.555537752    29.879901291    -0.393832940     0.257044951    -0.169774876
   55    14.003267476    20.223846979    22.781307825    -0.394241774     0.235229146    -0.198092586
   56    17.114409009    14.216468630    29.745360538    -0.405006211     0.225665046    -0.187203783
   57    16.004075527    16.142636334    27.375129194    -0.407440697     0.221548438    -0.186837812
   58    14.877035873    10.430768150    27.165458866    -0.395793252     0.238956193    -0.190388128
   59    16.528765914    11.909797924    27.880572578    -0.402480839     0.232387477    -0.184405083
   60    19.634071833    16.589113083    29.126193827    -0.398061446     0.232593765    -0.193512856
   61    19.798949137    11.962609418    30.029603653    -0.414466788     0.219883779    -0.172824782
   62    19.630718332    17.478519880    22.463765721    -0.411875172     0.212332986    -0.187812529
   63    12.893297636    18.012151397    29.657601678    -0.389911410     0.240375548    -0.200471167
   64    14.233257120    19.333843551    20.724420518    -0.396978608     0.226052881    -0.203243893
   65    15.360202830    14.060467467    23.571373089    -0.359254931     0.275947581    -0.211633711
   66    11.758512405    16.942214918    28.164729036    -0.386306160     0.244969537    -0.201884809
   67    18.589495872    12.971118977    28.276525140    -0.403967451     0.235184293    -0.177478581
   68    11.752536678    12.501605087    25.375893073    -0.464873463     0.168688388    -0.073735278
   21    22.646399079    16.714915145    24.442395818     0.403447662    -0.217861117     0.199415440
   22    29.978704749    12.098537599    26.482322538    -0.451061495     0.184457989    -0.111887347
   23    29.862778331    19.625863311    27.347162169    -0.399884702     0.230411986    -0.192360448
   24    24.809568905    14.513576959    28.175273589    -0.408739078     0.215437554    -0.191099521
   25    26.088227715    10.757427241    21.460289660    -0.392882811     0.235828450    -0.200070085
   26    22.647453672    11.339805124    27.997434868    -0.113029286    -0.373781011     0.312269332
   27    21.312076849    13.340063602    23.285638293    -0.407753586     0.227450808    -0.178894223
   28    28.305237567    15.778877348    21.554917157    -0.414773558     0.211908226    -0.181818038
   29    29.017867388    18.431690251    25.634431983    -0.391736548     0.237194151    -0.200702297
   30    27.787834118    19.345351631    22.331477258    -0.404724385     0.230485516    -0.181864233
   31    26.300203179    20.309102324    29.345868473    -0.398256191     0.239864930    -0.184002233
   32    28.427078068    10.960089561    28.574796975    -0.396548530     0.240261242    -0.187146465
   33    21.490301399    18.334416148    25.977014360    -0.399330477     0.238202439    -0.183833534
   34    31.087605370    13.319182109    28.695246835    -0.486348217    -0.086928825     0.076868664
   35    28.459894582    17.920826375    20.871459334    -0.407007774     0.226326630    -0.181991560
   36    27.973662950    12.907586251    26.205530042    -0.442406575     0.190882401    -0.133567703
   37    28.479222312    15.520466135    28.142241300    -0.401158606     0.227831537    -0.192781130
   38    26.564270501    16.437672906    24.841380047    -0.418747502     0.211060749    -0.173504724
   39    28.750777202    16.133013620    24.266906037    -0.426415990     0.198785710    -0.169273876
   40    23.517187634    19.151769367    26.813870938    -0.398237884     0.236239213    -0.188673322
   41    27.016559677    12.343673931    24.254848051    -0.441347330     0.189871515    -0.138424499
   42    21.300669957    18.785261398    23.703882101    -0.409495821     0.212975109    -0.192236250
   43    24.838480684    17.369951892    25.848273112    -0.415512894     0.213769796    -0.177908710
   44    29.778875892    14.369293280    25.131611946    -0.428136764     0.199555619    -0.163940435
   45    25.118306702    19.886000730    25.307437197    -0.404125488     0.223422091    -0.191742429
   46    28.210333113    11.564504371    22.607178542    -0.439009570     0.196099676    -0.137169657
   47    27.634797143    12.134238110    30.171943272    -0.404741970     0.224077856    -0.189665633
   48    30.839712249    13.791087977    21.093045363    -0.397854865     0.241339426    -0.182939302
   49    24.079178686    15.643246585    22.182940191     0.409539157    -0.199986363     0.205628631
   50    27.233938711    19.717332920    27.303994102    -0.393210039     0.230054715    -0.206059926
   51    30.510908814    16.150945299    21.232378987    -0.409820024     0.210219801    -0.194564086
   52    30.218361384    19.913327057    21.933557616    -0.392924450     0.226296081    -0.210714167
   53    29.487588048    14.593488676    29.856570422    -0.397438448     0.237482894    -0.188797657
   54    25.646700280    12.700197964    30.167988161    -0.394057813     0.256861985    -0.169529822
   55    24.092923426    20.368507191    23.069394695    -0.394609088     0.234510440    -0.198213323
   56    27.204064959    14.361128842    30.033447408    -0.405153587     0.225599552    -0.186963668
   57    26.093731477    16.287296546    27.663216064    -0.407693443     0.221158987    -0.186747848
   58    24.966691823    10.575428361    27.453545735    -0.395980323     0.238745247    -0.190263740
   59    26.618421863    12.054458135    28.168659447    -0.402616416     0.232241023    -0.184293594
   60    29.723727783    16.733773295    29.414280696    -0.398402207     0.232296269    -0.193168644
   61    29.888605087    12.107269629    30.317690523    -0.414398468     0.220155399    -0.172642723
   62    29.720374282    17.623180091    22.751852590    -0.412043533     0.211943100    -0.187883606
   63    22.982953586    18.156811609    29.945688548    -0.390390056     0.240004854    -0.199983186
   64    24.322913070    19.478503763    21.012507387    -0.397322540     0.225342704    -0.203360431
   65    25.449858780    14.205127679    23.859459958    -0.361822279     0.280433958    -0.201100557
   66    21.848168355    17.086875129    28.452815906    -0.386710046     0.244690768    -0.201449171
   67    28.679151822    13.115779188    28.564612010    -0.404086114     0.235121155    -0.177292004
   68    21.842192628    12.646265298    25.663979942    -0.465505154     0.167930811    -0.071443646
   21    32.736055029    16.859575356    24.730482687     0.403625377    -0.217640213     0.199296996
   22    40.068360699    12.243197811    26.770409407    -0.451653915     0.182873657    -0.112098024
   23    39.952434281    19.770523523    27.635249039    -0.399682866     0.231616588    -0.191330506
   24    34.899224854    14.658237170    28.463360459    -0.409004228     0.215560957    -0.190391741
   25    36.177883664    10.902087453    21.748376530    -0.393262387     0.235409324    -0.199817780
   26    32.737109622    11.484465336    28.285521738    -0.113771057    -0.376667352     0.308509080
   27    31.401732799    13.484723813    23.573725163    -0.407802897     0.227252162    -0.179034221
   28    38.394893516    15.923537560    21.843004027    -0.414983640     0.212036305    -0.181188255
   29    39.107523338    18.576350463    25.922518853    -0.391640221     0.238251332    -0.199635268
   30    37.877490067    19.490011843    22.619564127    -0.404803805     0.230942956    -0.181105579
   31    36.389859129    20.453762535    29.633955342    -0.398013810     0.241078650    -0.182937399
   32    38.516734018    11.104749772    28.862883845    -0.397004801     0.239834715    -0.186725727
   33    31.579957349    18.479076360    26.265101230    -0.399389454     0.238266603    -0.183622139
   34    41.177261320    13.463842321    28.983333704    -0.486179740    -0.088934964     0.075629574
   35    38.549550532    18.065486586    21.159546204    -0.407178835     0.226543786    -0.181337556
   36    38.063318900    13.052246462    26.493616911    -0.442910724     0.189704888    -0.133574495
   37    38.568878261    15.665126347    28.430328170    -0.401366530     0.227987099    -0.192163449
   38    36.653926451    16.582333118    25.129466916    -0.418900607     0.211346229    -0.172786147
   39    38.840433152    16.277673831    24.554992907    -0.426650621     0.198850115    -0.168605691
   40    33.606843584    19.296429579    27.101957808    -0.398149192     0.236714800    -0.188263974
   41    37.106215627    12.488334143    24.542934921    -0.441836308     0.188698444    -0.138468676
   42    31.390325907    18.929921609    23.991968971    -0.409654856     0.212703254    -0.192198400
   43    34.928136634    17.514612103    26.136359982    -0.415624366     0.214149260    -0.177190521
   44    39.868531842    14.513953492    25.419698815    -0.428474054     0.199363780    -0.163291360
   45    35.207962652    20.030660942    25.595524067    -0.404063424     0.224090998    -0.191091532
   46    38.299989062    11.709164583    22.895265412    -0.439484684     0.195020340    -0.137187023
   47    37.724453093    12.278898322    30.460030141    -0.405178297     0.223694714    -0.189185684
   48    40.929368199    13.935748189    21.381132233    -0.398253919     0.241124625    -0.182353316
   49    34.168834636    15.787906796    22.471027061     0.410574025    -0.189760429     0.213119566
   50    37.323594660    19.861993132    27.592080972    -0.392982759     0.231243120    -0.205161329
   51    40.600564764    16.295605511    21.520465857    -0.409982648     0.210441263    -0.193981192
   52    40.308017334    20.057987268    22.221644485    -0.393064513     0.226703514    -0.210013822
   53    39.577243998    14.738148888    30.144657292    -0.397731271     0.237584826    -0.188051288
   54    35.736356229    12.844858176    30.456075030    -0.394405858     0.256714725    -0.168942503
   55    34.182579375    20.513167403    23.357481564    -0.394549421     0.235074882    -0.197662727
   56    37.293720908    14.505789054    30.321534277    -0.405524072     0.225452671    -0.186336578
   57    36.183387427    16.431956758    27.951302933    -0.407909485     0.221324848    -0.186078380
   58    35.056347772    10.720088573    27.741632605    -0.396386042     0.238516170    -0.189705410
   59    36.708077813    12.199118347    28.456746317    -0.403043156     0.231914914    -0.183770745
   60    39.813383732    16.878433507    29.702367566    -0.398438764     0.232583353    -0.192747336
   61    39.978261037    12.251929841    30.605777392    -0.414844448     0.219671959    -0.172186858
   62    39.810030232    17.767840303    23.039939460    -0.412156935     0.212259227    -0.187277017
   63    33.072609536    18.301471821    30.233775418    -0.390474098     0.240250568    -0.199523541
   64    34.412569020    19.623163974    21.300594257    -0.397280566     0.225829721    -0.202901674
   65    35.539514729    14.349787890    24.147546828    -0.359798669     0.274212112    -0.212961582
   66    31.937824305    17.231535341    28.740902775    -0.386857884     0.244786597    -0.201048500
   67    38.768807772    13.260439400    28.852698879    -0.404502953     0.234832165    -0.176723557
   68    31.931848578    12.790925510    25.952066812    -0.465374095     0.167812740    -0.072566077
   21     2.602162650    26.450688242    23.896847502     0.403173632    -0.218258167     0.199535448
   22     9.934468321    21.834310697    25.936774222    -0.450632266     0.185195987    -0.112396652
   23     9.818541902    29.361636409    26.801613853    -0.399320802     0.231065693    -0.192747354
   24     4.765332476    24.249350057    27.629725274    -0.408441640     0.215643485    -0.191502778
   25     6.043991286    20.493200339    20.914741345    -0.392404194     0.236788107    -0.199875813
   26     2.603217243    21.075578222    27.451886552    -0.112793283    -0.375031577     0.310852042
   27     1.267840420    23.075836699    22.740089977    -0.407691312     0.228025628    -0.178303414
   28     8.261001138    25.514650446    21.009368842    -0.414462362     0.212331129    -0.182034179
   29     8.973630959    28.167463349    25.088883668    -0.391222114     0.237728075    -0.201073668
   30     7.743597689    29.081124729    21.785928942    -0.404308427     0.230987235    -0.182152665
   31     6.255966751    30.044875421    28.800320157    -0.397734232     0.240300562    -0.184561970
   32     8.382841639    20.695862658    28.029248660    -0.396354880     0.240342134    -0.187452576
   33     1.446064971    28.070189246    25.431466044    -0.399093696     0.238488524    -0.183976753
   34    11.043368942    23.054955207    28.149698519    -0.486793769    -0.085396299     0.075758159
   35     8.415658154    27.656599473    20.325911019    -0.406676663     0.226685666    -0.182284668
   36     7.929426522    22.643359348    25.659981726    -0.442025172     0.191504081    -0.133940040
   37     8.434985883    25.256239233    27.596692985    -0.400831058     0.227928739    -0.193346716
   38     6.520034073    26.173446004    24.295831731    -0.418369168     0.211490952    -0.173893117
   39     8.706540773    25.868786718    23.721357722    -0.426079394     0.199184559    -0.169652179
   40     3.472951205    28.887542465    26.268322623    -0.397843772     0.236577697    -0.189080211
   41     6.972323249    22.079447029    23.709299735    -0.440994379     0.190477525    -0.138716511
   42     1.256433528    28.521034495    23.158333786    -0.409417308     0.213224768    -0.192126694
   43     4.794244256    27.105724989    25.302724797    -0.415115195     0.214217335    -0.178298368
   44     9.734639464    24.105066378    24.586063630    -0.427833405     0.199895036    -0.164318446
   45     5.074070274    29.621773828    24.761888882    -0.403683400     0.223848624    -0.192175716
   46     8.166096684    21.300277469    22.061630227    -0.438671459     0.196699548    -0.137392281
   47     7.590560714    21.870011208    29.626394956    -0.404629425     0.223961074    -0.190043325
   48    10.795475820    23.526861075    20.547497048    -0.397502074     0.241896640    -0.182970263
   49     4.034942258    25.379019682    21.637391875     0.407484663    -0.202173800     0.207562049
   50     7.189702282    29.453106018    26.758445787    -0.392572214     0.230520904    -0.206753886
   51    10.466672386    25.886718397    20.686830672    -0.409484861     0.210560333    -0.194901243
   52    10.174124956    29.649100154    21.388009300    -0.392476818     0.226664635    -0.211151820
   53     9.443351619    24.329261774    29.311022107    -0.397126988     0.237589454    -0.189318268
   54     5.602463851    22.435971062    29.622439845    -0.393940221     0.256691542    -0.170060444
   55     4.048686997    30.104280289    22.523846379    -0.394181849     0.234955074    -0.198536604
   56     7.159828530    24.096901940    29.487899092    -0.404922377     0.225636129    -0.187419866
   57     6.049495049    26.023069644    27.117667748    -0.407355760     0.221400260    -0.187198316
   58     4.922455394    20.311201459    26.907997420    -0.395780147     0.239068480    -0.190274373
   59     6.574185435    21.790231233    27.623111132    -0.402398627     0.232467843    -0.184483189
   60     9.679491354    26.469546393    28.868732381    -0.398022769     0.232355844    -0.193877892
   61     9.844368658    21.843042727    29.772142207    -0.414309085     0.220012947    -0.173038392
   62     9.676137854    27.358953189    22.206304275    -0.411674161     0.212303405    -0.188286085
   63     2.938717157    27.892584707    29.400140232    -0.390097034     0.240408839    -0.200069724
   64     4.278676641    29.214276861    20.466959072    -0.396935710     0.225802003    -0.203606231
   65     5.405622351    23.940900776    23.313911642    -0.362032544     0.277762275    -0.204402924
   66     1.803931927    26.822648227    27.907267590    -0.386533270     0.245091923    -0.201300722
   67     8.634915393    22.851552286    28.019063694    -0.403830100     0.235226792    -0.177734652
   68     1.797956199    22.382038396    25.118431627    -0.465862272     0.167365411    -0.070435523
   21    12.691818600    26.595348454    24.184934372     0.402960579    -0.218310961     0.199907720
   22    20.024124270    21.978970909    26.224861092    -0.450805605     0.185350957    -0.111442044
   23    19.908197852    29.506296620    27.089700723    -0.399642190     0.230262671    -0.193042021
   24    14.854988426    24.394010268    27.917812143    -0.408545715     0.215570320    -0.191363099
   25    16.133647236    20.637860551    21.202828214    -0.392716362     0.236497429    -0.199606677
   26    12.692873193    21.220238434    27.739973422    -0.120868706    -0.374020307     0.309030041
   27    11.357496370    23.220496911    23.028176847    -0.407828763     0.227037006    -0.179248145
   28    18.350657088    25.659310658    21.297455711    -0.414911748     0.211385983    -0.182110426
   29    19.063286909    28.312123561    25.376970537    -0.391534464     0.236893580    -0.201450230
   30    17.833253639    29.225784941    22.074015812    -0.404832043     0.229918999    -0.182341084
   31    16.345622700    30.189535633    29.088407027    -0.397909892     0.239916970    -0.184682337
   32    18.472497589    20.840522870    28.317335529    -0.396415794     0.240331020    -0.187337980
   33    11.535720921    28.214849458    25.719552914    -0.399010032     0.238268681    -0.184442485
   34    21.133024892    23.199615419    28.437785389    -0.486562529    -0.083875016     0.078878939
   35    18.505314103    27.801259684    20.613997888    -0.407125175     0.225772101    -0.182417242
   36    18.019082472    22.788019560    25.948068596    -0.442299087     0.191400704    -0.133181409
   37    18.524641833    25.400899445    27.884779854    -0.400942159     0.227932716    -0.193111527
   38    16.609690023    26.318106216    24.583918601    -0.418584002     0.211133098    -0.173810956
   39    18.796196723    26.013446929    24.009444591    -0.426393993     0.198682749    -0.169450075
   40    13.562607155    29.032202677    26.556409492    -0.397909752     0.236265356    -0.189331747
   41    17.061979199    22.224107241    23.997386605    -0.441329496     0.190288848    -0.137907325
   42    11.346089478    28.665694707    23.446420655    -0.409233112     0.212994324    -0.192773645
   43    14.883900205    27.250385201    25.590811666    -0.415297355     0.213890581    -0.178266446
   44    19.824295414    24.249726590    24.874150500    -0.428152931     0.199480651    -0.163989443
   45    15.163726223    29.766434040    25.049975751    -0.403796184     0.223475747    -0.192372638
   46    18.255752634    21.444937680    22.349717096    -0.438996298     0.196506886    -0.136628305
   47    17.680216664    22.014671420    29.914481826    -0.404660773     0.224034909    -0.189889490
   48    20.885131770    23.671521287    20.835583917    -0.398028248     0.240845271    -0.183213179
   49    14.124598208    25.523679894    21.925478745     0.405745582    -0.205145611     0.208052401
   50    17.279358232    29.597766230    27.046532656    -0.392771106     0.230144645    -0.206795311
   51    20.556328336    26.031378608    20.974917541    -0.409884609     0.209765347    -0.194918205
   52    20.263780905    29.793760366    21.676096170    -0.392991110     0.225783612    -0.211139167
   53    19.533007569    24.473921985    29.599108976    -0.397234306     0.237547014    -0.189146299
   54    15.692119801    22.580631273    29.910526715    -0.393826336     0.257045918    -0.169788730
   55    14.138342947    30.248940500    22.811933249    -0.394444005     0.234277924    -0.198815948
   56    17.249484480    24.241562151    29.775985962    -0.404982408     0.225711884    -0.187198810
   57    16.139150998    26.167729855    27.405754618    -0.407497217     0.221272668    -0.187041238
   58    15.012111344    20.455861671    27.196084289    -0.395777689     0.239025777    -0.190333127
   59    16.663841385    21.934891445    27.911198001    -0.402443723     0.232450583    -0.184406551
   60    19.769147304    26.614206605    29.156819250    -0.398133578     0.232427263    -0.193564516
   61    19.934024608    21.987702939    30.060229077    -0.414359437     0.220110727    -0.172793300
   62    19.765793803    27.503613401    22.494391144    -0.412061406     0.211631785    -0.188195074
   63    13.028373107    28.037244918    29.688227102    -0.390140301     0.239937580    -0.200550500
   64    14.368332591    29.358937072    20.755045941    -0.397172742     0.225091693    -0.203930241
   65    15.495278301    24.085560988    23.601998512    -0.368127290     0.279181813    -0.191153900
   66    11.893587876    26.967308439    28.195354460    -0.386496880     0.244624711    -0.201937893
   67    18.724571343    22.996212498    28.307150564    -0.403938879     0.235156128    -0.177580906
   68    11.887612149    22.526698608    25.406518496    -0.464929784     0.168766363    -0.073199797
   21    22.781474550    26.740008666    24.473021241     0.403149818    -0.218035219     0.199827094
   22    30.113780220    22.123631120    26.512947961    -0.451759701     0.181344302    -0.114137707
   23    29.997853802    29.650956832    27.377787592    -0.399621350     0.230817417    -0.192421663
   24    24.944644376    24.538670480    28.205899013    -0.409170425     0.214892737    -0.190789608
   25    26.223303186    20.782520762    21.490915084    -0.392937390     0.235810456    -0.199984091
   26    22.782529143    21.364898645    28.028060291    -0.117534944    -0.370302685     0.314740303
   27    21.447152320    23.365157123    23.316263717    -0.408134464     0.226577471    -0.179133773
   28    28.440313038    25.803970869    21.585542581    -0.415148605     0.211635518    -0.181278910
   29    29.152942859    28.456783772    25.665057407    -0.391575263     0.237375016    -0.200803176
   30    27.922909589    29.370445152    22.362102681    -0.404968639     0.230149541    -0.181745950
   31    26.435278650    30.334195845    29.376493896    -0.398016199     0.240453350    -0.183753345
   32    28.562153539    20.985183082    28.605422399    -0.397044607     0.239506283    -0.187062343
   33    21.625376870    28.359509669    26.007639784    -0.399247446     0.238046352    -0.184215666
   34    31.222680841    23.344275630    28.725872258    -0.486290112    -0.094974284     0.067095549
   35    28.594970053    27.945919896    20.902084758    -0.407332662     0.226018192    -0.181647679
   36    28.108738421    22.932679772    26.236155465    -0.442918617     0.188916792    -0.134660851
   37    28.614297783    25.545559656    28.172866724    -0.401542864     0.227422553    -0.192463790
   38    26.699345972    26.462766427    24.872005470    -0.419054437     0.210687112    -0.173217549
   39    28.885852673    26.158107141    24.297531461    -0.426793614     0.198349277    -0.168833572
   40    23.652263105    29.176862888    26.844496362    -0.398130034     0.236226656    -0.188916498
   41    27.151635148    22.368767453    24.285473475    -0.441810247     0.188247329    -0.139164107
   42    21.435745428    28.810354919    23.734507525    -0.409528184     0.212475192    -0.192719899
   43    24.973556155    27.395045413    25.878898536    -0.415736487     0.213512150    -0.177695625
   44    29.913951363    24.394386801    25.162237369    -0.428619690     0.198947548    -0.163416750
   45    25.253382173    29.911094251    25.338062621    -0.404095791     0.223427376    -0.191798852
   46    28.345408584    21.589597892    22.637803966    -0.439436955     0.194756136    -0.137714233
   47    27.769872614    22.159331631    30.202568695    -0.405303653     0.223042159    -0.189686964
   48    30.974787720    23.816181498    21.123670787    -0.398251160     0.241368461    -0.182036478
   49    24.214254157    25.668340106    22.213565615     0.408891872    -0.198914954     0.207942969
   50    27.369014182    29.742426441    27.334619526    -0.392943558     0.230604318    -0.205953899
   51    30.645984285    26.176038820    21.263004411    -0.410117179     0.209950385    -0.194228564
   52    30.353436855    29.938420578    21.964183039    -0.393170502     0.225899986    -0.210680215
   53    29.622663519    24.618582197    29.887195846    -0.397911440     0.237216635    -0.188134936
   54    25.781775751    22.725291485    30.198613584    -0.394683395     0.255974599    -0.169416712
   55    24.227998897    30.393600712    23.100020118    -0.394710225     0.234188060    -0.198393020
   56    27.339140430    24.386222363    30.064072831    -0.405656734     0.224864324    -0.186758267
   57    26.228806948    26.312390067    27.693841487    -0.408093167     0.220667750    -0.186455654
   58    25.101767294    20.600521882    27.484171159    -0.396352300     0.238170315    -0.190209766
   59    26.753497335    22.079551656    28.199284871    -0.403064090     0.231510802    -0.184233785
   60    29.858803254    26.758866816    29.444906120    -0.398673821     0.232118234    -0.192821963
   61    30.023680558    22.132363150    30.348315946    -0.414959410     0.218882211    -0.172914042
   62    29.855449753    27.648273612    22.782478014    -0.412294511     0.211693242    -0.187614518
   63    23.118029057    28.181905130    29.976313972    -0.390175712     0.240335953    -0.200003860
   64    24.457988541    29.503597284    21.043132811    -0.397453774     0.224906825    -0.203586388
   65    25.584934251    24.230221200    23.890085382    -0.350519834     0.298891849    -0.194420958
   66    21.983243826    27.111968650    28.483441329    -0.386565436     0.244869080    -0.201510043
   67    28.814227293    23.140872709    28.595237433    -0.404626967     0.234451588    -0.176944824
   68    21.977268099    22.671358819    25.694605366    -0.464993160     0.169159322    -0.071878266
   21    32.871130500    26.884668877    24.761108111     0.403530920    -0.217820656     0.199291139
   22    40.203436170    22.268291332    26.801034831    -0.451482178     0.184414000    -0.110251166
   23    40.087509752    29.795617044    27.665874462    -0.399560853     0.231229948    -0.192051649
   24    35.034300325    24.683330692    28.493985883    -0.408601634     0.216307789    -0.190409152
   25    36.312959135    20.927180974    21.779001954    -0.392838981     0.236626996    -0.199211445
   26    32.872185093    21.509558857    28.316147161    -0.116739051    -0.388887811     0.291784620
   27    31.536808270    23.509817334    23.604350586    -0.408525515     0.227542603    -0.177006405
   28    38.529968987    25.948631081    21.873629450    -0.414756748     0.212518052    -0.181143362
   29    39.242598809    28.601443984    25.953144276    -0.391456041     0.237915647    -0.200395392
   30    38.012565538    29.515105364    22.650189551    -0.404606571     0.231150234    -0.181281803
   31    36.524934600    30.478856056    29.664580766    -0.397947326     0.240612674    -0.183693949
   32    38.651809489    21.129843293    28.893509268    -0.396746777     0.240672670    -0.186195222
   33    31.715032820    28.504169881    26.295726653    -0.399379370     0.238211219    -0.183715905
   34    41.312336791    23.488935842    29.013959128    -0.485544213    -0.088578557     0.080004104
   35    38.684626003    28.090580107    21.190171627    -0.406926836     0.226928563    -0.181422098
   36    38.198394371    23.077339983    26.524242335    -0.442694090     0.191061561    -0.132353401
   37    38.703953732    25.690219868    28.460953594    -0.401005982     0.228476035    -0.192335395
   38    36.789001922    26.607426639    25.160092340    -0.418621418     0.211867496    -0.172824397
   39    38.975508623    26.302767353    24.585618331    -0.426365251     0.199484959    -0.168577650
   40    33.741919055    29.321523100    27.132583231    -0.398080361     0.236656327    -0.188482916
   41    37.241291098    22.513427664    24.573560344    -0.441570380     0.190079630    -0.137423918
   42    31.525401378    28.955015130    24.022594394    -0.409719977     0.212627174    -0.192143762
   43    35.063212105    27.539705624    26.166985405    -0.415362815     0.214565084    -0.177300751
   44    40.003607313    24.539047013    25.450324239    -0.428139070     0.200213429    -0.163130375
   45    35.343038123    30.055754463    25.626149490    -0.403936989     0.224043809    -0.191413898
   46    38.435064533    21.734258104    22.925890835    -0.439171899     0.196385440    -0.136238034
   47    37.859528564    22.303991843    30.490655565    -0.404989952     0.224278512    -0.188897559
   48    41.064443670    23.960841710    21.411757656    -0.397873336     0.242008253    -0.182013224
   49    34.303910107    25.813000317    22.501652484     0.411327376    -0.193667289     0.208093178
   50    37.458670131    29.887086653    27.622706395    -0.392871205     0.230783296    -0.205891444
   51    40.735640235    26.320699032    21.551091281    -0.409757958     0.210813643    -0.194051600
   52    40.443092805    30.083080789    22.252269909    -0.392818962     0.226908427    -0.210251822
   53    39.712319469    24.763242409    30.175282715    -0.397354224     0.238067233    -0.188238183
   54    35.871431700    22.869951697    30.486700454    -0.394154351     0.257261062    -0.168698234
   55    34.317654846    30.538260924    23.388106988    -0.394518500     0.235011865    -0.197799334
   56    37.428796380    24.530882575    30.352159701    -0.405214847     0.226109297    -0.186213625
   57    36.318462898    26.457050279    27.981928357    -0.407522668     0.222001636    -0.186119716
   58    35.191423243    20.745182094    27.772258028    -0.396165358     0.239567319    -0.188839902
   59    36.843153284    22.224211868    28.487371740    -0.402813076     0.232851196    -0.183089995
   60    39.948459204    26.903527028    29.732992989    -0.398117792     0.232867603    -0.193067095
   61    40.113336508    22.277023362    30.636402816    -0.414680768     0.220227734    -0.171870899
   62    39.945105703    27.792933824    23.070564883    -0.411928302     0.212552424    -0.187447437
   63    33.207685007    28.326565342    30.264400841    -0.390575952     0.240002183    -0.199623089
   64    34.547644491    29.648257496    21.331219680    -0.397321733     0.225723972    -0.202938733
   65    35.674590200    24.374881411    24.178172251    -0.353470530     0.272026011    -0.225965558
   66    32.072899776    27.256628862    28.771528199    -0.387035763     0.244539433    -0.201006926
   67    38.903883243    23.285532921    28.883324303    -0.404161319     0.235534178    -0.176570889
   68    32.066924049    22.816019031    25.982692236    -0.466326230     0.163371310    -0.076483084
   21     2.737238121    36.475781763    23.927472926     0.403097688    -0.217807618     0.200180158
   22    10.069543792    31.859404218    25.967399646    -0.450678929     0.185364864    -0.111930200
   23     9.953617373    39.386729930    26.832239277    -0.399311546     0.231165850    -0.192646409
   24     4.900407947    34.274443578    27.660350697    -0.408444262     0.215301221    -0.191881914
   25     6.179066757    30.518293860    20.945366768    -0.392484686     0.236280584    -0.200317888
   26     2.738292714    31.100671743    27.482511976    -0.115684359    -0.374691329     0.310199190
   27     1.402915891    33.100930220    22.770715401    -0.407652105     0.227430467    -0.179151176
   28     8.396076609    35.539743967    21.039994265    -0.414461092     0.211852929    -0.182593371
   29     9.108706430    38.192556870    25.119509091    -0.391159271     0.237785867    -0.201127588
   30     7.878673160    39.106218250    21.816554366    -0.404369270     0.230583488    -0.182528760
   31     6.391042222    40.069968942    28.830945581    -0.397493299     0.241107575    -0.184027755
   32     8.517917110    30.720956179    28.059874083    -0.396513262     0.239859309    -0.187735837
   33     1.581140442    38.095282767    25.462091468    -0.398880419     0.238294563    -0.184689233
   34    11.178444413    33.080048728    28.180323943    -0.486571040    -0.083396164     0.079332858
   35     8.550733625    37.681692994    20.356536442    -0.406748765     0.226246564    -0.182668920
   36     8.064501993    32.668452869    25.690607150    -0.442097318     0.191363168    -0.133903321
   37     8.570061354    35.281332754    27.627318408    -0.401021544     0.227389673    -0.193586306
   38     6.655109544    36.198539525    24.326457155    -0.418256507     0.211376111    -0.174303283
   39     8.841616244    35.893880239    23.751983145    -0.426046570     0.198862052    -0.170112328
   40     3.608026677    38.912635986    26.298948046    -0.397590049     0.236656658    -0.189514589
   41     7.107398720    32.104540550    23.739925159    -0.441061424     0.190252412    -0.138812247
   42     1.391508999    38.546128016    23.188959209    -0.409224383     0.212787752    -0.193020146
   43     4.929319727    37.130818510    25.333350220    -0.414988232     0.214175461    -0.178643891
   44     9.869714935    34.130159899    24.616689054    -0.427772792     0.199564493    -0.164877079
   45     5.209145745    39.646867349    24.792514305    -0.403469031     0.224121494    -0.192307819
   46     8.301172155    31.325370990    22.092255650    -0.438727666     0.196441574    -0.137581770
   47     7.725636185    31.895104729    29.657020380    -0.404853812     0.223329923    -0.190308004
   48    10.930551291    33.551954596    20.578122471    -0.397575365     0.241315185    -0.183577806
   49     4.170017729    35.404113203    21.668017299     0.411295406    -0.194276132     0.207588231
   50     7.324777753    39.478199539    26.789071210    -0.392437683     0.231161521    -0.206293519
   51    10.601747857    35.911811918    20.717456095    -0.409518194     0.210114923    -0.195311464
   52    10.309200427    39.674193675    21.418634724    -0.392592054     0.226203943    -0.211431444
   53     9.578427090    34.354355295    29.341647530    -0.397429115     0.236858120    -0.189600447
   54     5.737539322    32.461064583    29.653065269    -0.394020310     0.256480205    -0.170193712
   55     4.183762468    40.129373810    22.554471803    -0.394053932     0.234981187    -0.198759504
   56     7.294904001    34.121995461    29.518524516    -0.405119196     0.225078281    -0.187665139
   57     6.184570520    36.048163165    27.148293172    -0.407362273     0.221073534    -0.187569910
   58     5.057530865    30.336294980    26.938622843    -0.395860077     0.238660747    -0.190619640
   59     6.709260906    31.815324754    27.653736555    -0.402485949     0.232092713    -0.184764806
   60     9.814566825    36.494639914    28.899357804    -0.398304001     0.231859958    -0.193894000
   61     9.979444129    31.868136248    29.802767630    -0.414622738     0.219276670    -0.173221612
   62     9.811213325    37.384046710    22.236929698    -0.411673103     0.211926410    -0.188712620
   63     3.073792628    37.917678228    29.430765656    -0.390088344     0.240166969    -0.200376923
   64     4.413752112    39.239370382    20.497584495    -0.396826903     0.225739235    -0.203887731
   65     5.540697822    33.965994297    23.344537066    -0.362566696     0.276527439    -0.205129145
   66     1.939007398    36.847741748    27.937893014    -0.386489726     0.244779353    -0.201764120
   67     8.769990864    32.876645807    28.049689118    -0.404097722     0.234545880    -0.178026013
   68     1.933031670    32.407131917    25.149057050    -0.465641869     0.167433873    -0.071718535
   21    12.826894071    36.620441975    24.215559795     0.403153353    -0.217758480     0.200121509
   22    20.159199741    32.004064430    26.255486515    -0.451425334     0.181880016    -0.114607274
   23    20.043273323    39.531390141    27.120326146    -0.399626065     0.230756051    -0.192485463
   24    14.990063897    34.419103789    27.948437567    -0.408812918     0.214940547    -0.191500808
   25    16.268722707    30.662954072    21.233453638    -0.393020892     0.235215389    -0.200520072
   26    12.827948664    31.245331955    27.770598845    -0.121888303    -0.371020873     0.312228687
   27    11.492571841    33.245590432    23.058802271    -0.407600153     0.226467082    -0.180484836
   28    18.485732559    35.684404179    21.328081135    -0.415045001     0.211012200    -0.182240222
   29    19.198362380    38.337217082    25.407595961    -0.391510638     0.237395418    -0.200905042
   30    17.968329110    39.250878462    22.104641235    -0.404883267     0.229885808    -0.182269184
   31    16.480698171    40.214629154    29.119032450    -0.398050198     0.240067846    -0.184183250
   32    18.607573060    30.865616391    28.347960953    -0.396719986     0.239499987    -0.187757846
   33    11.670796392    38.239942979    25.750178338    -0.399175518     0.238040963    -0.184378429
   34    21.268100363    33.224708940    28.468410812    -0.486507145    -0.092208564     0.069342475
   35    18.640389574    37.826353205    20.644623312    -0.407298299     0.225540634    -0.182317081
   36    18.154157943    32.813113081    25.978694019    -0.442641943     0.188954124    -0.135515494
   37    18.659717304    35.425992966    27.915405278    -0.401337090     0.227279035    -0.193061597
   38    16.744765494    36.343199737    24.614544024    -0.418769490     0.210642727    -0.173959062
   39    18.931272194    36.038540450    24.040070015    -0.426572722     0.198047694    -0.169743406
   40    13.697682626    39.057296198    26.587034916    -0.398098962     0.236119961    -0.189115257
   41    17.197054670    32.249200762    24.028012029    -0.441583509     0.187989368    -0.140228394
   42    11.481164949    38.690788228    23.477046079    -0.409305189     0.212692018    -0.192954314
   43    15.018975677    37.275478722    25.621437090    -0.415493313     0.213453335    -0.178333902
   44    19.959370885    34.274820111    24.904775923    -0.428358476     0.198612756    -0.164505286
   45    15.298801694    39.791527561    25.080601175    -0.404032077     0.223254688    -0.192133873
   46    18.390828105    31.470031201    22.380342520    -0.439281539     0.194381174    -0.138736039
   47    17.815292135    32.039764941    29.945107249    -0.405033239     0.223098449    -0.190197680
   48    21.020207241    33.696614808    20.866209341    -0.398189116     0.240474216    -0.183350973
   49    14.259673679    35.548773415    21.956104168     0.407831083    -0.197681642     0.211177121
   50    17.414433703    39.622859751    27.077158080    -0.392933918     0.230309594    -0.206301786
   51    20.691403807    36.056472129    21.005542965    -0.410045236     0.209422872    -0.194948622
   52    20.398856377    39.818853887    21.706721593    -0.393094321     0.225567053    -0.211178501
   53    19.668083040    34.499015506    29.629734400    -0.397676433     0.237013989    -0.188885742
   54    15.827195272    32.605724794    29.941152138    -0.394289538     0.256041819    -0.170230277
   55    14.273418418    40.274034022    22.842558672    -0.394654362     0.234041619    -0.198676761
   56    17.384559951    34.266655672    29.806611385    -0.405348364     0.224869558    -0.187420346
   57    16.274226469    36.192823376    27.436380041    -0.407756226     0.220688896    -0.187166427
   58    15.147186815    30.480955192    27.226709713    -0.395963326     0.238285333    -0.190874683
   59    16.798916856    31.959984966    27.941823425    -0.402692889     0.231590618    -0.184943837
   60    19.904222775    36.639300126    29.187444674    -0.398552447     0.231763917    -0.193497892
   61    20.069100079    32.012796460    30.090854500    -0.414700442     0.219063398    -0.173305427
   62    19.900869274    37.528706922    22.525016568    -0.412135501     0.211294573    -0.188411604
   63    13.163448578    38.062338439    29.718852526    -0.390448523     0.239609890    -0.200342336
   64    14.503408062    39.384030593    20.785671365    -0.397375833     0.224786414    -0.203871322
   65    15.630353772    34.110654509    23.632623936    -0.360895245     0.270490211    -0.215846399
   66    12.028663347    36.992401960    28.225979883    -0.386799976     0.244209600    -0.201859977
   67    18.859646814    33.021306019    28.337775987    -0.404363627     0.234343008    -0.177689088
   68    12.022687620    32.551792129    25.437143920    -0.464907108     0.169306279    -0.072088591
   21    22.916550021    36.765102187    24.503646665     0.403232760    -0.217729725     0.199992770
   22    30.248855691    32.148724641    26.543573385    -0.450863086     0.183464186    -0.114295102
   23    30.132929273    39.676050353    27.408413016    -0.399899650     0.230331021    -0.192426325
   24    25.079719847    34.563764001    28.236524437    -0.408923905     0.215221419    -0.190947586
   25    26.358378657    30.807614283    21.521540508    -0.393161641     0.235378095    -0.200052685
   26    22.917604614    31.389992166    28.058685715    -0.112988983    -0.385275998     0.297986402
   27    21.582227791    33.390250644    23.346889140    -0.408309615     0.226643112    -0.178650938
   28    28.575388509    35.829064391    21.616168004    -0.415092163     0.211259835    -0.181845479
   29    29.288018330    38.481877293    25.695682830    -0.391852030     0.236907119    -0.200815846
   30    28.057985060    39.395538673    22.392728105    -0.404983270     0.229916698    -0.182007866
   31    26.570354121    40.359289366    29.407119320    -0.398248459     0.239787248    -0.184120181
   32    28.697229010    31.010276603    28.636047822    -0.396785243     0.239989777    -0.186992989
   33    21.760452341    38.384603190    26.038265207    -0.399441080     0.237745245    -0.184184750
   34    31.357756312    33.369369151    28.756497682    -0.487190331    -0.088324512     0.069601451
   35    28.730045524    37.971013417    20.932710181    -0.407279765     0.225737901    -0.182114229
   36    28.243813893    32.957773293    26.266780889    -0.442357347     0.190014542    -0.134960927
   37    28.749373254    35.570653177    28.203492148    -0.401316406     0.227702633    -0.192604915
   38    26.834421443    36.487859948    24.902630894    -0.418894175     0.210703398    -0.173584987
   39    29.020928144    36.183200662    24.328156885    -0.426673464     0.198166783    -0.169350762
   40    23.787338576    39.201956410    26.875121785    -0.398348161     0.235862816    -0.188911289
   41    27.286710619    32.393860974    24.316098898    -0.441379180     0.188948433    -0.139581192
   42    21.570820899    38.835448440    23.765132948    -0.409630933     0.212294545    -0.192700610
   43    25.108631626    37.420138934    25.909523959    -0.415617028     0.213478807    -0.178014845
   44    30.049026835    34.419480322    25.192862793    -0.428488869     0.198766802    -0.163978804
   45    25.388457644    39.936187772    25.368688044    -0.404232564     0.223044595    -0.191956096
   46    28.480484055    31.614691413    22.668429389    -0.439127942     0.195160760    -0.138126494
   47    27.904948085    32.184425152    30.233194119    -0.404976747     0.223857244    -0.189424837
   48    31.109863191    33.841275019    21.154296210    -0.398329177     0.240753790    -0.182678624
   49    24.349329628    35.693433627    22.244191038     0.412974963    -0.190760101     0.207514491
   50    27.504089653    39.767519962    27.365244949    -0.393185445     0.229937821    -0.206237253
   51    30.781059756    36.201132341    21.293629834    -0.410065284     0.209607406    -0.194707982
   52    30.488512326    39.963514099    21.994808463    -0.393170561     0.225690016    -0.210905018
   53    29.757738990    34.643675718    29.917821269    -0.397661143     0.237459972    -0.188357047
   54    25.916851222    32.750385006    30.229239008    -0.394357735     0.256595598    -0.169235563
   55    24.363074368    40.418694233    23.130645542    -0.394895516     0.233752350    -0.198538083
   56    27.474215901    34.411315884    30.094698255    -0.405393796     0.225426059    -0.186651981
   57    26.363882419    36.337483588    27.724466911    -0.407868183     0.220921688    -0.186647134
   58    25.236842765    30.625615403    27.514796582    -0.396188467     0.238813244    -0.189744389
   59    26.888572806    32.104645177    28.229910294    -0.402833615     0.232086905    -0.184012899
   60    29.993878725    36.783960337    29.475531543    -0.398455220     0.232259306    -0.193103735
   61    30.158756029    32.157456671    30.378941370    -0.414610515     0.219888707    -0.172473410
   62    29.990525224    37.673367133    22.813103437    -0.412260811     0.211375143    -0.188046731
   63    23.253104528    38.206998651    30.006939395    -0.390695063     0.239409639    -0.200100956
   64    24.593064012    39.528690805    21.073758234    -0.397637429     0.224477179    -0.203701917
   65    25.720009722    34.255314721    23.920710805    -0.360649927     0.285215015    -0.196428169
   66    22.118319297    37.137062171    28.514066753    -0.387077728     0.244050730    -0.201519412
   67    28.949302764    33.165966230    28.625862857    -0.404302552     0.234915185    -0.177071462
   68    22.112343570    32.696452340    25.725230790    -0.465918601     0.164558598    -0.076422021
   21    33.006205971    36.909762398    24.791733534     0.403466337    -0.217538581     0.199729518
   22    40.338511641    32.293384853    26.831660255    -0.451281847     0.184254073    -0.111333422
   23    40.222585223    39.820710565    27.696499886    -0.399245095     0.230436252    -0.193655590
   24    35.169375796    34.708424213    28.524611306    -0.408611847     0.215557676    -0.191236103
   25    36.448034606    30.952274495    21.809627377    -0.392825309     0.236455050    -0.199442437
   26    33.007260564    31.534652378    28.346772585    -0.112476533    -0.382180095     0.302138056
   27    31.671883741    33.534910855    23.634976010    -0.408864347     0.226305691    -0.177807985
   28    38.665044458    35.973724602    21.904254874    -0.414596601     0.212112242    -0.181983666
   29    39.377674280    38.626537505    25.983769700    -0.391099409     0.237147850    -0.201995420
   30    38.147641010    39.540198885    22.680814974    -0.404511858     0.230489792    -0.182331052
   31    36.660010071    40.503949577    29.695206190    -0.397667488     0.240436285    -0.184529027
   32    38.786884960    31.154936814    28.924134692    -0.396684927     0.240196214    -0.186940759
   33    31.850108291    38.529263402    26.326352077    -0.399307913     0.237983695    -0.184165555
   34    41.447412262    33.514029363    29.044584552    -0.485933814    -0.087678448     0.078618180
   35    38.819701474    38.115673629    21.220797051    -0.406798852     0.226428450    -0.182331705
   36    38.333469842    33.102433504    26.554867758    -0.442527268     0.190842355    -0.133224670
   37    38.839029203    35.715313389    28.491579017    -0.401003582     0.227904146    -0.193017688
   38    36.924077393    36.632520160    25.190717763    -0.418513112     0.211321090    -0.173753193
   39    39.110584094    36.327860874    24.616243754    -0.426231517     0.199019474    -0.169463693
   40    33.876994526    39.346616621    27.163208655    -0.397960464     0.236348007    -0.189121888
   41    37.376366569    32.538521185    24.604185768    -0.441455305     0.189883804    -0.138062865
   42    31.660476849    38.980108651    24.053219818    -0.409713558     0.212303008    -0.192515539
   43    35.198287576    37.564799145    26.197610829    -0.415271552     0.214011431    -0.178181495
   44    40.138682784    34.564140534    25.480949662    -0.428011766     0.199767823    -0.164008370
   45    35.478113594    40.080847984    25.656774914    -0.403786627     0.223659894    -0.192178594
   46    38.570140004    31.759351625    22.956516259    -0.439068329     0.196220028    -0.136809002
   47    37.994604035    32.329085364    30.521280988    -0.404928291     0.223832315    -0.189557838
   48    41.199519141    33.985935231    21.442383080    -0.397739477     0.241735224    -0.182667431
   49    34.438985578    35.838093838    22.532277908     0.412558898    -0.191446976     0.207709438
   50    37.593745603    39.912180174    27.653331819    -0.392589847     0.230623163    -0.206606315
   51    40.870715706    36.345792553    21.581716704    -0.409582094     0.210346050    -0.194928314
   52    40.578168276    40.108174310    22.282895332    -0.392748736     0.226277622    -0.211061291
   53    39.847394940    34.788335930    30.205908139    -0.397330807     0.237556108    -0.188932066
   54    36.006507172    32.895045218    30.517325877    -0.394092952     0.256799867    -0.169542246
   55    34.452730317    40.563354445    23.418732412    -0.394406243     0.234534846    -0.198587817
   56    37.563871851    34.555976096    30.382785124    -0.405196406     0.225530107    -0.186954655
   57    36.453538369    36.482143800    28.012553781    -0.407526796     0.221299180    -0.186945402
   58    35.326498714    30.770275615    27.802883452    -0.396110057     0.239036402    -0.189627059
   59    36.978228755    32.249305389    28.517997164    -0.402734665     0.232346308    -0.183902101
   60    40.083534675    36.928620549    29.763618413    -0.398103879     0.232468963    -0.193575521
   61    40.248411979    32.302116883    30.667028239    -0.414603770     0.219835217    -0.172557789
   62    40.080181174    37.818027345    23.101190307    -0.411767862     0.212070596    -0.188343544
   63    33.342760478    38.351658863    30.295026265    -0.390310122     0.240228925    -0.199870139
   64    34.682719962    39.673351017    21.361845104    -0.397192856     0.225242955    -0.203723947
   65    35.809665671    34.399974932    24.208797675    -0.360547806     0.279952400    -0.204039048
   66    32.207975247    37.281722383    28.802153622    -0.386797156     0.244722466    -0.201243322
   67    39.038958714    33.310626442    28.913949727    -0.404152088     0.234995929    -0.177307652
   68    32.201999520    32.841112552    26.013317659    -0.465168743     0.166720761    -0.076303528
   21     2.618882879     6.432636937    33.847582017     0.403054869    -0.218364614     0.199658878
   22     9.951188550     1.816259391    35.887508737    -0.450927206     0.184467940    -0.112411007
   23     9.835262131     9.343585103    36.752348368    -0.399314685     0.230959201    -0.192887610
   24     4.782052705     4.231298751    37.580459788    -0.408602836     0.215150424    -0.191713375
   25     6.060711515     0.475149034    30.865475860    -0.392660673     0.236096306    -0.200190236
   26     2.619937472     1.057526916    37.402621067    -0.120326847    -0.372176726     0.311457757
   27     1.284560649     3.057785394    32.690824492    -0.407676323     0.227675533    -0.178784414
   28     8.277721367     5.496599141    30.960103356    -0.414542007     0.211919853    -0.182331840
   29     8.990351188     8.149412043    35.039618182    -0.391139639     0.237647221    -0.201329534
   30     7.760317918     9.063073424    31.736663457    -0.404412838     0.230586174    -0.182428816
   31     6.272686979    10.026824116    38.751054672    -0.397586711     0.240459552    -0.184672713
   32     8.399561868     0.677811353    37.979983174    -0.396603978     0.239749035    -0.187685068
   33     1.462785200     8.052137940    35.382200559    -0.398979965     0.238490053    -0.184221285
   34    11.060089171     3.036903901    38.100433034    -0.486577792    -0.085877727     0.076596791
   35     8.432378382     7.638548167    30.276645533    -0.406736080     0.226305496    -0.182624159
   36     7.946146751     2.625308043    35.610716241    -0.442279192     0.190810072    -0.134091882
   37     8.451706112     5.238187928    37.547427500    -0.400937604     0.227584739    -0.193530938
   38     6.536754302     6.155394698    34.246566246    -0.418479037     0.211006999    -0.174216366
   39     8.723261002     5.850735412    33.672092237    -0.426218584     0.198625464    -0.169957772
   40     3.489671434     8.869491160    36.219057137    -0.397761507     0.236566170    -0.189267617
   41     6.989043478     2.061395724    33.660034250    -0.441215324     0.189825726    -0.138907277
   42     1.273153757     8.502983190    33.109068300    -0.409297613     0.213234881    -0.192370343
   43     4.810964485     7.087673684    35.253459311    -0.415206159     0.213789456    -0.178599870
   44     9.751359693     4.087015073    34.536798145    -0.428013558     0.199270666    -0.164607400
   45     5.090790502     9.603722522    34.712623396    -0.403634639     0.223757850    -0.192383738
   46     8.182816913     1.282226163    32.012364741    -0.438852422     0.196100084    -0.137671017
   47     7.607280943     1.851959902    39.577129471    -0.404842245     0.223344214    -0.190315839
   48    10.812196049     3.508809770    30.498231562    -0.397637293     0.241347296    -0.183401379
   49     4.051662487     5.360968377    31.588126390     0.412428209    -0.194547280     0.205071520
   50     7.206422511     9.435054713    36.709180301    -0.392413986     0.230733241    -0.206817397
   51    10.483392615     5.868667091    30.637565186    -0.409541882     0.210158006    -0.195215418
   52    10.190845185     9.631048849    31.338743815    -0.392560853     0.226328251    -0.211356333
   53     9.460071848     4.311210468    39.261756621    -0.397272223     0.237194394    -0.189508839
   54     5.619184080     2.417919756    39.573174360    -0.394142848     0.256253746    -0.170251088
   55     4.065407226    10.086228983    32.474580894    -0.394196196     0.234679776    -0.198833503
   56     7.176548759     4.078850634    39.438633607    -0.405134490     0.225084713    -0.187624403
   57     6.066215277     6.005018338    37.068402263    -0.407496914     0.220933083    -0.187442892
   58     4.939175623     0.293150153    36.858731934    -0.395940979     0.238485370    -0.190671102
   59     6.590905664     1.772179927    37.573845646    -0.402601528     0.231888004    -0.184770028
   60     9.696211583     6.451495087    38.819466895    -0.398083214     0.232126902    -0.194027977
   61     9.861088887     1.824991422    39.722876722    -0.414507091     0.219403675    -0.173337528
   62     9.692858082     7.340901883    32.157038789    -0.411772853     0.211910250    -0.188513032
   63     2.955437386     7.874533401    39.350874747    -0.389920428     0.240299578    -0.200544690
   64     4.295396870     9.196225555    30.417693586    -0.396957680     0.225470383    -0.203930642
   65     5.422342580     3.922849471    33.264646157    -0.362326610     0.281413290    -0.198811439
   66     1.820652155     6.804596922    37.858002105    -0.386365112     0.244901327    -0.201854751
   67     8.651635622     2.833500981    37.969798209    -0.404076527     0.234653722    -0.177931986
   68     1.814676428     2.363987091    35.069166142    -0.464931334     0.169525247    -0.071414602
   21    12.708538829     6.577297148    34.135668886     0.403323610    -0.217617463     0.199931752
   22    20.040844499     1.960919603    36.175595606    -0.451318980     0.184128977    -0.111389846
   23    19.924918081     9.488245315    37.040435238    -0.399503598     0.230871059    -0.192601738
   24    14.871708655     4.375958963    37.868546658    -0.408640239     0.215474579    -0.191269079
   25    16.150367465     0.619809245    31.153562729    -0.393142004     0.235450784    -0.200005733
   26    12.709593422     1.202187128    37.690707937    -0.118496365    -0.375000849     0.308760384
   27    11.374216599     3.202445605    32.978911362    -0.407944016     0.226398889    -0.179792166
   28    18.367377317     5.641259352    31.248190226    -0.414776036     0.211764863    -0.181979346
   29    19.080007138     8.294072255    35.327705052    -0.391461811     0.237431164    -0.200957937
   30    17.849973868     9.207733635    32.024750326    -0.404594540     0.230595017    -0.182014276
   31    16.362342929    10.171484328    39.039141541    -0.397807713     0.240267768    -0.184446260
   32    18.489217818     0.822471564    38.268070044    -0.396851208     0.239846166    -0.187037257
   33    11.552441149     8.196798152    35.670287429    -0.399090787     0.238135882    -0.184439273
   34    21.149745120     3.181564113    38.388519904    -0.486264732    -0.086684674     0.077668380
   35    18.522034332     7.783208379    30.564732403    -0.406994459     0.226243869    -0.182124193
   36    18.035802701     2.769968254    35.898803110    -0.442660819     0.190526433    -0.133233169
   37    18.541362062     5.382848139    37.835514369    -0.400973895     0.227907975    -0.193074831
   38    16.626410251     6.300054910    34.534653115    -0.418562606     0.211210014    -0.173769028
   39    18.812916952     5.995395624    33.960179106    -0.426340378     0.198806632    -0.169439680
   40    13.579327384     9.014151371    36.507144007    -0.397915801     0.236372149    -0.189185682
   41    17.078699427     2.206055935    33.948121120    -0.441651664     0.189408547    -0.138087691
   42    11.362809707     8.647643401    33.397155170    -0.409316327     0.212683261    -0.192940340
   43    14.900620434     7.232333895    35.541546181    -0.415288901     0.213962052    -0.178200362
   44    19.841015643     4.231675284    34.824885014    -0.428139845     0.199460868    -0.164047661
   45    15.180446452     9.748382734    35.000710266    -0.403757156     0.223690217    -0.192205219
   46    18.272472863     1.426886375    32.300451611    -0.439315519     0.195609959    -0.136889074
   47    17.696936893     1.996620114    39.865216340    -0.405064379     0.223495444    -0.189664533
   48    20.901851999     3.653469981    30.786318432    -0.398057814     0.240960103    -0.182997829
   49    14.141318436     5.505628588    31.876213260     0.414099902    -0.191493181     0.204576717
   50    17.296078461     9.579714924    36.997267171    -0.392678099     0.230511371    -0.206563353
   51    20.573048564     6.013327303    30.925652056    -0.409781356     0.210128430    -0.194744147
   52    20.280501134     9.775709060    31.626830684    -0.392789665     0.226400116    -0.210853662
   53    19.549727798     4.455870680    39.549843491    -0.397338664     0.237472518    -0.189020606
   54    15.708840030     2.562579968    39.861261229    -0.394207571     0.256596580    -0.169583567
   55    14.155063176    10.230889195    32.762667764    -0.394258040     0.234731551    -0.198649683
   56    17.266204709     4.223510846    39.726720476    -0.405268404     0.225318410    -0.187053829
   57    16.155871227     6.149678550    37.356489133    -0.407525331     0.221271714    -0.186981104
   58    15.028831573     0.437810365    37.146818804    -0.396296836     0.238335682    -0.190118176
   59    16.680561614     1.916840139    37.861932516    -0.402897911     0.231865323    -0.184151420
   60    19.785867533     6.596155299    39.107553765    -0.398075233     0.232472924    -0.193629668
   61    19.950744837     1.969651633    40.010963591    -0.414733555     0.219524744    -0.172641146
   62    19.782514032     7.485562095    32.445125659    -0.411901156     0.211985472    -0.188147806
   63    13.045093336     8.019193613    39.638961617    -0.390149534     0.239859178    -0.200626310
   64    14.385052820     9.340885767    30.705780456    -0.396981554     0.225530657    -0.203817488
   65    15.511998530     4.067509683    33.552733027    -0.361702614     0.284525636    -0.195490106
   66    11.910308105     6.949257133    38.146088974    -0.386558038     0.244453512    -0.202028126
   67    18.741291572     2.978161192    38.257885079    -0.404196257     0.234901505    -0.177332085
   68    11.904332378     2.508647302    35.357253011    -0.465220271     0.168029955    -0.073048158
   21    22.798194779     6.721957360    34.423755756     0.403037255    -0.218356189     0.199703645
   22    30.130500449     2.105579815    36.463682476    -0.452329700     0.180575029    -0.113095098
   23    30.014574031     9.632905526    37.328522107    -0.399176653     0.231853761    -0.192098499
   24    24.961364604     4.520619174    38.156633528    -0.408784735     0.215520376    -0.190908375
   25    26.240023414     0.764469457    31.441649599    -0.393260802     0.235356031    -0.199883667
   26    22.799249372     1.346847340    37.978794806    -0.119002711    -0.376069455     0.307262298
   27    21.463872549     3.347105817    33.266998231    -0.407937343     0.226872324    -0.179209578
   28    28.457033266     5.785919564    31.536277096    -0.414900175     0.211914895    -0.181521133
   29    29.169663088     8.438732467    35.615791922    -0.391061947     0.238531635    -0.200432564
   30    27.939629818     9.352393847    32.312837196    -0.404636793     0.230813669    -0.181642826
   31    26.451998879    10.316144539    39.327228411    -0.397682164     0.240721960    -0.184124508
   32    28.578873768     0.967131776    38.556156913    -0.397065149     0.239685112    -0.186789492
   33    21.642097099     8.341458364    35.958374298    -0.399003508     0.238530775    -0.184117543
   34    31.239401070     3.326224325    38.676606773    -0.484692134    -0.099728059     0.071609007
   35    28.611690282     7.927868590    30.852819272    -0.407058871     0.226403378    -0.181781699
   36    28.125458650     2.914628466    36.186889980    -0.443210638     0.188615731    -0.134120977
   37    28.631018011     5.527508351    38.123601239    -0.401207390     0.227863282    -0.192642038
   38    26.716066201     6.444715122    34.822739985    -0.418587360     0.211462793    -0.173401582
   39    28.902572902     6.140055835    34.248265976    -0.426387022     0.199054864    -0.169030376
   40    23.668983334     9.158811583    36.795230876    -0.397819264     0.236774301    -0.188885583
   41    27.168355377     2.350716147    34.236207989    -0.442099097     0.187921145    -0.138686810
   42    21.452465657     8.792303613    33.685242040    -0.409382370     0.212919245    -0.192539529
   43    24.990276384     7.376994107    35.829633050    -0.415281120     0.214247619    -0.177875094
   44    29.930671592     4.376335496    35.112971884    -0.428176527     0.199733950    -0.163619105
   45    25.270102402     9.893042946    35.288797136    -0.403731601     0.223999283    -0.191898712
   46    28.362128812     1.571546586    32.588538481    -0.439696327     0.194455132    -0.137311115
   47    27.786592843     2.141280326    40.153303210    -0.405246337     0.223419364    -0.189365240
   48    30.991507949     3.798130193    31.074405302    -0.398135868     0.241195427    -0.182517387
   49    24.230974386     5.650288800    32.164300129     0.407691654    -0.201709806     0.207607007
   50    27.385734411     9.724375136    37.285354040    -0.392575652     0.230960313    -0.206256373
   51    30.662704514     6.157987514    31.213738926    -0.409842976     0.210348731    -0.194376301
   52    30.370157084     9.920369272    31.914917554    -0.392848109     0.226528020    -0.210607264
   53    29.639383748     4.600530891    39.837930360    -0.397563303     0.237649668    -0.188324336
   54    25.798495980     2.707240179    40.149348099    -0.394492787     0.256460390    -0.169125720
   55    24.244719125    10.375549407    33.050754633    -0.394350504     0.234807482    -0.198376223
   56    27.355860659     4.368171057    40.014807346    -0.405491432     0.225307986    -0.186582449
   57    26.245527177     6.294338761    37.644576002    -0.407672498     0.221314008    -0.186609872
   58    25.118487522     0.582470577    37.434905673    -0.396421753     0.238401679    -0.189774691
   59    26.770217563     2.061500351    38.150019386    -0.403070309     0.231776225    -0.183886126
   60    29.875523483     6.740815511    39.395640635    -0.398302116     0.232437135    -0.193205598
   61    30.040400787     2.114311845    40.299050461    -0.414909899     0.219237200    -0.172582808
   62    29.872169982     7.630222307    32.733212529    -0.411931567     0.212306189    -0.187719116
   63    23.134749286     8.163853824    39.927048486    -0.390099562     0.240277345    -0.200222700
   64    24.474708770     9.485545978    30.993867325    -0.397131451     0.225516010    -0.203541494
   65    25.601654479     4.212169894    33.840819896    -0.359634169     0.292335135    -0.187625780
   66    21.999964055     7.093917345    38.434175844    -0.386495597     0.244898637    -0.201608064
   67    28.830947522     3.122821404    38.545971948    -0.404469519     0.234811931    -0.176826936
   68    21.993988328     2.653307514    35.645339881    -0.465562963     0.167573178    -0.071905200
   21    32.887850729     6.866617572    34.711842625     0.403204964    -0.218467065     0.199243315
   22    40.220156399     2.250240026    36.751769346    -0.450743037     0.185635464    -0.111221350
   23    40.104229981     9.777565738    37.616608977    -0.399486809     0.231160936    -0.192288614
   24    35.051020554     4.665279386    38.444720397    -0.408450504     0.216019165    -0.191059954
   25    36.329679364     0.909129668    31.729736468    -0.392694006     0.236061343    -0.200166081
   26    32.888905321     1.491507551    38.266881676    -0.074919656    -0.394252878     0.298247738
   27    31.553528499     3.491766029    33.555085101    -0.407319333     0.228992177    -0.177914429
   28    38.546689216     5.930579776    31.824363965    -0.414635236     0.212569219    -0.181361375
   29    39.259319038     8.583392678    35.903878791    -0.391350005     0.237927495    -0.200588336
   30    38.029285767     9.497054058    32.600924065    -0.404652288     0.230932111    -0.181457669
   31    36.541654829    10.460804751    39.615315281    -0.397898873     0.240370121    -0.184115973
   32    38.668529717     1.111791988    38.844243783    -0.396555225     0.240448950    -0.186891026
   33    31.731753049     8.486118575    36.246461168    -0.399121921     0.238648057    -0.183708456
   34    41.329057020     3.470884536    38.964693643    -0.486607560    -0.083055544     0.079466090
   35    38.701346232     8.072528802    31.140906142    -0.406857096     0.226872150    -0.181648922
   36    38.215114600     3.059288678    36.474976850    -0.442167098     0.191671034    -0.133230898
   37    38.720673961     5.672168562    38.411688108    -0.400814975     0.228165835    -0.193100253
   38    36.805722151     6.589375333    35.110826855    -0.418405582     0.211818699    -0.173405906
   39    38.992228851     6.284716047    34.536352845    -0.426143558     0.199521734    -0.169093897
   40    33.758639284     9.303471795    37.083317746    -0.398012029     0.236741245    -0.188520575
   41    37.258011327     2.495376359    34.524294859    -0.441123014     0.190455843    -0.138336757
   42    31.542121607     8.936963825    33.973328909    -0.409386278     0.213297726    -0.192111832
   43    35.079932334     7.521654319    36.117719920    -0.415174993     0.214500488    -0.177818069
   44    40.020327542     4.520995708    35.401058754    -0.427860907     0.200295574    -0.163758135
   45    35.359758352    10.037703157    35.576884005    -0.403899193     0.223905374    -0.191655486
   46    38.451784762     1.716206798    32.876625350    -0.438787643     0.196544901    -0.137242507
   47    37.876248792     2.285940537    40.441390080    -0.404616478     0.224274367    -0.189701118
   48    41.081163898     3.942790405    31.362492171    -0.397770802     0.242322619    -0.181818968
   49    34.320630336     5.794949012    32.452386999     0.412317146    -0.196333614     0.203587041
   50    37.475390360     9.869035348    37.573440910    -0.392824035     0.230638778    -0.206143231
   51    40.752360464     6.302647726    31.501825795    -0.409626278     0.210789206    -0.194355919
   52    40.459813034    10.065029484    32.203004424    -0.392892592     0.226752715    -0.210282233
   53    39.729039697     4.745191103    40.126017230    -0.397141563     0.237683976    -0.189168989
   54    35.888151929     2.851900391    40.437434969    -0.393616261     0.257539465    -0.169527764
   55    34.334375075    10.520209618    33.338841503    -0.394648216     0.234629047    -0.197994940
   56    37.445516608     4.512831269    40.302894216    -0.404915838     0.226009100    -0.186984093
   57    36.335183127     6.438998973    37.932662872    -0.407355796     0.221754338    -0.186778663
   58    35.208143472     0.727130788    37.722992543    -0.396372697     0.239015446    -0.189103944
   59    36.859873513     2.206160562    38.438106255    -0.402745178     0.232563246    -0.183604626
   60    39.965179432     6.885475722    39.683727504    -0.397995667     0.232549274    -0.193701535
   61    40.130056736     2.258972057    40.587137330    -0.414239374     0.220359337    -0.172764301
   62    39.961825932     7.774882518    33.021299398    -0.411780178     0.212522366    -0.187806626
   63    33.224405235     8.308514036    40.215135356    -0.390285615     0.240168921    -0.199990071
   64    34.564364719     9.630206190    31.281954195    -0.397441803     0.225349133    -0.203120116
   65    35.691310429     4.356830106    34.128906766    -0.363162128     0.280555717    -0.198498763
   66    32.089620005     7.238577557    38.722262713    -0.386717571     0.244796713    -0.201305960
   67    38.920603471     3.267481616    38.834058818    -0.403904368     0.235289226    -0.177483073
   68    32.083644278     2.797967725    35.933426750    -0.467087417     0.162001881    -0.074731088
   21     2.753958350    16.457730458    33.878207440     0.403468706    -0.218248606     0.198948609
   22    10.086264021    11.841352912    35.918134160    -0.451043704     0.184209532    -0.112367368
   23     9.970337602    19.368678624    36.782973792    -0.399397165     0.231215510    -0.192409181
   24     4.917128176    14.256392272    37.611085212    -0.408419832     0.215668912    -0.191520655
   25     6.195786986    10.500242555    30.896101283    -0.392597165     0.235893398    -0.200553661
   26     2.755012943    11.082620437    37.433246491    -0.116099105    -0.372074084     0.313180258
   27     1.419636120    13.082878915    32.721449916    -0.408632190     0.226809349    -0.177699894
   28     8.412796838    15.521692662    30.990728780    -0.414502141     0.212009662    -0.182318070
   29     9.125426659    18.174505564    35.070243606    -0.391293055     0.237836700    -0.200806995
   30     7.895393389    19.088166945    31.767288880    -0.404434063     0.230717441    -0.182215674
   31     6.407762451    20.051917637    38.781680095    -0.397785762     0.240554512    -0.184119566
   32     8.534637339    10.702904874    38.010608598    -0.396370157     0.240060798    -0.187780489
   33     1.597860671    18.077231461    35.412825983    -0.399276146     0.238559586    -0.183488101
   34    11.195164642    13.061997422    38.131058457    -0.486522534    -0.085726914     0.077114979
   35     8.567453853    17.663641688    30.307270957    -0.406716272     0.226448685    -0.182490731
   36     8.081222222    12.650401564    35.641341664    -0.442341742     0.190658842    -0.134100669
   37     8.586781583    15.263281449    37.578052923    -0.400859987     0.227975155    -0.193231983
   38     6.671829773    16.180488219    34.277191669    -0.418407619     0.211496898    -0.173793344
   39     8.858336473    15.875828933    33.702717660    -0.426106380     0.199058239    -0.169732643
   40     3.624746905    18.894584681    36.249682561    -0.397964760     0.236753910    -0.188604442
   41     7.124118949    12.086489245    33.690659674    -0.441296464     0.189578076    -0.138987710
   42     1.408229228    18.528076711    33.139693724    -0.409687800     0.213122873    -0.191662588
   43     4.946039956    17.112767205    35.284084735    -0.415176651     0.214257814    -0.178106535
   44     9.886435164    14.112108594    34.567423568    -0.427883283     0.199679375    -0.164450733
   45     5.225865974    19.628816043    34.743248820    -0.403799585     0.223982958    -0.191774684
   46     8.317892384    11.307319684    32.042990165    -0.438933536     0.195863800    -0.137748768
   47     7.742356414    11.877053423    39.607754894    -0.404636577     0.223722423    -0.190309006
   48    10.947271520    13.533903291    30.528856986    -0.397651824     0.241308014    -0.183421563
   49     4.186737958    15.386061898    31.618751814     0.408773145    -0.198765311     0.208319148
   50     7.341497982    19.460148234    36.739805725    -0.392597322     0.230893124    -0.206290349
   51    10.618468086    15.893760612    30.668190610    -0.409512842     0.210339943    -0.195080344
   52    10.325920656    19.656142370    31.369369238    -0.392636629     0.226313035    -0.211231833
   53     9.595147319    14.336303989    39.292382045    -0.397201070     0.237496469    -0.189279521
   54     5.754259551    12.443013277    39.603799783    -0.393774532     0.256856903    -0.170194446
   55     4.200482697    20.111322504    32.505206318    -0.394355202     0.234974512    -0.198169003
   56     7.311624230    14.103944155    39.469259030    -0.404932785     0.225493698    -0.187568738
   57     6.201290749    16.030111859    37.099027686    -0.407360971     0.221427069    -0.187155262
   58     5.074251094    10.318243674    36.889357358    -0.395733108     0.238722593    -0.190805742
   59     6.725981135    11.797273448    37.604471070    -0.402386431     0.232190509    -0.184858669
   60     9.831287054    16.476588608    38.850092319    -0.398020902     0.232496402    -0.193713150
   61     9.996164358    11.850084943    39.753502145    -0.414371784     0.219707603    -0.173276063
   62     9.827933554    17.365995404    32.187664213    -0.411699528     0.212183011    -0.188366316
   63     3.090512857    17.899626922    39.381500171    -0.390250664     0.240489563    -0.199672706
   64     4.430472341    19.221319076    30.448319010    -0.397135885     0.225749794    -0.203273510
   65     5.557418051    13.947942992    33.295271581    -0.364403954     0.279182691    -0.198158481
   66     1.955727626    16.829690443    37.888627528    -0.386740515     0.245043350    -0.200961517
   67     8.786711093    12.858594502    38.000423632    -0.403938107     0.234941621    -0.177866356
   68     1.949751899    12.389080612    35.099791565    -0.465511414     0.167284913    -0.072903234
   21    12.843614300    16.602390669    34.166294310     0.403241198    -0.217967847     0.199716183
   22    20.175919970    11.986013124    36.206221030    -0.451411992     0.183489166    -0.112066673
   23    20.059993552    19.513338836    37.071060661    -0.399352723     0.231268575    -0.192437650
   24    15.006784126    14.401052484    37.899172082    -0.408607254     0.215498113    -0.191313030
   25    16.285442936    10.644902766    31.184188153    -0.392671657     0.236073713    -0.200195335
   26    12.844668893    11.227280649    37.721333360    -0.117914272    -0.371574507     0.313095210
   27    11.509292070    13.227539126    33.009536785    -0.407493515     0.227366133    -0.179593087
   28    18.502452788    15.666352873    31.278815650    -0.414653616     0.212078873    -0.181892633
   29    19.215082609    18.319165776    35.358330476    -0.391185122     0.238020228    -0.200799829
   30    17.985049339    19.232827156    32.055375750    -0.404478768     0.230855908    -0.181940859
   31    16.497418400    20.196577849    39.069766965    -0.397672844     0.240507970    -0.184424036
   32    18.624293289    10.847565085    38.298695467    -0.396576567     0.239913836    -0.187532339
   33    11.687516620    18.221891673    35.700912852    -0.398974445     0.238491474    -0.184231401
   34    21.284820591    13.206657634    38.419145327    -0.485992435    -0.088832020     0.076943000
   35    18.657109803    17.808301900    30.595357826    -0.406847757     0.226528072    -0.182098697
   36    18.170878172    12.795061775    35.929428534    -0.442616207     0.190324071    -0.133669898
   37    18.676437533    15.407941660    37.866139793    -0.400947205     0.227890841    -0.193150467
   38    16.761485722    16.325148431    34.565278539    -0.418492979     0.211455406    -0.173638238
   39    18.947992423    16.020489145    33.990804530    -0.426253720     0.199116634    -0.169293627
   40    13.714402855    19.039244892    36.537769430    -0.397780762     0.236670560    -0.189096566
   41    17.213774899    12.231149456    33.978746543    -0.441559770     0.189392083    -0.138403787
   42    11.497885178    18.672736922    33.427780593    -0.409266543     0.212980785    -0.192717623
   43    15.035695905    17.257427416    35.572171604    -0.415222380     0.214172250    -0.178102842
   44    19.976091114    14.256768805    34.855510438    -0.428032186     0.199817621    -0.163894374
   45    15.315521923    19.773476255    35.031335690    -0.403633680     0.223968779    -0.192140153
   46    18.407548334    11.451979896    32.331077034    -0.439179411     0.195719555    -0.137168879
   47    17.832012364    12.021713635    39.895841764    -0.404795783     0.223616598    -0.190094691
   48    21.036927470    13.678563502    30.816943855    -0.397711381     0.241492599    -0.183049124
   49    14.276393908    15.530722109    31.906838683     0.416125593    -0.182900536     0.208295188
   50    17.431153932    19.604808445    37.027892594    -0.392550791     0.230744868    -0.206544626
   51    20.708124035    16.038420824    30.956277480    -0.409664371     0.210420785    -0.194674591
   52    20.415576605    19.800802581    31.657456108    -0.392653945     0.226655189    -0.210832410
   53    19.684803269    14.480964201    39.580468914    -0.397208348     0.237567350    -0.189175270
   54    15.843915501    12.587673489    39.891886653    -0.393945991     0.256717265    -0.170008242
   55    14.290138647    20.255982716    32.793293187    -0.394208176     0.234891066    -0.198560069
   56    17.401280180    14.248604367    39.757345900    -0.405074503     0.225418538    -0.187352956
   57    16.290946698    16.174772071    37.387114556    -0.407504782     0.221303098    -0.186988746
   58    15.163907044    10.462903886    37.177444227    -0.395927414     0.238537303    -0.190634304
   59    16.815637085    11.941933660    37.892557939    -0.402610142     0.231974684    -0.184642409
   60    19.920943004    16.621248820    39.138179189    -0.398076069     0.232459202    -0.193644423
   61    20.085820308    11.994745154    40.041589015    -0.414477660     0.219644053    -0.173103320
   62    19.917589503    17.510655616    32.475751082    -0.411821817     0.212278324    -0.187991234
   63    13.180168807    18.044287134    39.669587040    -0.390006914     0.240319479    -0.200352578
   64    14.520128291    19.365979288    30.736405879    -0.396968536     0.225645600    -0.203715597
   65    15.647074001    14.092603204    33.583358450    -0.358658122     0.296944397    -0.182176773
   66    12.045383576    16.974350654    38.176714398    -0.386449398     0.244891450    -0.201705330
   67    18.876367043    13.003254713    38.288510502    -0.404049396     0.234910430    -0.177654654
   68    12.039407849    12.533740823    35.387878435    -0.465382565     0.167631977    -0.072928655
   21    22.933270250    16.747050881    34.454381179     0.403016605    -0.218732640     0.199333009
   22    30.265575920    12.130673336    36.494307900    -0.450041470     0.187676242    -0.110635905
   23    30.149649502    19.657999047    37.359147531    -0.400127418     0.230276989    -0.192017078
   24    25.096440076    14.545712695    38.187258951    -0.408742546     0.215386056    -0.191150146
   25    26.375098886    10.789562978    31.472275022    -0.392769013     0.236128360    -0.199939740
   26    22.934324843    11.371940861    38.009420230    -0.112706301    -0.375914652     0.309815209
   27    21.598948020    13.372199338    33.297623655    -0.407648593     0.227732653    -0.178774895
   28    28.592108738    15.811013085    31.566902519    -0.414984793     0.211681503    -0.181600008
   29    29.304738559    18.463825988    35.646417345    -0.392057784     0.236944315    -0.200369872
   30    28.074705289    19.377487368    32.343462619    -0.404983280     0.230146071    -0.181717718
   31    26.587074350    20.341238060    39.357853835    -0.398314189     0.239996531    -0.183704850
   32    28.713949239    10.992225297    38.586782337    -0.396428013     0.240407755    -0.187213625
   33    21.777172570    18.366551885    35.988999722    -0.399218383     0.238402019    -0.183818280
   34    31.374476541    13.351317846    38.707232197    -0.486985192    -0.077350964     0.082838709
   35    28.746765753    17.952962111    30.883444696    -0.407226841     0.226056771    -0.181836841
   36    28.260534121    12.939721987    36.217515403    -0.441826614     0.192804079    -0.132724639
   37    28.766093482    15.552601872    38.154226662    -0.401159486     0.227678511    -0.192960003
   38    26.851141672    16.469808643    34.853365409    -0.418833816     0.210930120    -0.173455238
   39    29.037648373    16.165149356    34.278891399    -0.426551350     0.198538715    -0.169222708
   40    23.804058805    19.183905104    36.825856300    -0.398249222     0.236342454    -0.188520029
   41    27.303430848    12.375809668    34.266833413    -0.440851396     0.191593933    -0.137629252
   42    21.587541128    18.817397134    33.715867463    -0.409330476     0.213161162    -0.192382121
   43    25.125351855    17.402087628    35.860258474    -0.415557669     0.213752908    -0.177824402
   44    30.065747063    14.401429017    35.143597308    -0.428258044     0.199272157    -0.163968459
   45    25.405177873    19.918136467    35.319422559    -0.404177157     0.223455482    -0.191594554
   46    28.497204284    11.596640107    32.619163904    -0.438604877     0.197439664    -0.136540622
   47    27.921668314    12.166373847    40.183928634    -0.404777792     0.223891619    -0.189809067
   48    31.126583420    13.823223714    31.105030725    -0.397948681     0.241254892    -0.182846724
   49    24.366049857    15.675382321    32.194925553     0.402043855    -0.218490494     0.201550597
   50    27.520809882    19.749468657    37.315979464    -0.393266778     0.230266714    -0.205714564
   51    30.797779985    16.183081035    31.244364349    -0.410015768     0.209978253    -0.194412457
   52    30.505232555    19.945462793    31.945542978    -0.393199908     0.225922283    -0.210601411
   53    29.774459219    14.625624412    39.868555784    -0.397450900     0.237164512    -0.189171289
   54    25.933571451    12.732333700    40.179973523    -0.393974487     0.256875217    -0.169703349
   55    24.379794596    20.400642928    33.081380057    -0.394762224     0.234369481    -0.198075069
   56    27.490936130    14.393264578    40.045432770    -0.405133438     0.225481054    -0.187150184
   57    26.380602648    16.319432282    37.675201426    -0.407717731     0.221067130    -0.186803576
   58    25.253562993    10.607564098    37.465531097    -0.395847853     0.239021985    -0.190191923
   59    26.905293034    12.086593872    38.180644809    -0.402472966     0.232508616    -0.184269517
   60    30.010598954    16.765909032    39.426266058    -0.398351767     0.232147678    -0.193451093
   61    30.175476258    12.139405366    40.329675884    -0.414497021     0.220003274    -0.172600054
   62    30.007245453    17.655315828    32.763837952    -0.412248616     0.211697305    -0.187710761
   63    23.269824757    18.188947345    39.957673910    -0.390308828     0.240165946    -0.199948336
   64    24.609784241    19.510639499    31.024492749    -0.397497159     0.225138993    -0.203244784
   65    25.736729950    14.237263415    33.871445320    -0.330493739     0.334623257    -0.169709058
   66    22.135039526    17.119010866    38.464801267    -0.386646285     0.244801024    -0.201437607
   67    28.966022993    13.147914925    38.576597372    -0.404038119     0.234993903    -0.177569884
   68    22.129063799    12.678401035    35.675965304    -0.465820854     0.166469516    -0.072793080
   21    33.022926200    16.891711093    34.742468049     0.403596962    -0.217936205     0.199030908
   22    40.355231870    12.275333547    36.782394769    -0.451248737     0.183956849    -0.111957381
   23    40.239305452    19.802659259    37.647234400    -0.399676164     0.231507659    -0.191476285
   24    35.186096025    14.690372907    38.475345821    -0.408840088     0.215649974    -0.190643309
   25    36.464754835    10.934223190    31.760361892    -0.393092180     0.235973897    -0.199486486
   26    33.023980792    11.516601072    38.297507099    -0.118526648    -0.361548500     0.324398082
   27    31.688603970    13.516859550    33.585710525    -0.408634835     0.225061251    -0.179902764
   28    38.681764687    15.955673297    31.854989389    -0.415089078     0.212040595    -0.180941547
   29    39.394394509    18.608486199    35.934504215    -0.391706691     0.238064651    -0.199727540
   30    38.164361238    19.522147580    32.631549489    -0.404912418     0.230868761    -0.180957312
   31    36.676730300    20.485898272    39.645940704    -0.397990113     0.240918879    -0.183199246
   32    38.803605188    11.136885509    38.874869207    -0.396662652     0.240091775    -0.187122099
   33    31.866828520    18.511212096    36.277086591    -0.399465948     0.238191170    -0.183553598
   34    41.464132491    13.495978057    38.995319066    -0.486492812    -0.086883407     0.076000112
   35    38.836421703    18.097622323    31.171531566    -0.407285088     0.226536919    -0.181107375
   36    38.350190071    13.084382199    36.505602273    -0.442677528     0.190450793    -0.133285789
   37    38.855749432    15.697262083    38.442313532    -0.401236152     0.228047975    -0.192363384
   38    36.940797622    16.614468854    35.141452278    -0.418869377     0.211379727    -0.172820878
   39    39.127304322    16.309809568    34.566978269    -0.426683026     0.198907885    -0.168455480
   40    33.893714755    19.328565316    37.113943170    -0.398188998     0.236641754    -0.188271617
   41    37.393086798    12.520469880    34.554920282    -0.441675240     0.189410005    -0.138010261
   42    31.677197078    18.962057346    34.003954333    -0.409796404     0.212553523    -0.192062249
   43    35.215007805    17.546747840    36.148345344    -0.415597724     0.214152124    -0.177249539
   44    40.155403013    14.546089229    35.431684177    -0.428499813     0.199457309    -0.163109448
   45    35.494833823    20.062796678    35.607509429    -0.404095226     0.224003819    -0.191126495
   46    38.586860233    11.741300319    32.907250774    -0.439349995     0.195667058    -0.136696685
   47    38.011324263    12.311034058    40.472015503    -0.404884174     0.223851285    -0.189629659
   48    41.216239369    13.967883926    31.393117595    -0.398290796     0.241342198    -0.181984574
   49    34.455705807    15.820042533    32.483012422     0.406675942    -0.204924575     0.206447565
   50    37.610465831    19.894128869    37.604066334    -0.392941423     0.231137792    -0.205359098
   51    40.887435935    16.327741247    31.532451219    -0.410097693     0.210421597    -0.193759217
   52    40.594888505    20.090123005    32.233629847    -0.393115307     0.226807178    -0.209806720
   53    39.864115169    14.770284624    40.156642654    -0.397535889     0.237659880    -0.188369315
   54    36.023227400    12.876993912    40.468060392    -0.394099090     0.256835472    -0.169474034
   55    34.469450546    20.545303139    33.369466926    -0.394722101     0.234901508    -0.197524034
   56    37.580592079    14.537924790    40.333519639    -0.405237443     0.225597645    -0.186784146
   57    36.470258598    16.464092494    37.963288295    -0.407786968     0.221402195    -0.186254817
   58    35.343218943    10.752224309    37.753617967    -0.396039754     0.238515681    -0.190427895
   59    36.994948984    12.231254083    38.468731679    -0.402712366     0.232075998    -0.184291838
   60    40.100254903    16.910569243    39.714352928    -0.398359811     0.232653559    -0.192825783
   61    40.265132207    12.284065578    40.617762754    -0.414561015     0.219882821    -0.172599856
   62    40.096901403    17.799976039    33.051924822    -0.412237258     0.212199033    -0.187168408
   63    33.359480706    18.333607557    40.245760779    -0.390419814     0.240207083    -0.199682064
   64    34.699440191    19.655299711    31.312579619    -0.397508764     0.225604774    -0.202704881
   65    35.826385900    14.381923627    34.159532189    -0.364829024     0.279201038    -0.197348838
   66    32.224695476    17.263671078    38.752888137    -0.386848380     0.244699603    -0.201172651
   67    39.055678942    13.292575137    38.864684241    -0.404251440     0.235031092    -0.177034344
   68    32.218719749    12.823061247    35.964052174    -0.463948976     0.172609097    -0.070409146
   21     2.889033821    26.482823979    33.908832864     0.403169375    -0.218721080     0.199036539
   22    10.221339492    21.866446433    35.948759584    -0.451112678     0.184571748    -0.111492698
   23    10.105413073    29.393772145    36.813599215    -0.399581258     0.230557990    -0.192815537
   24     5.052203647    24.281485793    37.641710636    -0.408570746     0.215596514    -0.191280132
   25     6.330862457    20.525336076    30.926726707    -0.392644879     0.236160879    -0.200145044
   26     2.890088414    21.107713958    37.463871914    -0.113394680    -0.371297975     0.315086433
   27     1.554711591    23.107972436    32.752075339    -0.407928756     0.227519317    -0.178407093
   28     8.547872309    25.546786183    31.021354203    -0.414616687     0.211846311    -0.182247479
   29     9.260502130    28.199599085    35.100869030    -0.391398245     0.237301239    -0.201235027
   30     8.030468860    29.113260466    31.797914304    -0.404592676     0.230345015    -0.182334692
   31     6.542837922    30.077011158    38.812305519    -0.397946292     0.240096233    -0.184370680
   32     8.669712810    20.727998395    38.041234021    -0.396535519     0.240163951    -0.187298850
   33     1.732936142    28.102324982    35.443451406    -0.399176846     0.238519181    -0.183756486
   34    11.330240113    23.087090943    38.161683881    -0.486197447    -0.086088259     0.078745505
   35     8.702529324    27.688735209    30.337896380    -0.406871935     0.226180348    -0.182476516
   36     8.216297693    22.675495085    35.671967088    -0.442441287     0.190939407    -0.133371100
   37     8.721857054    25.288374970    37.608678347    -0.401116113     0.227621996    -0.193116781
   38     6.806905244    26.205581740    34.307817093    -0.418508399     0.211355202    -0.173723051
   39     8.993411944    25.900922454    33.733343084    -0.426269144     0.198873950    -0.169539875
   40     3.759822376    28.919678202    36.280307984    -0.397986865     0.236505402    -0.188869398
   41     7.259194420    22.111582766    33.721285097    -0.441385092     0.189897547    -0.138268296
   42     1.543304699    28.553170232    33.170319147    -0.409493599     0.213247037    -0.191939297
   43     5.081115427    27.137860726    35.314710158    -0.415249793     0.214140099    -0.178077589
   44    10.021510635    24.137202115    34.598048992    -0.428043259     0.199598127    -0.164132740
   45     5.360941445    29.653909564    34.773874244    -0.403838846     0.223722246    -0.191996206
   46     8.452967855    21.332413205    32.073615588    -0.438991105     0.196173945    -0.137122547
   47     7.877431885    21.902146944    39.638380318    -0.404849438     0.223711488    -0.189868646
   48    11.082346991    23.558996812    30.559482409    -0.397696984     0.241389959    -0.183215709
   49     4.321813429    25.411155419    31.649377237     0.405965697    -0.211917062     0.200706281
   50     7.476573453    29.485241755    36.770431148    -0.392813486     0.230318649    -0.206520907
   51    10.753543557    25.918854133    30.698816034    -0.409640531     0.210132279    -0.195036051
   52    10.460996127    29.681235891    31.399994662    -0.392863613     0.226029855    -0.211112970
   53     9.730222790    24.361397510    39.323007468    -0.397379570     0.237298394    -0.189153244
   54     5.889335022    22.468106798    39.634425207    -0.393928249     0.256807522    -0.169913011
   55     4.335558168    30.136416025    32.535831741    -0.394393636     0.234653885    -0.198472199
   56     7.446699701    24.129037676    39.499884454    -0.405123308     0.225437281    -0.187224833
   57     6.336366220    26.055205380    37.129653110    -0.407519152     0.221291802    -0.186970798
   58     5.209326565    20.343337195    36.919982781    -0.395945183     0.238809621    -0.190256082
   59     6.861056606    21.822366969    37.635096493    -0.402574716     0.232289614    -0.184323448
   60     9.966362525    26.501682129    38.880717742    -0.398311699     0.232051903    -0.193648405
   61    10.131239829    21.875178464    39.784127569    -0.414570429     0.219679680    -0.172835754
   62     9.963009025    27.391088925    32.218289636    -0.411841347     0.211930043    -0.188341078
   63     3.225588328    27.924720443    39.412125594    -0.390298157     0.240159138    -0.199977342
   64     4.565547812    29.246412597    30.478944433    -0.397150099     0.225447119    -0.203581422
   65     5.692493522    23.973036513    33.325897004    -0.365687248     0.282009390    -0.191686047
   66     2.090803098    26.854783964    37.919252952    -0.386720882     0.244859702    -0.201222975
   67     8.921786564    22.883688023    38.031049056    -0.404113922     0.234880571    -0.177547333
   68     2.084827370    22.414174133    35.130416989    -0.465080110     0.169121601    -0.071402912
   21    12.978689771    26.627484190    34.196919733     0.402946966    -0.218305761     0.199940836
   22    20.310995441    22.011106645    36.236846454    -0.450978860     0.184767387    -0.111709807
   23    20.195069023    29.538432357    37.101686085    -0.400035398     0.230252092    -0.192238537
   24    15.141859597    24.426146005    37.929797505    -0.408637089     0.215409465    -0.191349135
   25    16.420518407    20.669996287    31.214813576    -0.392611594     0.236212691    -0.200149196
   26    12.979744364    21.252374170    37.751958784    -0.121777375    -0.372550127     0.310445928
   27    11.644367541    23.252632647    33.040162209    -0.407839058     0.227062640    -0.179192245
   28    18.637528259    25.691446394    31.309441073    -0.414748188     0.211833803    -0.181962579
   29    19.350158080    28.344259297    35.388955899    -0.391939853     0.236916895    -0.200632840
   30    18.120124810    29.257920677    32.086001173    -0.404697781     0.230333556    -0.182115784
   31    16.632493871    30.221671370    39.100392389    -0.398401524     0.239431483    -0.184251976
   32    18.759368760    20.872658606    38.329320891    -0.396461929     0.240120671    -0.187510006
   33    11.822592091    28.246985194    35.731538276    -0.399233065     0.237968297    -0.184347632
   34    21.419896063    23.231751155    38.449770751    -0.486524076    -0.083928071     0.079059484
   35    18.792185274    27.833395421    30.625983250    -0.406968226     0.226235806    -0.182192818
   36    18.305953643    22.820155296    35.960053957    -0.442352599     0.191061814    -0.133489930
   37    18.811513004    25.433035181    37.896765216    -0.401226854     0.227425442    -0.193118306
   38    16.896561194    26.350241952    34.595903963    -0.418570319     0.211253937    -0.173697041
   39    19.083067894    26.045582666    34.021429953    -0.426300700     0.198949911    -0.169371327
   40    13.849478326    29.064338413    36.568394854    -0.398177781     0.235991461    -0.189109715
   41    17.348850370    22.256242977    34.009371967    -0.441330697     0.189962406    -0.138352811
   42    11.632960649    28.697830443    33.458406017    -0.409370563     0.212695271    -0.192811991
   43    15.170771376    27.282520937    35.602797028    -0.415318656     0.213931104    -0.178168171
   44    20.111166585    24.281862326    34.886135862    -0.428028088     0.199746925    -0.163991223
   45    15.450597394    29.798569776    35.061961113    -0.404031470     0.223230431    -0.192163332
   46    18.542623805    21.477073417    32.361702458    -0.438977568     0.196203454    -0.137123665
   47    17.967087835    22.046807156    39.926467187    -0.404751103     0.223630704    -0.190173218
   48    21.172002941    23.703657023    30.847569279    -0.397737904     0.241391804    -0.183124430
   49    14.411469379    25.555815631    31.937464107     0.405303352    -0.209495514     0.204550293
   50    17.566229403    29.629901966    37.058518018    -0.393264765     0.229707783    -0.206342333
   51    20.843199506    26.063514345    30.986902903    -0.409774115     0.210187808    -0.194695299
   52    20.550652076    29.825896102    31.688081532    -0.392933338     0.226078614    -0.210930918
   53    19.819878740    24.506057722    39.611094338    -0.397553214     0.236947427    -0.189228325
   54    15.978990972    22.612767010    39.922512077    -0.393836351     0.256856132    -0.170052511
   55    14.425214118    30.281076237    32.823918611    -0.394534490     0.234205447    -0.198721778
   56    17.536355651    24.273697888    39.787971324    -0.405096291     0.225336980    -0.187403951
   57    16.426022169    26.199865592    37.417739980    -0.407578953     0.221153503    -0.187004079
   58    15.298982515    20.487997407    37.208069651    -0.395761789     0.238872945    -0.190557924
   59    16.950712556    21.967027181    37.923183363    -0.402452530     0.232276855    -0.184606132
   60    20.056018475    26.646342341    39.168804612    -0.398536808     0.231794867    -0.193493029
   61    20.220895779    22.019838675    40.072214438    -0.414481065     0.219618416    -0.173127694
   62    20.052664974    27.535749137    32.506376506    -0.412012069     0.211938981    -0.187957237
   63    13.315244278    28.069380655    39.700212464    -0.390656490     0.239329840    -0.200271651
   64    14.655203762    29.391072809    30.767031303    -0.397245452     0.224998762    -0.203891167
   65    15.782149472    24.117696725    33.613983874    -0.360367153     0.280777463    -0.203222861
   66    12.180459047    26.999444175    38.207339821    -0.386939793     0.244123265    -0.201696376
   67    19.011442514    23.028348234    38.319135926    -0.404134459     0.234713828    -0.177721011
   68    12.174483320    22.558834344    35.418503858    -0.465427473     0.167985253    -0.071820765
   21    23.068345721    26.772144402    34.485006603     0.403478331    -0.218149903     0.199037323
   22    30.400651391    22.155766857    36.524933323    -0.451922351     0.180975043    -0.114079896
   23    30.284724973    29.683092568    37.389772954    -0.399714840     0.231371449    -0.191560172
   24    25.231515547    24.570806216    38.217884375    -0.409183668     0.215427685    -0.190156878
   25    26.510174357    20.814656499    31.502900446    -0.393214972     0.235484466    -0.199822552
   26    23.069400314    21.397034382    38.040045653    -0.129777106    -0.365191894     0.315899958
   27    21.734023491    23.397292859    33.328249078    -0.407724267     0.227329801    -0.179114723
   28    28.727184209    25.836106606    31.597527943    -0.415264111     0.211606614    -0.181047946
   29    29.439814030    28.488919509    35.677042769    -0.391671033     0.237883885    -0.200012648
   30    28.209780760    29.402580889    32.374088043    -0.404972032     0.230495834    -0.181298989
   31    26.722149821    30.366331581    39.388479258    -0.398167720     0.240606095    -0.183224382
   32    28.849024710    21.017318818    38.617407761    -0.397205918     0.239587026    -0.186615958
   33    21.912248041    28.391645406    36.019625145    -0.399448955     0.238170724    -0.183617099
   34    31.509552012    23.376411367    38.737857620    -0.486258282    -0.094315667     0.068245422
   35    28.881841224    27.978055632    30.914070120    -0.407413136     0.226041706    -0.181437823
   36    28.395609592    22.964815508    36.248140827    -0.443056915     0.188593875    -0.134658531
   37    28.901168954    25.577695393    38.184852086    -0.401647662     0.227819835    -0.191774030
   38    26.986217143    26.494902164    34.883990832    -0.419059131     0.211094845    -0.172709036
   39    29.172723844    26.190242877    34.309516823    -0.426818379     0.198546245    -0.168539193
   40    23.939134276    29.208998625    36.856481724    -0.398247549     0.236542085    -0.188273025
   41    27.438506319    22.400903189    34.297458836    -0.441975131     0.187795510    -0.139250960
   42    21.722616599    28.842490655    33.746492887    -0.409662336     0.212688258    -0.192199051
   43    25.260427326    27.427181149    35.890883898    -0.415745475     0.213947184    -0.177150509
   44    30.200822534    24.426522538    35.174222731    -0.428630592     0.199121577    -0.163176018
   45    25.540253344    29.943229988    35.350047983    -0.404114418     0.223878603    -0.191232602
   46    28.632279755    21.621733629    32.649789328    -0.439616425     0.194303081    -0.137781392
   47    28.056743785    22.191467368    40.214554057    -0.405512503     0.223230057    -0.189018389
   48    31.261658891    23.848317235    31.135656149    -0.398444226     0.241120444    -0.181942657
   49    24.501125328    25.700475842    32.225550976     0.405919663    -0.207245371     0.205617566
   50    27.655885353    29.774562178    37.346604888    -0.393078996     0.230858304    -0.205410191
   51    30.932855456    26.208174556    31.274989773    -0.410242793     0.209930709    -0.193984403
   52    30.640308026    29.970556314    31.976168401    -0.393257145     0.226078123    -0.210327126
   53    29.909534690    24.650717933    39.899181208    -0.398071764     0.237474424    -0.187469380
   54    26.068646922    22.757427221    40.210598946    -0.394888533     0.256131258    -0.168700400
   55    24.514870068    30.425736449    33.112005480    -0.394533591     0.234879785    -0.197926077
   56    27.626011601    24.418358099    40.076058193    -0.405836806     0.225113940    -0.186065044
   57    26.515678119    26.344525803    37.705826849    -0.408105115     0.221182443    -0.185818573
   58    25.388638464    20.632657619    37.496156521    -0.396356607     0.238279204    -0.190064361
   59    27.040368505    22.111687393    38.211270233    -0.403135759     0.231624312    -0.183934060
   60    30.145674425    26.791002553    39.456891482    -0.398794772     0.232398963    -0.192232806
   61    30.310551729    22.164498887    40.360301308    -0.415163389     0.219119129    -0.172122536
   62    30.142320924    27.680409349    32.794463376    -0.412393569     0.211819453    -0.187254008
   63    23.404900228    28.214040866    39.988299333    -0.390554450     0.239890046    -0.199799868
   64    24.744859712    29.535733020    31.055118173    -0.397261491     0.225647590    -0.203141508
   65    25.871805421    24.262356936    33.902070743    -0.359924268     0.286845220    -0.195382551
   66    22.270114997    27.144104387    38.495426691    -0.386971606     0.244397873    -0.201302400
   67    29.101098464    23.173008446    38.607222795    -0.404800389     0.234605775    -0.176342778
   68    22.264139270    22.703494556    35.706590728    -0.465232965     0.168414193    -0.072075988
   21    33.158001671    26.916804614    34.773093473     0.403529939    -0.218265620     0.198805703
   22    40.490307341    22.300427068    36.813020193    -0.450937060     0.185340918    -0.110925704
   23    40.374380923    29.827752780    37.677859824    -0.399532750     0.231418778    -0.191882597
   24    35.321171496    24.715466428    38.505971244    -0.408713188     0.216002764    -0.190515973
   25    36.599830306    20.959316711    31.790987315    -0.393088333     0.236363886    -0.199031846
   26    33.159056263    21.541694593    38.328132523    -0.123401013    -0.383075638     0.296690488
   27    31.823679441    23.541953071    33.616335948    -0.408417432     0.227885948    -0.176814015
   28    38.816840158    25.980766818    31.885614812    -0.414775364     0.212358644    -0.181287626
   29    39.529469980    28.633579720    35.965129638    -0.391442176     0.238124488    -0.200174301
   30    38.299436709    29.547241101    32.662174913    -0.404684071     0.230907204    -0.181418484
   31    36.811805771    30.510991793    39.676566128    -0.397928438     0.240759716    -0.183542140
   32    38.938680660    21.161979030    38.905494630    -0.396774495     0.240498674    -0.186360908
   33    32.001903991    28.536305617    36.307712015    -0.399452267     0.238441696    -0.183257861
   34    41.599207962    23.521071578    39.025944490    -0.486580305    -0.083584877     0.079077021
   35    38.971497174    28.122715844    31.202156989    -0.406991390     0.226787977    -0.181453085
   36    38.485265542    23.109475720    36.536227697    -0.442428373     0.191445561    -0.132686594
   37    38.990824903    25.722355604    38.472938955    -0.401165862     0.228150396    -0.192388534
   38    37.075873093    26.639562375    35.172077702    -0.418671414     0.211678531    -0.172934804
   39    39.262379794    26.334903089    34.597603692    -0.426386830     0.199339586    -0.168694992
   40    34.028790226    29.353658837    37.144568593    -0.398192254     0.236696628    -0.188195736
   41    37.528162269    22.545563401    34.585545706    -0.441443835     0.190275507    -0.137559341
   42    31.812272549    28.987150867    34.034579756    -0.409832168     0.212820348    -0.191690097
   43    35.350083276    27.571841361    36.178970767    -0.415426029     0.214406073    -0.177345004
   44    40.290478484    24.571182750    35.462309601    -0.428129145     0.200074226    -0.163327093
   45    35.629909294    30.087890199    35.638134852    -0.404056903     0.223916935    -0.191309239
   46    38.721935704    21.766393840    32.937876197    -0.439112331     0.196480877    -0.136292427
   47    38.146399734    22.336127579    40.502640927    -0.405014871     0.224213772    -0.188920985
   48    41.351314841    23.992977447    31.423743018    -0.397921273     0.241813458    -0.182167264
   49    34.590781278    25.845136054    32.513637846     0.405551309    -0.205021974     0.208552454
   50    37.745541302    29.919222390    37.634691757    -0.392832755     0.231015254    -0.205704592
   51    41.022511406    26.352834768    31.563076642    -0.409801573     0.210694218    -0.194089198
   52    40.729963976    30.115216526    32.264255271    -0.392895476     0.226670864    -0.210365074
   53    39.999190640    24.795378145    40.187268077    -0.397535288     0.237670403    -0.188357305
   54    36.158302871    22.902087433    40.498685816    -0.394164135     0.257177500    -0.168802750
   55    34.604526017    30.570396660    33.400092350    -0.394701648     0.234677791    -0.197830593
   56    37.715667550    24.563018311    40.364145063    -0.405307552     0.225884256    -0.186284972
   57    36.605334069    26.489186015    37.993913719    -0.407634820     0.221710110    -0.186221592
   58    35.478294414    20.777317830    37.784243390    -0.396136094     0.239353473    -0.189172169
   59    37.130024455    22.256347604    38.499357102    -0.402783343     0.232693701    -0.183355447
   60    40.235330374    26.935662764    39.744978351    -0.398309260     0.232626920    -0.192962301
   61    40.400207679    22.309159099    40.648388178    -0.414708245     0.220243808    -0.171783982
   62    40.231976874    27.825069560    33.082550245    -0.411949799     0.212458018    -0.187507209
   63    33.494556177    28.358701078    40.276386203    -0.390634866     0.240383671    -0.199047963
   64    34.834515662    29.680393232    31.343205042    -0.397480851     0.225398230    -0.202989190
   65    35.961461371    24.407017148    34.190157613    -0.360748806     0.278892920    -0.205131758
   66    32.359770947    27.288764599    38.783513561    -0.387128291     0.244899715    -0.200389160
   67    39.190754413    23.317668658    38.895309665    -0.404241120     0.235317869    -0.176676589
   68    32.353795220    22.848154768    35.994677597    -0.466458030     0.163074523    -0.076312558
   21     3.024109292    36.507917500    33.939458287     0.403123292    -0.218174770     0.199728269
   22    10.356414963    31.891539954    35.979385008    -0.451327222     0.183092518    -0.113052502
   23    10.240488544    39.418865666    36.844224639    -0.399498804     0.230761932    -0.192742410
   24     5.187279118    34.306579314    37.672336059    -0.408762898     0.214989557    -0.191552562
   25     6.465937928    30.550429597    30.957352130    -0.392773094     0.235757584    -0.200368805
   26     3.025163885    31.132807479    37.494497338    -0.125009202    -0.375194527     0.305944057
   27     1.689787062    33.133065957    32.782700763    -0.407959156     0.227240665    -0.178692493
   28     8.682947780    35.571879704    31.051979627    -0.414932325     0.211180664    -0.182301653
   29     9.395577601    38.224692606    35.131494453    -0.391376547     0.237425996    -0.201130045
   30     8.165544331    39.138353987    31.828539727    -0.404671688     0.230277558    -0.182244537
   31     6.677913393    40.102104679    38.842930943    -0.397832335     0.240142367    -0.184556434
   32     8.804788281    30.753091916    38.071859445    -0.396715963     0.239648753    -0.187576437
   33     1.868011613    38.127418504    35.474076830    -0.399087302     0.238409989    -0.184092374
   34    11.465315584    33.112184464    38.192309305    -0.486454441    -0.087858503     0.075119637
   35     8.837604795    37.713828730    30.368521804    -0.407097190     0.225714763    -0.182550605
   36     8.351373164    32.700588606    35.702592511    -0.442659558     0.189672438    -0.134450298
   37     8.856932525    35.313468491    37.639303770    -0.401207670     0.227282582    -0.193326236
   38     6.941980715    36.230675261    34.338442517    -0.418735487     0.210639646    -0.174044625
   39     9.128487415    35.926015975    33.763968507    -0.426556979     0.198019001    -0.169816426
   40     3.894897847    38.944771723    36.310933408    -0.397945130     0.236399185    -0.189090187
   41     7.394269891    32.136676287    33.751910521    -0.441622611     0.188677699    -0.139176850
   42     1.678380170    38.578263753    33.200944571    -0.409359339     0.213041971    -0.192452722
   43     5.216190898    37.162954247    35.345335582    -0.415437963     0.213497586    -0.178409865
   44    10.156586106    34.162295636    34.628674415    -0.428352557     0.198631584    -0.164497966
   45     5.496016916    39.679003085    34.804499667    -0.403851713     0.223529222    -0.192193861
   46     8.588043326    31.357506726    32.104241012    -0.439267110     0.195032456    -0.137864958
   47     8.012507356    31.927240465    39.669005741    -0.404987850     0.223224657    -0.190146242
   48    11.217422462    33.584090333    30.590107833    -0.398033217     0.240559214    -0.183577839
   49     4.456888900    35.436248940    31.680002661     0.412633055    -0.195625421     0.203628723
   50     7.611648924    39.510335276    36.801056572    -0.392714651     0.230356221    -0.206666917
   51    10.888619028    35.943947654    30.729441457    -0.409917307     0.209499826    -0.195134887
   52    10.596071598    39.706329412    31.430620086    -0.392836823     0.225946838    -0.211251643
   53     9.865298261    34.386491031    39.353632892    -0.397561662     0.236907483    -0.189260587
   54     6.024410493    32.493200319    39.665050631    -0.394359767     0.256045362    -0.170062185
   55     4.470633639    40.161509546    32.566457165    -0.394376950     0.234573033    -0.198600890
   56     7.581775172    34.154131197    39.530509877    -0.405322796     0.224919884    -0.187415251
   57     6.471441691    36.080298901    37.160278534    -0.407700740     0.220713183    -0.187258636
   58     5.344402036    30.368430716    36.950608205    -0.396014099     0.238578239    -0.190402882
   59     6.996132077    31.847460490    37.665721917    -0.402730946     0.231795206    -0.184604354
   60    10.101437996    36.526775650    38.911343166    -0.398363206     0.231772461    -0.193876977
   61    10.266315300    31.900271985    39.814752992    -0.414663419     0.219210497    -0.173207986
   62    10.098084496    37.416182446    32.248915060    -0.412113465     0.211376968    -0.188367379
   63     3.360663799    37.949813964    39.442751018    -0.390189277     0.240157164    -0.200192070
   64     4.700623283    39.271506118    30.509569857    -0.397118104     0.225363693    -0.203736145
   65     5.827568993    33.998130034    33.356522428    -0.363517760     0.280610615    -0.197768857
   66     2.225878569    36.879877485    37.949878375    -0.386589402     0.244857125    -0.201478592
   67     9.056862035    32.908781544    38.061674480    -0.404313306     0.234365362    -0.177774092
   68     2.219902841    32.439267654    35.161042412    -0.465371370     0.167856102    -0.072483218
   21    13.113765242    36.652577711    34.227545157     0.403396756    -0.217595041     0.199808548
   22    20.446070912    32.036200166    36.267471877    -0.451737113     0.182638759    -0.112145730
   23    20.330144494    39.563525878    37.132311508    -0.399832965     0.230768606    -0.192040232
   24    15.276935068    34.451239526    37.960422929    -0.409329941     0.214372903    -0.191032085
   25    16.555593878    30.695089808    31.245439000    -0.392935174     0.235464248    -0.200395951
   26    13.114819835    31.277467691    37.782584207    -0.121127421    -0.372297231     0.311003087
   27    11.779443012    33.277726168    33.070787632    -0.408252501     0.226171652    -0.179377478
   28    18.772603730    35.716539915    31.340066497    -0.415124484     0.211293448    -0.181732611
   29    19.485233551    38.369352818    35.419581323    -0.391764466     0.237379869    -0.200428043
   30    18.255200281    39.283014198    32.116626597    -0.405000795     0.230018285    -0.181840438
   31    16.767569342    40.246764891    39.131017812    -0.398141891     0.240076874    -0.183973176
   32    18.894444231    30.897752128    38.359946314    -0.397206860     0.239092654    -0.187246932
   33    11.957667562    38.272078715    35.762163699    -0.399438384     0.237702374    -0.184245920
   34    21.554971534    33.256844676    38.480396174    -0.485753480    -0.090934526     0.075989922
   35    18.927260745    37.858488942    30.656608674    -0.407366406     0.225693005    -0.181976039
   36    18.441029114    32.845248818    35.990679381    -0.442952319     0.189437006    -0.133816529
   37    18.946588475    35.458128702    37.927390640    -0.401717753     0.226811503    -0.192819577
   38    17.031636665    36.375335473    34.626529386    -0.419119738     0.210340989    -0.173480010
   39    19.218143365    36.070676187    34.052055377    -0.426755536     0.198071665    -0.169255216
   40    13.984553797    39.089431934    36.599020277    -0.398334472     0.235903021    -0.188889950
   41    17.483925841    32.281336498    34.039997390    -0.441842001     0.188520552    -0.138692637
   42    11.768036120    38.722923965    33.489031441    -0.409620623     0.212264041    -0.192756121
   43    15.305846847    37.307614458    35.633422452    -0.415840653     0.213135864    -0.177903499
   44    20.246242056    34.306955847    34.916761285    -0.428495684     0.198772327    -0.163954296
   45    15.585672865    39.823663297    35.092586537    -0.404239057     0.223112853    -0.191863076
   46    18.677699276    31.502166938    32.392327882    -0.439452325     0.194881455    -0.137487718
   47    18.102163306    32.071900677    39.957092611    -0.405597327     0.222399472    -0.189813811
   48    21.307078412    33.728750544    30.878194703    -0.398183628     0.240907195    -0.182793658
   49    14.546544850    35.580909152    31.968089530     0.408977980    -0.201895364     0.204878681
   50    17.701304874    39.654995487    37.089143442    -0.393014194     0.230362033    -0.206090215
   51    20.978274977    36.088607866    31.017528327    -0.410145109     0.209596589    -0.194551431
   52    20.685727547    39.850989623    31.718706955    -0.393219494     0.225683670    -0.210820565
   53    19.954954211    34.531151243    39.641719762    -0.398083945     0.236402921    -0.188793091
   54    16.114066443    32.637860531    39.953137500    -0.394937447     0.255318068    -0.169814892
   55    14.560289589    40.306169758    32.854544034    -0.394795783     0.234056790    -0.198377693
   56    17.671431122    34.298791409    39.818596747    -0.405913424     0.224183584    -0.187018750
   57    16.561097640    36.224959113    37.448365403    -0.408251944     0.220169087    -0.186697412
   58    15.434057986    30.513090928    37.238695074    -0.396389619     0.237902683    -0.190466751
   59    17.085788027    31.992120702    37.953808787    -0.403157944     0.231176232    -0.184448425
   60    20.191093946    36.671435862    39.199430036    -0.398907344     0.231370147    -0.193237641
   61    20.355971250    32.044932196    40.102839862    -0.415291568     0.218259774    -0.172903396
   62    20.187740445    37.560842658    32.537001930    -0.412326308     0.211381135    -0.187896331
   63    13.450319749    38.094474176    39.730837887    -0.390502460     0.239488180    -0.200382735
   64    14.790279233    39.416166330    30.797656726    -0.397520842     0.224832013    -0.203538070
   65    15.917224943    34.142790246    33.644609297    -0.364008734     0.281683799    -0.195325060
   66    12.315534518    37.024537696    38.237965245    -0.386883607     0.244121887    -0.201805796
   67    19.146517985    33.053441755    38.349761349    -0.404800832     0.233876686    -0.177307591
   68    12.309558791    32.583927865    35.449129282    -0.465667235     0.166347197    -0.074044829
   21    23.203421192    36.797237923    34.515632027     0.403556640    -0.217709551     0.199360451
   22    30.535726862    32.180860378    36.555558747    -0.450528976     0.186176046    -0.111185080
   23    30.419800444    39.708186089    37.420398378    -0.400080397     0.230287115    -0.192102890
   24    25.366591018    34.595899737    38.248509798    -0.409004063     0.215561895    -0.190391035
   25    26.645249828    30.839750020    31.533525869    -0.393017007     0.236011681    -0.199589876
   26    23.204475785    31.422127903    38.070671077    -0.115668701    -0.379868764     0.303842844
   27    21.869098962    33.422386380    33.358874502    -0.408084706     0.226835080    -0.178920985
   28    28.862259680    35.861200127    31.628153366    -0.415122055     0.211641778    -0.181332395
   29    29.574889501    38.514013030    35.707668192    -0.392044249     0.236856757    -0.200499834
   30    28.344856231    39.427674410    32.404713467    -0.405036645     0.230116864    -0.181635749
   31    26.857225292    40.391425102    39.419104682    -0.398295130     0.240090631    -0.183623197
   32    28.984100181    31.042412339    38.648033184    -0.396933256     0.240213767    -0.186390279
   33    22.047323512    38.416738927    36.050250569    -0.399603629     0.237814356    -0.183742405
   34    31.644627483    33.401504888    38.768483044    -0.487049870    -0.081575274     0.078280893
   35    29.016916695    38.003149153    30.944695543    -0.407341851     0.226017542    -0.181627881
   36    28.530685063    32.989909029    36.278766251    -0.442218455     0.191826197    -0.132836547
   37    29.036244425    35.602788914    38.215477509    -0.401456361     0.227808355    -0.192187781
   38    27.121292614    36.519995685    34.914616256    -0.418946938     0.211110038    -0.172962468
   39    29.307799315    36.215336398    34.340142246    -0.426671512     0.198727511    -0.168697354
   40    24.074209747    39.234092146    36.887107147    -0.398402184     0.236080075    -0.188525590
   41    27.573581790    32.425996710    34.328084260    -0.441260538     0.190598381    -0.137700379
   42    21.857692070    38.867584176    33.777118310    -0.409855611     0.212320148    -0.192193999
   43    25.395502797    37.452274670    35.921509321    -0.415686651     0.213844082    -0.177412842
   44    30.335898005    34.451616059    35.204848155    -0.428407771     0.199491548    -0.163309228
   45    25.675328815    39.968323509    35.380673406    -0.404284840     0.223312194    -0.191534415
   46    28.767355226    31.646827150    32.680414751    -0.438971625     0.196648082    -0.136504376
   47    28.191819256    32.216560889    40.245179481    -0.405255968     0.223791498    -0.188904647
   48    31.396734362    33.873410756    31.166281572    -0.398219294     0.241348833    -0.182132190
   49    24.636200799    35.725569363    32.256176400     0.403008839    -0.206267082     0.212221033
   50    27.790960824    39.799655699    37.377230311    -0.393193316     0.230353562    -0.205757752
   51    31.067930927    36.233268077    31.305615196    -0.410118123     0.209982986    -0.194191326
   52    30.775383497    39.995649835    32.006793825    -0.393257277     0.225938253    -0.210477124
   53    30.044610161    34.675811454    39.929806631    -0.397818838     0.237341924    -0.188172749
   54    26.203722393    32.782520742    40.241224370    -0.394480621     0.256702462    -0.168786509
   55    24.649945539    40.450829970    33.142630904    -0.394921990     0.233996337    -0.198197720
   56    27.761087072    34.443451620    40.106683617    -0.405552940     0.225504210    -0.186211341
   57    26.650753590    36.369619324    37.736452273    -0.407945269     0.221237625    -0.186103656
   58    25.523713935    30.657751140    37.526781944    -0.396314387     0.238956429    -0.189300638
   59    27.175443976    32.136780914    38.241895656    -0.402944997     0.232357815    -0.183426211
   60    30.280749896    36.816096074    39.487516905    -0.398616332     0.232302400    -0.192719005
   61    30.445627200    32.189592408    40.390926731    -0.414953585     0.219809931    -0.171747246
   62    30.277396395    37.705502870    32.825088799    -0.412300957     0.211754842    -0.187530819
   63    23.539975699    38.239134387    40.018924757    -0.390875454     0.239456612    -0.199692038
   64    24.879935183    39.560826541    31.085743596    -0.397667145     0.224717197    -0.203379014
   65    26.006880893    34.287450457    33.932696167    -0.359691660     0.284189732    -0.199644950
   66    22.405190468    37.169197908    38.526052115    -0.387303459     0.243958721    -0.201196851
   67    29.236173935    33.198101967    38.637848219    -0.404465512     0.234976891    -0.176616846
   68    22.399214741    32.728588077    35.737216151    -0.466142735     0.165507494    -0.072926124
   21    33.293077142    36.941898135    34.803718896     0.403554417    -0.217857587     0.199203174
   22    40.625382812    32.325520589    36.843645616    -0.451109502     0.184486763    -0.111646099
   23    40.509456394    39.852846301    37.708485247    -0.399358546     0.231509864    -0.192135200
   24    35.456246967    34.740559949    38.536596668    -0.408693749     0.215815001    -0.190770293
   25    36.734905777    30.984410232    31.821612739    -0.392989045     0.236061154    -0.199586427
   26    33.294131734    31.566788114    38.358757946    -0.120263845    -0.372671454     0.310890005
   27    31.958754912    33.567046592    33.646961372    -0.408785275     0.226091304    -0.178261945
   28    38.951915629    36.005860339    31.916240236    -0.414712236     0.211964120    -0.181892751
   29    39.664545451    38.658673241    35.995755062    -0.391233255     0.238087546    -0.200626170
   30    38.434512180    39.572334622    32.692800336    -0.404517495     0.230737203    -0.182005328
   31    36.946881242    40.536085314    39.707191551    -0.397960196     0.240793489    -0.183428945
   32    39.073756131    31.187072551    38.936120054    -0.396668362     0.240399676    -0.186714236
   33    32.136979462    38.561399138    36.338337439    -0.399463882     0.238162872    -0.183594807
   34    41.734283433    33.546165099    39.056569913    -0.486562415    -0.086489670     0.076003637
   35    39.106572645    38.147809365    31.232782413    -0.406904255     0.226401302    -0.182130112
   36    38.620341013    33.134569241    36.566853120    -0.442512444     0.190851384    -0.133260971
   37    39.125900374    35.747449126    38.503564379    -0.401027569     0.228175033    -0.192647459
   38    37.210948564    36.664655896    35.202703125    -0.418674486     0.211440659    -0.173218135
   39    39.397455265    36.359996610    34.628229116    -0.426367836     0.198997763    -0.169145968
   40    34.163865697    39.378752358    37.175194017    -0.398114179     0.236605409    -0.188475412
   41    37.663237740    32.570656922    34.616171130    -0.441498313     0.189750801    -0.138108193
   42    31.947348020    39.012244388    34.065205180    -0.409824899     0.212576631    -0.191975854
   43    35.485158747    37.596934882    36.209596191    -0.415416610     0.214221530    -0.177589911
   44    40.425553955    34.596276271    35.492935024    -0.428145062     0.199691767    -0.163752876
   45    35.764984765    40.112983720    35.668760276    -0.404014561     0.223905669    -0.191411822
   46    38.857011175    31.791487361    32.968501621    -0.439156288     0.195989944    -0.136856482
   47    38.281475205    32.361221100    40.533266350    -0.404899419     0.224122425    -0.189276515
   48    41.486390312    34.018070968    31.454368442    -0.397906796     0.241326535    -0.182843334
   49    34.725856749    35.870229575    32.544263269     0.408894795    -0.197773503     0.209023175
   50    37.880616773    39.944315911    37.665317181    -0.392868078     0.231000532    -0.205653660
   51    41.157586877    36.377928289    31.593702066    -0.409714072     0.210301386    -0.194699015
   52    40.865039447    40.140310047    32.294880694    -0.392704975     0.226417369    -0.210992838
   53    40.134266111    34.820471666    40.217893501    -0.397353187     0.237822464    -0.188549518
   54    36.293378342    32.927180954    40.529311239    -0.394138461     0.256941202    -0.169222021
   55    34.739601488    40.595490181    33.430717773    -0.394471541     0.234816170    -0.198125137
   56    37.850743021    34.588111832    40.394770486    -0.405192589     0.225829669    -0.186600981
   57    36.740409540    36.514279536    38.024539142    -0.407616625     0.221553836    -0.186447270
   58    35.613369885    30.802411351    37.814868814    -0.396102620     0.238993111    -0.189697146
   59    37.265099926    32.281441125    38.529982526    -0.402733906     0.232450654    -0.183771854
   60    40.370405845    36.960756285    39.775603775    -0.398134380     0.232685609    -0.193252227
   61    40.535283150    32.334252620    40.679013601    -0.414530269     0.220161195    -0.172318612
   62    40.367052345    37.850163081    33.113175669    -0.411886791     0.212156472    -0.187986443
   63    33.629631649    38.383794599    40.307011627    -0.390508972     0.240172863    -0.199548837
   64    34.969591133    39.705486753    31.373830466    -0.397219264     0.225580277    -0.203298783
   65    36.096536842    34.432110669    34.220783037    -0.359757751     0.277758724    -0.208385345
   66    32.494846418    37.313858120    38.814138984    -0.386984212     0.244725872    -0.200879235
   67    39.325829884    33.342762179    38.925935088    -0.404149404     0.235267961    -0.176952664
   68    32.488870691    32.873248289    36.025303021    -0.464546574     0.170432057    -0.071759280
