CRYSTAL
PRIMVEC
    40.358642790     0.578641119     1.152348021
     0.540302138    40.100392953     0.122501752
     1.147485224     0.128543006    40.047960291
PRIMCOORD
 3072    1
   21     1.758269367     6.336229727     3.811625931    -0.412038241     0.204734102    -0.195725409
   22     9.090575037     1.719852182     5.851552651     0.457543668    -0.168591200     0.110592942
   23     8.974648619     9.247177894     6.716392283     0.408449859    -0.217903483     0.188909462
   24     3.921439192     4.134891542     7.544503703     0.417348941    -0.202061851     0.187058467
   25     5.200098002     0.378741824     0.829519774     0.402069006    -0.223047894     0.196443762
   26     1.759323959     0.961119707     7.366664982     0.104333222     0.382323927    -0.304865533
   27     0.423947137     2.961378184     2.654868407     0.416980279    -0.213925643     0.174250585
   28     7.417107854     5.400191931     0.924147271     0.423194677    -0.198248467     0.177774607
   29     8.129737675     8.053004834     5.003662097     0.400604934    -0.224738103     0.197505624
   30     6.899704405     8.966666214     1.700707371     0.413518977    -0.217141355     0.178470411
   31     5.412073467     9.930416906     8.715098586     0.406931749    -0.227646725     0.180509059
   32     7.538948355     0.581404143     7.944027089     0.405741626    -0.227178667     0.183748704
   33     0.602171687     7.955730731     5.346244474     0.408210353    -0.225096903     0.180819500
   34    10.199475658     2.940496692     8.064476948     0.483353083     0.104419489    -0.073934889
   35     7.571764870     7.542140958     0.240689448     0.415855633    -0.212880548     0.178173972
   36     7.085533238     2.528900833     5.574760155     0.449301807    -0.175562006     0.131551772
   37     7.591092599     5.141780718     7.511471414     0.410047877    -0.214525780     0.189313043
   38     5.676140789     6.058987489     4.210610160     0.426766972    -0.197264202     0.170166936
   39     7.862647489     5.754328203     3.636136151     0.434130610    -0.184797900     0.165470087
   40     2.629057922     8.773083950     6.183101052     0.407066996    -0.223535667     0.185278887
   41     6.128429965     1.964988514     3.624078165     0.448380696    -0.174650901     0.135837456
   42     0.412540245     8.406575980     3.073112215     0.417936693    -0.199423726     0.188571202
   43     3.950350972     6.991266474     5.217503226     0.423639079    -0.200152775     0.174553135
   44     8.890746180     3.990607863     4.500842059     0.435851720    -0.185386185     0.160203748
   45     4.230176990     9.507315313     4.676667311     0.412548133    -0.210486476     0.188413061
   46     7.322203400     1.185818954     1.976408656     0.446284312    -0.181169381     0.134193771
   47     6.746667430     1.755552693     9.541173385     0.413607219    -0.210430685     0.186139720
   48     9.951582536     3.412402560     0.462275477     0.407152579    -0.228207854     0.179298502
   49     3.191048974     5.264561167     1.552170305    -0.417705982     0.182670240    -0.205312678
   50     6.345808998     9.338647503     6.673224216     0.401929182    -0.217872359     0.202446456
   51     9.622779102     5.772259882     0.601609101     0.418313755    -0.196563951     0.190725497
   52     9.330231672     9.534641639     1.302787729     0.401903728    -0.213144520     0.207467604
   53     8.599458335     4.214803259     9.225800536     0.406646258    -0.224419925     0.185133784
   54     4.758570567     2.321512547     9.537218274     0.403512755    -0.243643534     0.166779151
   55     3.204793713     9.989821774     2.438624809     0.403564600    -0.221592057     0.195019420
   56     6.315935246     3.982443425     9.402677521     0.413987570    -0.212175893     0.183291249
   57     5.205601765     5.908611129     7.032446177     0.416326371    -0.207755192     0.183057731
   58     4.078562110     0.196742944     6.822775849     0.405017859    -0.225924521     0.186865311
   59     5.730292151     1.675772718     7.537889561     0.411394110    -0.219024400     0.181061312
   60     8.835598070     6.355087878     8.783510810     0.407373950    -0.219189280     0.189743312
   61     9.000475374     1.728584212     9.686920636     0.422831470    -0.205982465     0.169660755
   62     8.832244570     7.244494674     2.121082704     0.420395240    -0.198396570     0.184137566
   63     2.094823873     7.778126192     9.314918662     0.399573448    -0.227128720     0.196859351
   64     3.434783357     9.099818346     0.381737501     0.406137533    -0.212210459     0.200047557
   65     4.561729067     3.826442261     3.228690072     0.375742503    -0.267898461     0.192478534
   66     0.960038643     6.708189712     7.822046019     0.396166967    -0.231763462     0.198336664
   67     7.791022109     2.737093771     7.933842124     0.413153947    -0.221775693     0.173549296
   68     0.954062916     2.267579881     5.033210056     0.471030728    -0.151165764     0.072656483
   21    11.847925316     6.480889939     4.099712801    -0.412029022     0.204743552    -0.195734930
   22    19.180230987     1.864512394     6.139639521     0.457543683    -0.168576940     0.110614619
   23    19.064304568     9.391838105     7.004479152     0.408460481    -0.217882793     0.188910360
   24    14.011095142     4.279551753     7.832590573     0.417344086    -0.202078534     0.187051277
   25    15.289753952     0.523402036     1.117606644     0.402067173    -0.223059669     0.196434143
   26    11.848979909     1.105779919     7.654751851     0.104213909     0.382392322    -0.304820559
   27    10.513603086     3.106038396     2.942955276     0.416988566    -0.213913684     0.174245434
   28    17.506763804     5.544852143     1.212234141     0.423190725    -0.198251595     0.177780525
   29    18.219393625     8.197665046     5.291748967     0.400618151    -0.224713486     0.197506826
   30    16.989360355     9.111326426     1.988794241     0.413520212    -0.217133477     0.178477133
   31    15.501729417    10.075077118     9.003185456     0.406937357    -0.227639058     0.180506085
   32    17.628604305     0.726064355     8.232113958     0.405741228    -0.227188033     0.183738002
   33    10.691827637     8.100390943     5.634331343     0.408210813    -0.225092623     0.180823791
   34    20.289131608     3.085156904     8.352563818     0.483354743     0.104484519    -0.073832088
   35    17.661420819     7.686801169     0.528776317     0.415854264    -0.212881729     0.178175758
   36    17.175189188     2.673561045     5.862847025     0.449299193    -0.175560650     0.131562507
   37    17.680748549     5.286440930     7.799558284     0.410043464    -0.214539228     0.189307362
   38    15.765796739     6.203647701     4.498697030     0.426763057    -0.197274484     0.170164835
   39    17.952303439     5.898988414     3.924223021     0.434124682    -0.184811225     0.165470758
   40    12.718713871     8.917744162     6.471187921     0.407069257    -0.223529449     0.185281423
   41    16.218085915     2.109648726     3.912165034     0.448377738    -0.174652725     0.135844875
   42    10.502196194     8.551236192     3.361199084     0.417934681    -0.199420871     0.188578681
   43    14.040006922     7.135926686     5.505590095     0.423636529    -0.200160272     0.174550729
   44    18.980402130     4.135268075     4.788928929     0.435843748    -0.185404280     0.160204496
   45    14.319832940     9.651975525     4.964754181     0.412551233    -0.210482045     0.188411223
   46    17.411859350     1.330479165     2.264495525     0.446280957    -0.181173608     0.134199222
   47    16.836323380     1.900212905     9.829260255     0.413606222    -0.210437470     0.186134265
   48    20.041238486     3.557062772     0.750362347     0.407148181    -0.228213564     0.179301221
   49    13.280704924     5.409221379     1.840257174    -0.417490962     0.182889265    -0.205554892
   50    16.435464948     9.483307715     6.961311085     0.401934522    -0.217864663     0.202444138
   51    19.712435052     5.916920093     0.889695971     0.418311191    -0.196566809     0.190728175
   52    19.419887622     9.679301851     1.590874599     0.401900927    -0.213140208     0.207477460
   53    18.689114285     4.359463470     9.513887405     0.406642845    -0.224433309     0.185125056
   54    14.848226517     2.466172758     9.825305144     0.403510663    -0.243659375     0.166761068
   55    13.294449663    10.134481985     2.726711678     0.403569229    -0.221581467     0.195021872
   56    16.405591196     4.127103636     9.690764391     0.413984942    -0.212190352     0.183280447
   57    15.295257715     6.053271340     7.320533047     0.416322276    -0.207769209     0.183051136
   58    14.168218060     0.341403156     7.110862718     0.405017512    -0.225937556     0.186850304
   59    15.819948101     1.820432930     7.825976431     0.411392850    -0.219037786     0.181047980
   60    18.925254020     6.499748089     9.071597680     0.407369331    -0.219199436     0.189741496
   61    19.090131324     1.873244424     9.975007506     0.422829819    -0.205986498     0.169659974
   62    18.921900520     7.389154886     2.409169573     0.420391808    -0.198399629     0.184142105
   63    12.184479823     7.922786403     9.603005531     0.399577514    -0.227112615     0.196869679
   64    13.524439307     9.244478557     0.669824370     0.406141447    -0.212198611     0.200052179
   65    14.651385017     3.971102473     3.516776941     0.376308929    -0.267473169     0.191962741
   66    11.049694593     6.852849924     8.110132889     0.396170821    -0.231748911     0.198345969
   67    17.880678059     2.881753983     8.221928993     0.413151442    -0.221787133     0.173540640
   68    11.043718865     2.412240093     5.321296926     0.471028084    -0.151153592     0.072698937
   21    21.937581266     6.625550151     4.387799670    -0.412022144     0.204747290    -0.195745497
   22    29.269886936     2.009172605     6.427726391     0.457545886    -0.168576235     0.110606580
   23    29.153960518     9.536498317     7.292566022     0.408438580    -0.217921366     0.188913220
   24    24.100751092     4.424211965     8.120677442     0.417339967    -0.202082425     0.187056264
   25    25.379409902     0.668062247     1.405693513     0.402073035    -0.223054643     0.196427852
   26    21.938635859     1.250440130     7.942838721     0.104442663     0.382391287    -0.304743554
   27    20.603259036     3.250698608     3.231042146     0.416970534    -0.213957923     0.174234270
   28    27.596419754     5.689512354     1.500321010     0.423186962    -0.198257536     0.177782858
   29    28.309049575     8.342325257     5.579835836     0.400593182    -0.224754214     0.197511128
   30    27.079016305     9.255986637     2.276881110     0.413509769    -0.217153549     0.178476910
   31    25.591385366    10.219737330     9.291272326     0.406918908    -0.227666718     0.180512792
   32    27.718260255     0.870724567     8.520200828     0.405740422    -0.227190904     0.183736233
   33    20.781483586     8.245051154     5.922418213     0.408202110    -0.225104513     0.180828637
   34    30.378787558     3.229817115     8.640650688     0.483348127     0.104513735    -0.073834054
   35    27.751076769     7.831461381     0.816863187     0.415848097    -0.212891361     0.178178642
   36    27.264845138     2.818221257     6.150933894     0.449301283    -0.175559976     0.131556268
   37    27.770404499     5.431101141     8.087645153     0.410036185    -0.214551636     0.189309066
   38    25.855452689     6.348307912     4.786783900     0.426758199    -0.197281190     0.170169245
   39    28.041959389     6.043648626     4.212309890     0.434122770    -0.184813563     0.165473163
   40    22.808369821     9.062404373     6.759274791     0.407055664    -0.223549070     0.185287615
   41    26.307741865     2.254308937     4.200251904     0.448380260    -0.174652245     0.135837167
   42    20.591852144     8.695896404     3.649285954     0.417931907    -0.199424141     0.188581371
   43    24.129662871     7.280586898     5.793676965     0.423630077    -0.200168969     0.174556414
   44    29.070058080     4.279928286     5.077015799     0.435844563    -0.185400283     0.160206902
   45    24.409488889     9.796635736     5.252841050     0.412538375    -0.210501398     0.188417757
   46    27.501515300     1.475139377     2.552582395     0.446283897    -0.181172926     0.134190365
   47    26.925979330     2.044873116    10.117347125     0.413603188    -0.210442712     0.186135079
   48    30.130894436     3.701722983     1.038449216     0.407148615    -0.228206370     0.179309393
   49    23.370360874     5.553881591     2.128344044    -0.417412361     0.182652923    -0.205924333
   50    26.525120898     9.627967926     7.249397955     0.401913837    -0.217894077     0.202453548
   51    29.802091001     6.061580305     1.177782840     0.418306491    -0.196574767     0.190730283
   52    29.509543571     9.823962063     1.878961469     0.401890121    -0.213159945     0.207478116
   53    28.778770235     4.504123682     9.801974275     0.406635475    -0.224446843     0.185124837
   54    24.937882467     2.610832970    10.113392014     0.403509593    -0.243660212     0.166762434
   55    23.384105613    10.279142197     3.014798548     0.403557882    -0.221597743     0.195026859
   56    26.495247146     4.271763848     9.978851261     0.413981632    -0.212194988     0.183282556
   57    25.384913664     6.197931552     7.608619917     0.416316822    -0.207775640     0.183056241
   58    24.257874010     0.486063367     7.398949588     0.405015580    -0.225941818     0.186849337
   59    25.909604051     1.965093141     8.114063300     0.411391294    -0.219040883     0.181047769
   60    29.014909970     6.644408301     9.359684549     0.407360792    -0.219216994     0.189739545
   61    29.179787274     2.017904635    10.263094375     0.422826602    -0.205992163     0.169661113
   62    29.011556469     7.533815097     2.697256443     0.420386535    -0.198410604     0.184142319
   63    22.274135773     8.067446615     9.891092401     0.399564890    -0.227134551     0.196869993
   64    23.614095257     9.389138769     0.957911240     0.406130022    -0.212215817     0.200057122
   65    24.741040967     4.115762685     3.804863811     0.376039506    -0.267850559     0.191964497
   66    21.139350542     6.997510135     8.398219758     0.396160298    -0.231767246     0.198345561
   67    27.970334009     3.026414194     8.510015863     0.413148777    -0.221793507     0.173538838
   68    21.133374815     2.556900304     5.609383795     0.471032220    -0.151122469     0.072736833
   21    32.027237216     6.770210362     4.675886540    -0.412025963     0.204757519    -0.195726759
   22    39.359542886     2.153832817     6.715813260     0.457547832    -0.168602438     0.110558581
   23    39.243616468     9.681158529     7.580652891     0.408451729    -0.217907257     0.188901066
   24    34.190407042     4.568872177     8.408764312     0.417348500    -0.202074593     0.187045687
   25    35.469065852     0.812722459     1.693780383     0.402075741    -0.223050449     0.196427075
   26    32.028291809     1.395100342     8.230925590     0.104256848     0.382552982    -0.304604211
   27    30.692914986     3.395358819     3.519129016     0.416976769    -0.213940865     0.174240295
   28    37.686075704     5.834172566     1.788407880     0.423195895    -0.198253459     0.177766139
   29    38.398705525     8.486985469     5.867922706     0.400609023    -0.224738652     0.197496707
   30    37.168672255     9.400646849     2.564967980     0.413519966    -0.217147854     0.178460212
   31    35.681041316    10.364397541     9.579359195     0.406930419    -0.227648721     0.180509540
   32    37.807916205     1.015384778     8.808287698     0.405746822    -0.227183341     0.183731451
   33    30.871139536     8.389711366     6.210505082     0.408202021    -0.225108507     0.180823863
   34    40.468443507     3.374477327     8.928737557     0.483346209     0.104410978    -0.073991826
   35    37.840732719     7.976121592     1.104950057     0.415856968    -0.212887009     0.178163138
   36    37.354501087     2.962881468     6.439020764     0.449305927    -0.175571493     0.131525035
   37    37.860060449     5.575761353     8.375732023     0.410047059    -0.214537265     0.189301801
   38    35.945108638     6.492968124     5.074870769     0.426765777    -0.197273315     0.170159369
   39    38.131615339     6.188308837     4.500396760     0.434129833    -0.184807845     0.165461016
   40    32.898025771     9.207064585     7.047361661     0.407062593    -0.223542447     0.185280382
   41    36.397397814     2.398969149     4.488338774     0.448384571    -0.174662523     0.135809718
   42    30.681508094     8.840556615     3.937372824     0.417926510    -0.199436082     0.188580702
   43    34.219318821     7.425247109     6.081763835     0.423637730    -0.200161082     0.174546884
   44    39.159714029     4.424588498     5.365102668     0.435849821    -0.185397703     0.160195586
   45    34.499144839     9.941295948     5.540927920     0.412546573    -0.210491228     0.188411167
   46    37.591171250     1.619799589     2.840669265     0.446287492    -0.181181080     0.134167397
   47    37.015635280     2.189533328    10.405433994     0.413610779    -0.210430230     0.186132323
   48    40.220550386     3.846383195     1.326536086     0.407153164    -0.228209525     0.179295047
   49    33.460016823     5.698541802     2.416430913    -0.417572159     0.182991278    -0.205299012
   50    36.614776848     9.772628138     7.537484825     0.401926765    -0.217876079     0.202447252
   51    39.891746951     6.206240517     1.465869710     0.418315208    -0.196569991     0.190716086
   52    39.599199521     9.968622274     2.167048338     0.401905155    -0.213151980     0.207457175
   53    38.868426185     4.648783894    10.090061145     0.406645184    -0.224430371     0.185123481
   54    35.027538417     2.755493182    10.401478883     0.403517415    -0.243647977     0.166761383
   55    33.473761563    10.423802409     3.302885417     0.403564773    -0.221592332     0.195018748
   56    36.584903096     4.416424060    10.266938130     0.413989532    -0.212184366     0.183277009
   57    35.474569614     6.342591764     7.896706786     0.416326181    -0.207766206     0.183045662
   58    34.347529959     0.630723579     7.687036458     0.405022850    -0.225936235     0.186840329
   59    35.999260000     2.109753353     8.402150170     0.411397969    -0.219035637     0.181038948
   60    39.104565920     6.789068513     9.647771419     0.407372324    -0.219201785     0.189732358
   61    39.269443224     2.162564847    10.551181245     0.422835707    -0.205976654     0.169657252
   62    39.101212419     7.678475309     2.985343313     0.420396145    -0.198402688     0.184128909
   63    32.363791723     8.212106827    10.179179270     0.399565120    -0.227136904     0.196866812
   64    33.703751207     9.533798980     1.245998110     0.406137049    -0.212209911     0.200049123
   65    34.830696916     4.260422896     4.092950681     0.376313658    -0.267558469     0.191834554
   66    31.229006492     7.142170347     8.686306628     0.396157285    -0.231774200     0.198343453
   67    38.059989959     3.171074406     8.798102732     0.413156601    -0.221780999     0.173536196
   68    31.223030765     2.701560516     5.897470665     0.471034390    -0.151119810     0.072728305
   21     1.893344838    16.361323248     3.842251355    -0.412031250     0.204735797    -0.195738353
   22     9.225650508    11.744945703     5.882178075     0.457540586    -0.168568083     0.110640922
   23     9.109724090    19.272271415     6.747017706     0.408449613    -0.217906017     0.188907071
   24     4.056514663    14.159985063     7.575129127     0.417350785    -0.202066707     0.187049107
   25     5.335173473    10.403835345     0.860145198     0.402072659    -0.223049430     0.196434540
   26     1.894399430    10.986213228     7.397290405     0.104507068     0.382261853    -0.304883828
   27     0.559022608    12.986471705     2.685493830     0.416983580    -0.213904758     0.174268323
   28     7.552183325    15.425285452     0.954772694     0.423190142    -0.198247769     0.177786179
   29     8.264813147    18.078098355     5.034287521     0.400603788    -0.224736658     0.197509593
   30     7.034779876    18.991759735     1.731332795     0.413517262    -0.217141793     0.178473851
   31     5.547148938    19.955510427     8.745724010     0.406932548    -0.227652927     0.180499436
   32     7.674023826    10.606497664     7.974652512     0.405747281    -0.227179254     0.183735490
   33     0.737247158    17.980824252     5.376869897     0.408210623    -0.225089426     0.180828200
   34    10.334551129    12.965590213     8.095102372     0.483362391     0.104524140    -0.073725862
   35     7.706840341    17.567234479     0.271314871     0.415852734    -0.212881618     0.178179462
   36     7.220608709    12.553994354     5.605385579     0.449298481    -0.175552756     0.131575472
   37     7.726168070    15.166874239     7.542096838     0.410049083    -0.214535897     0.189298966
   38     5.811216260    16.084081010     4.241235584     0.426767382    -0.197264858     0.170165147
   39     7.997722960    15.779421724     3.666761575     0.434128204    -0.184802179     0.165471621
   40     2.764133393    18.798177471     6.213726475     0.407065916    -0.223534898     0.185282188
   41     6.263505436    11.990082035     3.654703588     0.448377457    -0.174647080     0.135853059
   42     0.547615716    18.431669501     3.103737638     0.417934038    -0.199415206     0.188586096
   43     4.085426443    17.016359995     5.248128649     0.423639546    -0.200153361     0.174551332
   44     9.025821651    14.015701384     4.531467483     0.435849284    -0.185391508     0.160204215
   45     4.365252461    19.532408834     4.707292735     0.412547805    -0.210488872     0.188411102
   46     7.457278871    11.210912475     2.007034079     0.446282285    -0.181166795     0.134204002
   47     6.881742901    11.780646214     9.571798809     0.413613091    -0.210433084     0.186123958
   48    10.086658007    13.437496081     0.492900900     0.407152052    -0.228197485     0.179312896
   49     3.326124445    15.289654688     1.582795728    -0.417592775     0.182801596    -0.205426022
   50     6.480884469    19.363741024     6.703849639     0.401928007    -0.217879438     0.202441171
   51     9.757854573    15.797353403     0.632234525     0.418310576    -0.196564851     0.190731542
   52     9.465307143    19.559735160     1.333413153     0.401897602    -0.213147038     0.207476884
   53     8.734533807    14.239896780     9.256425959     0.406648693    -0.224432325     0.185113403
   54     4.893646038    12.346606068     9.567843698     0.403519735    -0.243644693     0.166760568
   55     3.339869184    20.014915295     2.469250232     0.403562687    -0.221593279     0.195021990
   56     6.451010717    14.007536946     9.433302945     0.413992827    -0.212180442     0.183274110
   57     5.340677236    15.933704650     7.063071601     0.416328160    -0.207759315     0.183048982
   58     4.213637581    10.221836465     6.853401272     0.405022218    -0.225925129     0.186855127
   59     5.865367622    11.700866239     7.568514984     0.411398015    -0.219025374     0.181051260
   60     8.970673541    16.380181399     8.814136233     0.407374214    -0.219199981     0.189730383
   61     9.135550845    11.753677733     9.717546060     0.422834863    -0.205985546     0.169648559
   62     8.967320041    17.269588195     2.151708127     0.420391511    -0.198399973     0.184142413
   63     2.229899344    17.803219713     9.345544085     0.399578694    -0.227114628     0.196864961
   64     3.569858828    19.124911867     0.412362924     0.406133717    -0.212212368     0.200053281
   65     4.696804538    13.851535782     3.259315495     0.376007059    -0.267830629     0.192055841
   66     1.095114114    16.733283233     7.852671443     0.396171080    -0.231750840     0.198343195
   67     7.926097580    12.762187292     7.964467547     0.413157102    -0.221783777     0.173531453
   68     1.089138387    12.292673402     5.063835480     0.471023392    -0.151181879     0.072670514
   21    11.983000787    16.505983460     4.130338224    -0.412013500     0.204761352    -0.195748985
   22    19.315306458    11.889605915     6.170264945     0.457571842    -0.168484028     0.110639695
   23    19.199380039    19.416931626     7.035104576     0.408438782    -0.217923131     0.188910748
   24    14.146170613    14.304645274     7.863215996     0.417349062    -0.202068777     0.187050716
   25    15.424829423    10.548495557     1.148232067     0.402077404    -0.223036845     0.196439118
   26    11.984055380    11.130873440     7.685377275     0.104283441     0.382657785    -0.304463435
   27    10.648678557    13.131131917     2.973580700     0.416991401    -0.213929590     0.174219120
   28    17.641839275    15.569945664     1.242859564     0.423189078    -0.198262659     0.177772107
   29    18.354469096    18.222758567     5.322374390     0.400595148    -0.224752884     0.197508654
   30    17.124435826    19.136419947     2.019419664     0.413511835    -0.217154214     0.178471314
   31    15.636804888    20.100170639     9.033810880     0.406923993    -0.227661699     0.180507658
   32    17.763679776    10.751157876     8.262739382     0.405755024    -0.227164669     0.183736426
   33    10.826903108    18.125484464     5.664956767     0.408202282    -0.225106586     0.180825668
   34    20.424207079    13.110250425     8.383189242     0.483313187     0.104758162    -0.073716287
   35    17.796496290    17.711894690     0.559401741     0.415849512    -0.212892751     0.178173679
   36    17.310264659    12.698654566     5.893472448     0.449317057    -0.175503232     0.131578105
   37    17.815824020    15.311534451     7.830183707     0.410047510    -0.214534888     0.189303517
   38    15.900872210    16.228741222     4.529322454     0.426761233    -0.197278037     0.170165290
   39    18.087378910    15.924081935     3.954848444     0.434124511    -0.184812839     0.165469404
   40    12.853789342    18.942837683     6.501813345     0.407058795    -0.223547374     0.185282782
   41    16.353161386    12.134742247     3.942790458     0.448393847    -0.174602126     0.135856746
   42    10.637271665    18.576329713     3.391824508     0.417928847    -0.199428284     0.188583769
   43    14.175082393    17.161020207     5.536215519     0.423633009    -0.200166058     0.174552636
   44    19.115477601    14.160361596     4.819554353     0.435846729    -0.185399795     0.160201575
   45    14.454908411    19.677069046     4.995379604     0.412541141    -0.210498166     0.188415310
   46    17.546934821    11.355572686     2.295120949     0.446295801    -0.181129253     0.134209731
   47    16.971398851    11.925306426     9.859885678     0.413618846    -0.210409414     0.186137930
   48    20.176313957    13.582156293     0.780987770     0.407151958    -0.228217202     0.179288013
   49    13.415780395    15.434314900     1.870882598    -0.417162008     0.183131275    -0.206006784
   50    16.570540419    19.508401236     6.991936509     0.401920789    -0.217887573     0.202446745
   51    19.847510523    15.942013614     0.920321394     0.418307998    -0.196575853     0.190725857
   52    19.554963093    19.704395372     1.621500023     0.401896206    -0.213154725     0.207471691
   53    18.824189756    14.384556991     9.544512829     0.406648149    -0.224431358     0.185115770
   54    14.983301988    12.491266279     9.855930568     0.403524920    -0.243634885     0.166762351
   55    13.429525134    20.159575507     2.757337102     0.403556782    -0.221597409     0.195029515
   56    16.540666667    14.152197157     9.721389815     0.413994878    -0.212171807     0.183279473
   57    15.430333186    16.078364861     7.351158471     0.416325091    -0.207763694     0.183050994
   58    14.303293531    10.366496677     7.141488142     0.405028499    -0.225925048     0.186841612
   59    15.955023572    11.845526451     7.856601854     0.411404271    -0.219018826     0.181044967
   60    19.060329491    16.524841611     9.102223103     0.407370061    -0.219202822     0.189736018
   61    19.225206795    11.898337945    10.005632929     0.422842072    -0.205952752     0.169670404
   62    19.056975991    17.414248407     2.439794997     0.420388747    -0.198409706     0.184138237
   63    12.319555294    17.947879924     9.633630955     0.399573451    -0.227127561     0.196860682
   64    13.659514778    19.269572078     0.700449794     0.406128597    -0.212214580     0.200061327
   65    14.786460488    13.996195994     3.547402365     0.376215481    -0.267449890     0.192178220
   66    11.184770064    16.877943445     8.140758312     0.396166930    -0.231763547     0.198336636
   67    18.015753530    12.906847504     8.252554417     0.413162870    -0.221769141     0.173536425
   68    11.178794336    12.437333614     5.351922349     0.471028272    -0.151113067     0.072781920
   21    22.072656737    16.650643672     4.418425094    -0.412022454     0.204753652    -0.195738191
   22    29.404962407    12.034266126     6.458351814     0.457532038    -0.168603315     0.110622588
   23    29.289035989    19.561591838     7.323191445     0.408444210    -0.217901883     0.188923522
   24    24.235826563    14.449305486     8.151302866     0.417334631    -0.202084920     0.187065473
   25    25.514485373    10.693155768     1.436318937     0.402065602    -0.223060752     0.196436129
   26    22.073711330    11.275533651     7.973464144     0.104114442     0.382653446    -0.304526720
   27    20.738334507    13.275792129     3.261667569     0.416967376    -0.213979756     0.174215015
   28    27.731495225    15.714605876     1.530946434     0.423184257    -0.198259233     0.177787403
   29    28.444125046    18.367418778     5.610461260     0.400597665    -0.224737096     0.197521513
   30    27.214091776    19.281080158     2.307506534     0.413513669    -0.217142649     0.178481134
   31    25.726460837    20.244830851     9.321897749     0.406920260    -0.227659309     0.180519089
   32    27.853335726    10.895818088     8.550826252     0.405733285    -0.227197272     0.183744118
   33    20.916559057    18.270144675     5.953043636     0.408199820    -0.225107270     0.180830374
   34    30.513863029    13.254910636     8.671276111     0.483369458     0.104411814    -0.073838608
   35    27.886152240    17.856554902     0.847488611     0.415848219    -0.212888481     0.178181799
   36    27.399920609    12.843314778     6.181559318     0.449289033    -0.175579918     0.131571490
   37    27.905479970    15.456194662     8.118270577     0.410033338    -0.214549772     0.189317344
   38    25.990528160    16.373401433     4.817409323     0.426752727    -0.197285476     0.170177999
   39    28.177034860    16.068742147     4.242935314     0.434117752    -0.184817627     0.165481789
   40    22.943445292    19.087497894     6.789900215     0.407055057    -0.223547527     0.185290809
   41    26.442817336    12.279402459     4.230877327     0.448368560    -0.174668848     0.135854435
   42    20.726927615    18.720989925     3.679911378     0.417926396    -0.199433938     0.188583223
   43    24.264738342    17.305680419     5.824302389     0.423625174    -0.200172668     0.174564071
   44    29.205133551    14.305021807     5.107641222     0.435836642    -0.185410427     0.160216713
   45    24.544564360    19.821729257     5.283466474     0.412537914    -0.210497726     0.188422867
   46    27.636590771    11.500232898     2.583207819     0.446273678    -0.181184632     0.134208545
   47    27.061054801    12.069966637    10.147972548     0.413596167    -0.210450367     0.186142027
   48    30.265969907    13.726816504     1.069074640     0.407141732    -0.228221460     0.179305815
   49    23.505436345    15.578975112     2.158969467    -0.417522714     0.182805718    -0.205564716
   50    26.660196369    19.653061447     7.280023379     0.401916418    -0.217885185     0.202457993
   51    29.937166472    16.086673826     1.208408264     0.418304467    -0.196574050     0.190735460
   52    29.644619042    19.849055584     1.909586892     0.401896342    -0.213149715     0.207476576
   53    28.913845706    14.529217203     9.832599699     0.406631238    -0.224445791     0.185135420
   54    25.072957938    12.635926491    10.144017437     0.403500275    -0.243667188     0.166774787
   55    23.519181084    20.304235718     3.045423971     0.403557991    -0.221592994     0.195032030
   56    26.630322617    14.296857369    10.009476684     0.413974691    -0.212200820     0.183291480
   57    25.519989135    16.223025073     7.639245340     0.416311787    -0.207777809     0.183065230
   58    24.392949481    10.511156888     7.429575012     0.405011886    -0.225948817     0.186848882
   59    26.044679522    11.990186662     8.144688724     0.411385799    -0.219047490     0.181052261
   60    29.149985441    16.669501822     9.390309973     0.407359703    -0.219211680     0.189748023
   61    29.314862745    12.042998156    10.293719799     0.422819551    -0.206001972     0.169666775
   62    29.146631940    17.558908618     2.727881867     0.420384724    -0.198406745     0.184150610
   63    22.409211244    18.092540136     9.921717824     0.399564087    -0.227133457     0.196872887
   64    23.749170728    19.414232290     0.988536664     0.406131294    -0.212209469     0.200061274
   65    24.876116438    14.140856206     3.835489234     0.375967847    -0.267867325     0.192081426
   66    21.274426013    17.022603656     8.428845182     0.396160198    -0.231767627     0.198345317
   67    28.105409480    13.051507715     8.540641286     0.413140853    -0.221798466     0.173551364
   68    21.268450286    12.581993825     5.640009219     0.471067806    -0.150989726     0.072782032
   21    32.162312687    16.795303883     4.706511964    -0.412021984     0.204748161    -0.195744924
   22    39.494618357    12.178926338     6.746438684     0.457539830    -0.168614657     0.110573058
   23    39.378691939    19.706252050     7.611278315     0.408454843    -0.217886408     0.188918381
   24    34.325482513    14.593965698     8.439389735     0.417347567    -0.202066168     0.187056868
   25    35.604141323    10.837815980     1.724405806     0.402074521    -0.223056251     0.196422983
   26    32.163367280    11.420193863     8.261551014     0.104563541     0.382382478    -0.304713154
   27    30.827990457    13.420452340     3.549754439     0.416968933    -0.213949073     0.174248969
   28    37.821151175    15.859266087     1.819033303     0.423191109    -0.198245513     0.177786394
   29    38.533780996    18.512078990     5.898548129     0.400607656    -0.224720931     0.197519643
   30    37.303747726    19.425740370     2.595593404     0.413515966    -0.217135855     0.178484079
   31    35.816116787    20.389491062     9.609984619     0.406934285    -0.227641994     0.180509308
   32    37.942991676    11.040478299     8.838913121     0.405747086    -0.227177414     0.183738196
   33    31.006215007    18.414804887     6.241130506     0.408202706    -0.225098473     0.180834810
   34    40.603518978    13.399570848     8.959362981     0.483353716     0.104379580    -0.073987084
   35    37.975808190    18.001215114     1.135575480     0.415852912    -0.212879325     0.178181786
   36    37.489576558    12.987974989     6.469646188     0.449299353    -0.175578365     0.131538319
   37    37.995135920    15.600854874     8.406357446     0.410048002    -0.214527644     0.189310660
   38    36.080184109    16.518061645     5.105496193     0.426763904    -0.197265590     0.170173022
   39    38.266690810    16.213402359     4.531022183     0.434127020    -0.184799312     0.165477927
   40    33.033101242    19.232158106     7.077987084     0.407062033    -0.223534267     0.185291480
   41    36.532473285    12.424062670     4.518964197     0.448379934    -0.174665515     0.135821179
   42    30.816583565    18.865650136     3.967998247     0.417926168    -0.199426953     0.188591115
   43    34.354394292    17.450340630     6.112389258     0.423635396    -0.200154831     0.174559718
   44    39.294789500    14.449682019     5.395728092     0.435847459    -0.185389057     0.160212015
   45    34.634220310    19.966389469     5.571553343     0.412544339    -0.210486642     0.188421183
   46    37.726246721    11.644893110     2.871294688     0.446284497    -0.181181550     0.134176726
   47    37.150710751    12.214626849    10.436059418     0.413611123    -0.210424274     0.186138292
   48    40.355625857    13.871476716     1.357161509     0.407151088    -0.228198057     0.179314357
   49    33.595092294    15.723635323     2.447056337    -0.417567847     0.182808942    -0.205470154
   50    36.749852319    19.797721659     7.568110248     0.401930331    -0.217867587     0.202449310
   51    40.026822422    16.231334038     1.496495133     0.418311093    -0.196561393     0.190733972
   52    39.734274992    19.993715795     2.197673762     0.401895583    -0.213143629     0.207484298
   53    39.003501656    14.673877415    10.120686568     0.406647071    -0.224418562     0.185133651
   54    35.162613888    12.780586703    10.432104307     0.403517161    -0.243642955     0.166769335
   55    33.608837034    20.448895930     3.333510841     0.403557112    -0.221592771     0.195034103
   56    36.719978567    14.441517581    10.297563554     0.413991017    -0.212172927     0.183286897
   57    35.609645085    16.367685285     7.927332210     0.416324988    -0.207758589     0.183057021
   58    34.482605430    10.655817100     7.717661881     0.405020313    -0.225931279     0.186851822
   59    36.134335471    12.134846874     8.432775593     0.411396508    -0.219029566     0.181049614
   60    39.239641391    16.814162034     9.678396842     0.407374877    -0.219189572     0.189740985
   61    39.404518695    12.187658368    10.581806669     0.422835228    -0.205974253     0.169661361
   62    39.236287890    17.703568830     3.015968736     0.420392631    -0.198393505     0.184146825
   63    32.498867194    18.237200348    10.209804694     0.399569068    -0.227125481     0.196871977
   64    33.838826678    19.558892502     1.276623533     0.406128012    -0.212212477     0.200064746
   65    34.965772388    14.285516417     4.123576104     0.376102074    -0.267741595     0.191993927
   66    31.364081963    17.167263868     8.716932052     0.396159135    -0.231765912     0.198349445
   67    38.195065430    13.196167927     8.828728156     0.413156947    -0.221773737     0.173544652
   68    31.358106236    12.726654037     5.928096088     0.471018644    -0.151161634     0.072743368
   21     2.028420309    26.386416769     3.872876778    -0.412026698     0.204743844    -0.195739518
   22     9.360725979    21.770039224     5.912803499     0.457551559    -0.168569981     0.110592641
   23     9.244799561    29.297364936     6.777643130     0.408447173    -0.217906366     0.188911943
   24     4.191590134    24.185078584     7.605754550     0.417346870    -0.202076178     0.187047611
   25     5.470248944    20.428928866     0.890770621     0.402071961    -0.223052921     0.196432004
   26     2.029474901    21.011306749     7.427915829     0.104125136     0.382708326    -0.304454090
   27     0.694098079    23.011565226     2.716119254     0.416974462    -0.213959481     0.174222956
   28     7.687258796    25.450378973     0.985398118     0.423188419    -0.198258437     0.177778386
   29     8.399888618    28.103191876     5.064912944     0.400602297    -0.224736924     0.197512315
   30     7.169855347    29.016853256     1.761958218     0.413513602    -0.217148716     0.178473908
   31     5.682224409    29.980603948     8.776349434     0.406926927    -0.227652658     0.180512448
   32     7.809099297    20.631591185     8.005277936     0.405746888    -0.227182058     0.183732892
   33     0.872322629    28.005917773     5.407495321     0.408202856    -0.225099357     0.180833371
   34    10.469626600    22.990683734     8.125727796     0.483340478     0.104500341    -0.073903048
   35     7.841915812    27.592328000     0.301940295     0.415851440    -0.212888884     0.178173799
   36     7.355684180    22.579087875     5.636011002     0.449305705    -0.175554768     0.131548115
   37     7.861243541    25.191967760     7.572722261     0.410046690    -0.214539621     0.189299928
   38     5.946291731    26.109174531     4.271861008     0.426760974    -0.197278895     0.170164945
   39     8.132798432    25.804515245     3.697386998     0.434123654    -0.184814552     0.165469738
   40     2.899208864    28.823270992     6.244351899     0.407059321    -0.223542837     0.185287099
   41     6.398580907    22.015175556     3.685329012     0.448385906    -0.174643400     0.135829900
   42     0.682691187    28.456763022     3.134363062     0.417927495    -0.199423788     0.188591522
   43     4.220501914    27.041453516     5.278754073     0.423633399    -0.200166197     0.174551529
   44     9.160897122    24.040794905     4.562092906     0.435843101    -0.185406239     0.160203988
   45     4.500327932    29.557502355     4.737918158     0.412542500    -0.210494004     0.188416984
   46     7.592354342    21.236005996     2.037659503     0.446288505    -0.181164247     0.134186758
   47     7.016818372    21.805739735     9.602424232     0.413611646    -0.210432909     0.186127367
   48    10.221733479    23.462589602     0.523526324     0.407147333    -0.228213532     0.179303188
   49     3.461199916    25.314748209     1.613421152    -0.417865481     0.182402205    -0.205226400
   50     6.615959940    29.388834545     6.734475063     0.401921160    -0.217881051     0.202453028
   51     9.892930044    25.822446924     0.662859948     0.418309193    -0.196573602     0.190725556
   52     9.600382614    29.584828681     1.364038577     0.401894750    -0.213155836     0.207473371
   53     8.869609278    24.264990301     9.287051383     0.406645188    -0.224434296     0.185118712
   54     5.028721509    22.371699589     9.598469122     0.403514164    -0.243651585     0.166763978
   55     3.474944655    30.040008816     2.499875656     0.403560710    -0.221592971     0.195026429
   56     6.586086188    24.032630467     9.463928369     0.413988441    -0.212187044     0.183276374
   57     5.475752707    25.958798171     7.093697025     0.416323559    -0.207769559     0.183047820
   58     4.348713052    20.246929986     6.884026696     0.405024166    -0.225936394     0.186837286
   59     6.000443093    21.725959760     7.599140408     0.411398629    -0.219033889     0.181039565
   60     9.105749012    26.405274920     8.844761657     0.407371459    -0.219203323     0.189732437
   61     9.270626317    21.778771254     9.748171483     0.422835783    -0.205981323     0.169651393
   62     9.102395512    27.294681716     2.182333551     0.420388996    -0.198407515     0.184140028
   63     2.364974815    27.828313234     9.376169509     0.399571204    -0.227123178     0.196870299
   64     3.704934300    29.150005388     0.442988348     0.406132168    -0.212212176     0.200056628
   65     4.831880009    23.876629303     3.289940919     0.376779144    -0.267178301     0.191450339
   66     1.230189585    26.758376754     7.883296866     0.396165510    -0.231757004     0.198347120
   67     8.061173051    22.787280813     7.995092971     0.413156062    -0.221783636     0.173534110
   68     1.224213858    22.317766923     5.094460903     0.471058471    -0.151012165     0.072795897
   21    12.118076258    26.531076981     4.160963648    -0.412026951     0.204747606    -0.195735050
   22    19.450381929    21.914699436     6.200890368     0.457524790    -0.168632459     0.110608140
   23    19.334455510    29.442025147     7.065729999     0.408443130    -0.217927672     0.188896107
   24    14.281246084    24.329738795     7.893841420     0.417340853    -0.202087616     0.187048677
   25    15.559904894    20.573589078     1.178857491     0.402067096    -0.223057069     0.196437252
   26    12.119130851    21.155966961     7.716002698     0.104264404     0.382417032    -0.304772288
   27    10.783754028    23.156225438     3.004206123     0.416968299    -0.213955100     0.174243086
   28    17.776914746    25.595039185     1.273484988     0.423189905    -0.198266220     0.177766168
   29    18.489544567    28.247852088     5.352999814     0.400598674    -0.224760913     0.197492366
   30    17.259511297    29.161513468     2.050045088     0.413513999    -0.217157002     0.178462907
   31    15.771880359    30.125264160     9.064436303     0.406924280    -0.227667301     0.180499947
   32    17.898755247    20.776251397     8.293364805     0.405738409    -0.227194423     0.183736327
   33    10.961978579    28.150577985     5.695582190     0.408202913    -0.225107321     0.180823328
   34    20.559282550    23.135343946     8.413814665     0.483384481     0.104344500    -0.073835416
   35    17.931571761    27.736988211     0.590027165     0.415850574    -0.212898491     0.178164341
   36    17.445340130    22.723748087     5.924097872     0.449287186    -0.175597061     0.131554921
   37    17.950899491    25.336627972     7.860809131     0.410040235    -0.214550195     0.189301926
   38    16.035947681    26.253834743     4.559947877     0.426759868    -0.197285937     0.170159555
   39    18.222454381    25.949175456     3.985473868     0.434124179    -0.184821759     0.165460311
   40    12.988864813    28.967931204     6.532438768     0.407058317    -0.223551811     0.185278477
   41    16.488236857    22.159835768     3.973415881     0.448367921    -0.174683159     0.135838145
   42    10.772347136    28.601423234     3.422449932     0.417928877    -0.199431564     0.188580235
   43    14.310157864    27.186113728     5.566840943     0.423631183    -0.200174586     0.174547290
   44    19.250553072    24.185455117     4.850179776     0.435843563    -0.185413268     0.160194596
   45    14.589983882    29.702162567     5.026005028     0.412540364    -0.210504940     0.188409442
   46    17.682010292    21.380666207     2.325746373     0.446272771    -0.181198222     0.134193214
   47    17.106474322    21.950399947     9.890511102     0.413604164    -0.210449213     0.186125561
   48    20.311389428    23.607249814     0.811613194     0.407147983    -0.228221293     0.179291834
   49    13.550855866    25.459408421     1.901508021    -0.417631016     0.182667992    -0.205467124
   50    16.705615890    29.533494757     7.022561933     0.401919376    -0.217895775     0.202440725
   51    19.982585994    25.967107135     0.950946818     0.418309100    -0.196582780     0.190716301
   52    19.690038564    29.729488893     1.652125446     0.401897453    -0.213161795     0.207462012
   53    18.959265227    24.409650512     9.575138253     0.406639022    -0.224444100     0.185120371
   54    15.118377459    22.516359800     9.886555991     0.403505763    -0.243670880     0.166756114
   55    13.564600605    30.184669028     2.787962525     0.403557536    -0.221604449     0.195019956
   56    16.675742138    24.177290678     9.752015238     0.413981432    -0.212200695     0.183276401
   57    15.565408657    26.103458382     7.381783894     0.416318323    -0.207779956     0.183047927
   58    14.438369002    20.391590198     7.172113565     0.405015465    -0.225941194     0.186850341
   59    16.090099043    21.870619972     7.887227278     0.411390049    -0.219043865     0.181046990
   60    19.195404962    26.549935132     9.132848527     0.407366173    -0.219212186     0.189733546
   61    19.360282266    21.923431466    10.036258353     0.422827579    -0.206001145     0.169647772
   62    19.192051462    27.439341928     2.470420421     0.420389558    -0.198417073     0.184128447
   63    12.454630765    27.972973445     9.664256378     0.399571061    -0.227132199     0.196860183
   64    13.794590249    29.294665599     0.731075218     0.406129779    -0.212221972     0.200051087
   65    14.921535959    24.021289515     3.578027788     0.376006564    -0.267892258     0.191970836
   66    11.319845535    26.903036966     8.171383736     0.396165440    -0.231766496     0.198336168
   67    18.150829001    22.931941025     8.283179840     0.413148961    -0.221794750     0.173536811
   68    11.313869807    22.462427135     5.382547773     0.471039950    -0.151114290     0.072703763
   21    22.207732208    26.675737193     4.449050518    -0.412030863     0.204750206    -0.195724093
   22    29.540037878    22.059359647     6.488977238     0.457563150    -0.168496582     0.110656520
   23    29.424111460    29.586685359     7.353816869     0.408451309    -0.217896869     0.188913956
   24    24.370902034    24.474399007     8.181928289     0.417342501    -0.202080662     0.187052514
   25    25.649560844    20.718249289     1.466944360     0.402070898    -0.223047315     0.196440547
   26    22.208786801    21.300627172     8.004089568     0.104437843     0.382482205    -0.304631088
   27    20.873409978    23.300885650     3.292292993     0.416985147    -0.213938074     0.174223671
   28    27.866570696    25.739699397     1.561571857     0.423198605    -0.198238047     0.177776876
   29    28.579200517    28.392512299     5.641086683     0.400609199    -0.224726054     0.197510684
   30    27.349167247    29.306173679     2.338131958     0.413525762    -0.217127852     0.178471119
   31    25.861536308    30.269924372     9.352523173     0.406930450    -0.227645773     0.180513188
   32    27.988411197    20.920911609     8.581451675     0.405736563    -0.227189019     0.183747085
   33    21.051634528    28.295238196     5.983669060     0.408207125    -0.225106191     0.180815225
   34    30.648938500    23.280004157     8.701901535     0.483330459     0.104707164    -0.073675483
   35    28.021227711    27.881648423     0.878114034     0.415862274    -0.212870239     0.178170790
   36    27.534996080    22.868408299     6.212184742     0.449312904    -0.175508344     0.131585469
   37    28.040555441    25.481288183     8.148896000     0.410040083    -0.214546631     0.189306295
   38    26.125603631    26.398494954     4.848034747     0.426768339    -0.197266181     0.170161215
   39    28.312110331    26.093835668     4.273560737     0.434135610    -0.184790996     0.165464679
   40    23.078520763    29.112591416     6.820525638     0.407066892    -0.223538882     0.185275238
   41    26.577892807    22.304495980     4.261502751     0.448390626    -0.174607950     0.135859893
   42    20.862003086    28.746083446     3.710536801     0.417930916    -0.199439080     0.188567767
   43    24.399813813    27.330773940     5.854927812     0.423639827    -0.200155363     0.174548355
   44    29.340209022    24.330115329     5.138266646     0.435858095    -0.185376669     0.160197415
   45    24.679639831    29.846822778     5.314091897     0.412550391    -0.210483760     0.188411152
   46    27.771666242    21.525326419     2.613833242     0.446293384    -0.181135361     0.134209525
   47    27.196130272    22.095060158    10.178597972     0.413599005    -0.210445716     0.186140979
   48    30.401045378    23.751910026     1.099700063     0.407157441    -0.228196565     0.179301828
   49    23.640511816    25.604068633     2.189594891    -0.417564613     0.182795942    -0.205488291
   50    26.795271840    29.678154968     7.310648802     0.401928690    -0.217868466     0.202451623
   51    30.072241943    26.111767347     1.239033687     0.418319414    -0.196552934     0.190724441
   52    29.779694513    29.874149105     1.940212316     0.401909944    -0.213129204     0.207471297
   53    29.048921177    24.554310724     9.863225122     0.406635620    -0.224450228     0.185120415
   54    25.208033409    22.661020012    10.174642861     0.403504916    -0.243663375     0.166769130
   55    23.654256555    30.329329239     3.076049395     0.403568519    -0.221585671     0.195018565
   56    26.765398088    24.321950890    10.040102108     0.413979018    -0.212197519     0.183285532
   57    25.655064606    26.248118594     7.669870764     0.416321532    -0.207770922     0.183050885
   58    24.528024952    20.536250409     7.460200435     0.405011313    -0.225941708     0.186858719
   59    26.179754993    22.015280183     8.175314147     0.411388717    -0.219038153     0.181056928
   60    29.285060912    26.694595343     9.420935396     0.407364259    -0.219211033     0.189738988
   61    29.449938216    22.068091677    10.324345223     0.422822249    -0.205993813     0.169669958
   62    29.281707411    27.584002139     2.758507290     0.420398662    -0.198388228     0.184138741
   63    22.544286715    28.117633657     9.952343248     0.399567395    -0.227135016     0.196864374
   64    23.884246199    29.439325811     1.019162087     0.406140567    -0.212204595     0.200047618
   65    25.011191909    24.165949727     3.866114658     0.376123112    -0.267694093     0.192018952
   66    21.409501484    27.047697177     8.459470606     0.396161491    -0.231771341     0.198338395
   67    28.240484951    23.076601236     8.571266710     0.413148098    -0.221793017     0.173541081
   68    21.403525757    22.607087346     5.670634642     0.471007292    -0.151203560     0.072729734
   21    32.297388158    26.820397404     4.737137387    -0.412028145     0.204744027    -0.195736280
   22    39.629693828    22.204019859     6.777064107     0.457563733    -0.168497814     0.110652234
   23    39.513767410    29.731345571     7.641903738     0.408440301    -0.217904438     0.188929024
   24    34.460557984    24.619059219     8.470015159     0.417350141    -0.202061899     0.187055737
   25    35.739216794    20.862909501     1.755031230     0.402067237    -0.223049198     0.196445902
   26    32.298442751    21.445287384     8.292176437     0.104133881     0.382739010    -0.304412525
   27    30.963065928    23.445545861     3.580379863     0.416994846    -0.213937248     0.174201470
   28    37.956226646    25.884359608     1.849658727     0.423186980    -0.198252172     0.177788796
   29    38.668856467    28.537172511     5.929173553     0.400594008    -0.224737551     0.197528413
   30    37.438823197    29.450833891     2.626218827     0.413512121    -0.217141361     0.178486288
   31    35.951192258    30.414584583     9.640610042     0.406922185    -0.227651523     0.180524567
   32    38.078067147    21.065571820     8.869538545     0.405750250    -0.227169199     0.183741365
   33    31.141290478    28.439898408     6.271755930     0.408207497    -0.225093747     0.180829876
   34    40.738594449    23.424664369     8.989988404     0.483323691     0.104716537    -0.073706555
   35    38.110883661    28.026308635     1.166200904     0.415849645    -0.212883342     0.178184612
   36    37.624652029    23.013068510     6.500271611     0.449312094    -0.175508012     0.131588678
   37    38.130211391    25.625948395     8.436982870     0.410046685    -0.214530681     0.189310070
   38    36.215259580    26.543155166     5.136121616     0.426765177    -0.197264104     0.170171553
   39    38.401766281    26.238495880     4.561647607     0.434127428    -0.184799332     0.165476835
   40    33.168176713    29.257251627     7.108612508     0.407060908    -0.223537081     0.185290557
   41    36.667548756    22.449156191     4.549589621     0.448388215    -0.174608290     0.135867412
   42    30.951659036    28.890743657     3.998623671     0.417936322    -0.199415187     0.188581053
   43    34.489469763    27.475434151     6.143014682     0.423636959    -0.200152502     0.174558594
   44    39.429864971    24.474775540     5.426353515     0.435849657    -0.185385624     0.160210009
   45    34.769295781    29.991482990     5.602178767     0.412542845    -0.210486815     0.188424260
   46    37.861322192    21.669986631     2.901920112     0.446290365    -0.181135294     0.134219653
   47    37.285786222    22.239720370    10.466684841     0.413615349    -0.210416270     0.186137950
   48    40.490701328    23.896570237     1.387786933     0.407147089    -0.228212204     0.179305433
   49    33.730167765    25.748728844     2.477681760    -0.417628408     0.182875731    -0.205287554
   50    36.884927790    29.822815180     7.598735672     0.401917711    -0.217877753     0.202463424
   51    40.161897893    26.256427559     1.527120557     0.418307529    -0.196566871     0.190736144
   52    39.869350463    30.018809316     2.228299185     0.401894894    -0.213142777     0.207486507
   53    39.138577127    24.698970936    10.151311992     0.406646516    -0.224428575     0.185122731
   54    35.297689359    22.805680224    10.462729730     0.403518218    -0.243641222     0.166769310
   55    33.743912505    30.473989451     3.364136264     0.403560325    -0.221585967     0.195035184
   56    36.855054038    24.466611102    10.328188977     0.413991752    -0.212174021     0.183283971
   57    35.744720556    26.392778806     7.957957633     0.416326987    -0.207755316     0.183056190
   58    34.617680902    20.680910621     7.748287305     0.405024596    -0.225928143     0.186846331
   59    36.269410942    22.159940395     8.463401017     0.411400975    -0.219020772     0.181050100
   60    39.374716862    26.839255555     9.709022266     0.407371628    -0.219195987     0.189740549
   61    39.539594166    22.212751889    10.612432092     0.422840303    -0.205958928     0.169667315
   62    39.371363361    27.728662351     3.046594160     0.420388850    -0.198398035     0.184150575
   63    32.633942665    28.262293869    10.240430118     0.399567554    -0.227130074     0.196869751
   64    33.973902149    29.583986023     1.307248957     0.406133164    -0.212202661     0.200064698
   65    35.100847859    24.310609938     4.154201528     0.376082786    -0.267828544     0.191910418
   66    31.499157434    27.192357389     8.747557475     0.396161065    -0.231766981     0.198344340
   67    38.330140901    23.221261448     8.859353579     0.413159200    -0.221771770     0.173541802
   68    31.493181707    22.751747558     5.958721512     0.471056942    -0.151011966     0.072806205
   21     2.163495780    36.411510290     3.903502202    -0.412026957     0.204746474    -0.195736221
   22     9.495801450    31.795132745     5.943428922     0.457548387    -0.168569501     0.110606495
   23     9.379875032    39.322458457     6.808268553     0.408444384    -0.217908610     0.188915386
   24     4.326665605    34.210172105     7.636379974     0.417345413    -0.202066517     0.187061297
   25     5.605324415    30.454022387     0.921396045     0.402067075    -0.223058724     0.196435417
   26     2.164550372    31.036400270     7.458541252     0.104048751     0.382531576    -0.304702233
   27     0.829173550    33.036658747     2.746744677     0.416987576    -0.213935092     0.174221518
   28     7.822334267    35.475472494     1.016023542     0.423185250    -0.198250815     0.177794429
   29     8.534964089    38.128285397     5.095538368     0.400597550    -0.224742714     0.197515354
   30     7.304930818    39.041946777     1.792583642     0.413512578    -0.217143072     0.178483149
   31     5.817299880    40.005697469     8.806974857     0.406926659    -0.227645682     0.180521848
   32     7.944174769    30.656684706     8.035903359     0.405742338    -0.227182999     0.183741776
   33     1.007398100    38.031011294     5.438120744     0.408204757    -0.225100314     0.180827888
   34    10.604702071    33.015777255     8.156353219     0.483338936     0.104554257    -0.073836849
   35     7.976991283    37.617421521     0.332565719     0.415848929    -0.212884841     0.178184491
   36     7.490759651    32.604181396     5.666636426     0.449301925    -0.175555856     0.131559573
   37     7.996319012    35.217061281     7.603347685     0.410043161    -0.214534902     0.189312921
   38     6.081367202    36.134268052     4.302486431     0.426760178    -0.197269562     0.170177763
   39     8.267873903    35.829608766     3.728012422     0.434122092    -0.184807103     0.165482155
   40     3.034284335    38.848364513     6.274977322     0.407060952    -0.223537534     0.185289914
   41     6.533656378    32.040269077     3.715954435     0.448380026    -0.174649529     0.135841429
   42     0.817766658    38.481856543     3.164988486     0.417932096    -0.199428037     0.188576831
   43     4.355577385    37.066547037     5.309379497     0.423632912    -0.200156704     0.174563599
   44     9.295972593    34.065888426     4.592718330     0.435841617    -0.185398036     0.160217518
   45     4.635403403    39.582595876     4.768543582     0.412542515    -0.210487766     0.188423920
   46     7.727429813    31.261099517     2.068284927     0.446282689    -0.181171580     0.134196200
   47     7.151893843    31.830833256     9.633049656     0.413607470    -0.210433157     0.186136368
   48    10.356808950    33.487683123     0.554151748     0.407143988    -0.228204150     0.179322724
   49     3.596275387    35.339841730     1.644046575    -0.417559871     0.182799474    -0.205494784
   50     6.751035411    39.413928066     6.765100486     0.401921625    -0.217872845     0.202460936
   51    10.028005515    35.847540445     0.693485372     0.418305837    -0.196568838     0.190737827
   52     9.735458085    39.609922202     1.394664000     0.401892495    -0.213150714     0.207483000
   53     9.004684749    34.290083822     9.317676806     0.406640653    -0.224433562     0.185129565
   54     5.163796980    32.396793110     9.629094545     0.403512995    -0.243646877     0.166773685
   55     3.610020126    40.065102337     2.530501079     0.403559750    -0.221588361     0.195033655
   56     6.721161659    34.057723988     9.494553792     0.413986244    -0.212181905     0.183287285
   57     5.610828178    35.983891692     7.124322448     0.416322564    -0.207759322     0.183061702
   58     4.483788523    30.272023507     6.914652119     0.405018621    -0.225934476     0.186851622
   59     6.135518564    31.751053281     7.629765832     0.411393715    -0.219032850     0.181051986
   60     9.240824483    36.430368441     8.875387081     0.407367656    -0.219199865     0.189744597
   61     9.405701788    31.803864775     9.778796907     0.422831246    -0.205982282     0.169661537
   62     9.237470983    37.319775237     2.212958975     0.420386477    -0.198402576     0.184151100
   63     2.500050287    37.853406755     9.406794932     0.399570566    -0.227120048     0.196875205
   64     3.840009771    39.175098909     0.473613771     0.406132195    -0.212205384     0.200063778
   65     4.966955480    33.901722824     3.320566342     0.376199261    -0.267652128     0.191928253
   66     1.365265056    36.783470275     7.913922290     0.396164917    -0.231755386     0.198350194
   67     8.196248522    32.812374334     8.025718394     0.413152081    -0.221783072     0.173544308
   68     1.359289329    32.342860444     5.125086327     0.471032265    -0.151101861     0.072779344
   21    12.253151729    36.556170502     4.191589072    -0.412022015     0.204757683    -0.195734897
   22    19.585457400    31.939792957     6.231515792     0.457534618    -0.168630809     0.110569996
   23    19.469530981    39.467118668     7.096355423     0.408443791    -0.217915119     0.188909159
   24    14.416321555    34.354832316     7.924466843     0.417340014    -0.202089535     0.187048477
   25    15.694980365    30.598682599     1.209482914     0.402066103    -0.223064126     0.196431272
   26    12.254206322    31.181060482     7.746628122     0.104086156     0.382651912    -0.304538316
   27    10.918829499    33.181318959     3.034831547     0.416966611    -0.213942737     0.174262303
   28    17.911990217    35.620132706     1.304110411     0.423184535    -0.198266210     0.177778962
   29    18.624620038    38.272945609     5.383625237     0.400597697    -0.224748324     0.197508674
   30    17.394586768    39.186606989     2.080670512     0.413510860    -0.217155080     0.178472519
   31    15.906955830    40.150357681     9.095061727     0.406925619    -0.227657863     0.180508830
   32    18.033830718    30.801344918     8.323990229     0.405738285    -0.227199459     0.183730373
   33    11.097054050    38.175671506     5.726207614     0.408202257    -0.225106364     0.180826001
   34    20.694358021    33.160437467     8.444440089     0.483358857     0.104343400    -0.074004526
   35    18.066647233    37.762081732     0.620652588     0.415846629    -0.212897989     0.178174150
   36    17.580415601    32.748841608     5.954723296     0.449293661    -0.175596299     0.131533822
   37    18.085974962    35.361721493     7.891434554     0.410039194    -0.214548278     0.189306354
   38    16.171023152    36.278928264     4.590573301     0.426757768    -0.197288849     0.170161447
   39    18.357529852    35.974268977     4.016099291     0.434121425    -0.184821955     0.165467319
   40    13.123940284    38.993024725     6.563064192     0.407059197    -0.223548532     0.185280500
   41    16.623312328    32.184929289     4.004041305     0.448372834    -0.174684731     0.135819903
   42    10.907422607    38.626516755     3.453075355     0.417927235    -0.199429352     0.188586214
   43    14.445233335    37.211207249     5.597466366     0.423630459    -0.200175422     0.174548086
   44    19.385628543    34.210548638     4.880805200     0.435841442    -0.185412319     0.160201464
   45    14.725059353    39.727256088     5.056630451     0.412541158    -0.210501186     0.188411899
   46    17.817085763    31.405759728     2.356371796     0.446276447    -0.181200728     0.134177604
   47    17.241549793    31.975493468     9.921136526     0.413602969    -0.210448600     0.186128909
   48    20.446464899    33.632343335     0.842238617     0.407142899    -0.228220796     0.179304010
   49    13.685931337    35.484501942     1.932133445    -0.417550814     0.183064561    -0.205277092
   50    16.840691361    39.558588278     7.053187356     0.401920650    -0.217886299     0.202448393
   51    20.117661465    35.992200656     0.981572241     0.418304632    -0.196583218     0.190725649
   52    19.825114035    39.754582414     1.682750870     0.401894926    -0.213159154     0.207469620
   53    19.094340698    34.434744033     9.605763676     0.406637597    -0.224441227     0.185126985
   54    15.253452930    32.541453321     9.917181415     0.403506268    -0.243669748     0.166756546
   55    13.699676076    40.209762549     2.818587949     0.403558919    -0.221601003     0.195021009
   56    16.810817609    34.202384199     9.782640662     0.413981083    -0.212200110     0.183277866
   57    15.700484128    36.128551903     7.412409318     0.416317614    -0.207781116     0.183048224
   58    14.573444473    30.416683719     7.202738989     0.405017393    -0.225948643     0.186837154
   59    16.225174514    31.895713493     7.917852701     0.411391243    -0.219048597     0.181038551
   60    19.330480433    36.575028653     9.163473950     0.407364159    -0.219209484     0.189740991
   61    19.495357737    31.948524987    10.066883776     0.422826647    -0.205999422     0.169652187
   62    19.327126933    37.464435449     2.501045844     0.420385677    -0.198416341     0.184138095
   63    12.589706236    37.998066966     9.694881802     0.399568492    -0.227127081     0.196871301
   64    13.929665720    39.319759120     0.761700641     0.406130747    -0.212218532     0.200052772
   65    15.056611430    34.046383036     3.608653212     0.376162705    -0.267602501     0.192069052
   66    11.454921006    36.928130487     8.202009160     0.396162995    -0.231761674     0.198346686
   67    18.285904472    32.957034546     8.313805264     0.413147064    -0.221796726     0.173538802
   68    11.448945278    32.487520656     5.413173196     0.471038347    -0.151108647     0.072725868
   21    22.342807679    36.700830714     4.479675941    -0.412011313     0.204771772    -0.195742686
   22    29.675113349    32.084453168     6.519602661     0.457545725    -0.168560487     0.110631241
   23    29.559186931    39.611778880     7.384442292     0.408447981    -0.217912181     0.188903490
   24    24.505977505    34.499492528     8.212553713     0.417350977    -0.202067380     0.187047951
   25    25.784636315    30.743342810     1.497569784     0.402080619    -0.223037547     0.196431740
   26    22.343862272    31.325720693     8.034714991     0.104330103     0.382191261    -0.305032900
   27    21.008485449    33.325979171     3.322918417     0.416973662    -0.213937966     0.174251288
   28    28.001646167    35.764792918     1.592197281     0.423201385    -0.198241577     0.177766320
   29    28.714275988    38.417605820     5.671712107     0.400605857    -0.224742610     0.197498625
   30    27.484242718    39.331267200     2.368757381     0.413523557    -0.217138589     0.178463164
   31    25.996611779    40.295017893     9.383148596     0.406923340    -0.227662022     0.180508722
   32    28.123486668    30.946005130     8.612077099     0.405746313    -0.227176090     0.183741540
   33    21.186710000    38.320331717     6.014294484     0.408201504    -0.225111073     0.180821837
   34    30.784013971    33.305097678     8.732526958     0.483361163     0.104486422    -0.073787358
   35    28.156303182    37.906741944     0.908739458     0.415862408    -0.212876604     0.178162872
   36    27.670071551    32.893501820     6.242810165     0.449304311    -0.175543336     0.131568132
   37    28.175630912    35.506381704     8.179521424     0.410046948    -0.214535785     0.189303718
   38    26.260679102    36.423588475     4.878660170     0.426770169    -0.197266945     0.170155737
   39    28.447185802    36.118929189     4.304186161     0.434136568    -0.184795508     0.165457126
   40    23.213596234    39.137684937     6.851151062     0.407059820    -0.223549250     0.185278267
   41    26.712968278    32.329589501     4.292128175     0.448384506    -0.174633414     0.135847362
   42    20.997078557    38.771176967     3.741162225     0.417925922    -0.199439109     0.188578804
   43    24.534889284    37.355867461     5.885553236     0.423640509    -0.200157950     0.174543731
   44    29.475284493    34.355208850     5.168892069     0.435858329    -0.185382539     0.160189985
   45    24.814715302    39.871916299     5.344717321     0.412544480    -0.210496744     0.188409587
   46    27.906741713    31.550419940     2.644458666     0.446289088    -0.181153531     0.134199285
   47    27.331205743    32.120153679    10.209223395     0.413608882    -0.210433169     0.186133217
   48    30.536120849    33.777003547     1.130325487     0.407163866    -0.228192720     0.179292134
   49    23.775587287    35.629162154     2.220220314    -0.416987751     0.183425483    -0.206097812
   50    26.930347311    39.703248490     7.341274226     0.401921496    -0.217886680     0.202446304
   51    30.207317415    36.136860868     1.269659111     0.418320716    -0.196560106     0.190714193
   52    29.914769984    39.899242626     1.970837739     0.401909568    -0.213140845     0.207460066
   53    29.183996648    34.579404245     9.893850546     0.406644321    -0.224433203     0.185121942
   54    25.343108880    32.686113533    10.205268284     0.403515968    -0.243646899     0.166766460
   55    23.789332026    40.354422760     3.106674818     0.403562384    -0.221595800     0.195019752
   56    26.900473559    34.347044411    10.070727531     0.413989922    -0.212180635     0.183280448
   57    25.790140077    36.273212115     7.700496187     0.416328557    -0.207760622     0.183046598
   58    24.663100423    30.561343930     7.490825859     0.405023619    -0.225920381     0.186857832
   59    26.314830464    32.040373704     8.205939571     0.411398366    -0.219023046     0.181053279
   60    29.420136383    36.719688864     9.451560820     0.407369380    -0.219203697     0.189736470
   61    29.585013687    32.093185198    10.354970646     0.422831175    -0.205985247     0.169658113
   62    29.416782882    37.609095660     2.789132714     0.420401152    -0.198393825     0.184127026
   63    22.679362186    38.142727178     9.982968672     0.399566057    -0.227134718     0.196867433
   64    24.019321670    39.464419332     1.049787511     0.406133543    -0.212214958     0.200050885
   65    25.146267380    34.191043248     3.896740082     0.376118591    -0.267665465     0.192067707
   66    21.544576955    37.072790698     8.490096029     0.396159488    -0.231770797     0.198343031
   67    28.375560422    33.101694757     8.601892133     0.413156066    -0.221780113     0.173538603
   68    21.538601228    32.632180867     5.701260066     0.471018342    -0.151199482     0.072666622
   21    32.432463629    36.845490925     4.767762811    -0.412028346     0.204748314    -0.195731371
   22    39.764769299    32.229113380     6.807689531     0.457542368    -0.168557936     0.110649012
   23    39.648842881    39.756439092     7.672529162     0.408452055    -0.217911115     0.188895908
   24    34.595633455    34.644152740     8.500640582     0.417341607    -0.202074738     0.187060907
   25    35.874292265    30.888003022     1.785656654     0.402067607    -0.223047051     0.196447583
   26    32.433518222    31.470380905     8.322801861     0.104493453     0.382395962    -0.304720275
   27    31.098141399    33.470639382     3.611005286     0.417002051    -0.213921487     0.174203579
   28    38.091302117    35.909453129     1.880284150     0.423191094    -0.198254951     0.177775904
   29    38.803931938    38.562266032     5.959798976     0.400609959    -0.224742438     0.197490498
   30    37.573898668    39.475927412     2.656844251     0.413518873    -0.217145575     0.178465518
   31    36.086267729    40.439678104     9.671235466     0.406931070    -0.227653812     0.180501651
   32    38.213142618    31.090665341     8.900163968     0.405736891    -0.227181516     0.183755637
   33    31.276365949    38.464991929     6.302381353     0.408209352    -0.225100405     0.180817402
   34    40.873669920    33.449757890     9.020613828     0.483349282     0.104538953    -0.073790775
   35    38.245959132    38.051402156     1.196826327     0.415854162    -0.212886850     0.178169878
   36    37.759727501    33.038162031     6.530897035     0.449296820    -0.175547858     0.131587679
   37    38.265286862    35.651041916     8.467608294     0.410042636    -0.214532792     0.189316449
   38    36.350335051    36.568248687     5.166747040     0.426761699    -0.197273834     0.170168995
   39    38.536841752    36.263589401     4.592273030     0.434127222    -0.184804551     0.165471549
   40    33.303252184    39.282345148     7.139237931     0.407064844    -0.223541273     0.185276852
   41    36.802624227    32.474249712     4.580215044     0.448376607    -0.174637030     0.135868782
   42    31.086734507    38.915837178     4.029249094     0.417938029    -0.199422587     0.188569444
   43    34.624545234    37.500527672     6.173640105     0.423633925    -0.200162249     0.174554782
   44    39.564940442    34.499869061     5.456978939     0.435848335    -0.185391637     0.160206648
   45    34.904371252    40.016576511     5.632804190     0.412547564    -0.210491313     0.188408903
   46    37.996397663    31.695080152     2.932545535     0.446279794    -0.181159896     0.134221598
   47    37.420861693    32.264813891    10.497310265     0.413603370    -0.210430525     0.186148452
   48    40.625776799    33.921663758     1.418412356     0.407148696    -0.228214774     0.179298512
   49    33.865243236    35.773822365     2.508307184    -0.417480121     0.182756764    -0.205694711
   50    37.020003261    39.847908701     7.629361095     0.401926908    -0.217882256     0.202440321
   51    40.296973364    36.281521080     1.557745980     0.418311610    -0.196569782     0.190724192
   52    40.004425934    40.043902837     2.258924609     0.401900462    -0.213151200     0.207467069
   53    39.273652598    34.724064457    10.181937415     0.406641559    -0.224427643     0.185134750
   54    35.432764830    32.830773745    10.493355154     0.403506576    -0.243651376     0.166782644
   55    33.878987976    40.499082972     3.394761688     0.403568010    -0.221587722     0.195017289
   56    36.990129509    34.491704623    10.358814401     0.413982121    -0.212183173     0.183295130
   57    35.879796027    36.417872327     7.988583057     0.416320166    -0.207765921     0.183059667
   58    34.752756373    30.706004142     7.778912728     0.405012928    -0.225933594     0.186865029
   59    36.404486414    32.185033916     8.494026440     0.411388389    -0.219032456     0.181064565
   60    39.509792333    36.864349076     9.739647689     0.407369282    -0.219195359     0.189746312
   61    39.674669637    32.237845410    10.643057516     0.422827544    -0.205979559     0.169674067
   62    39.506438832    37.753755872     3.077219583     0.420392327    -0.198402921     0.184137373
   63    32.769018136    38.287387390    10.271055541     0.399572121    -0.227129067     0.196861645
   64    34.108977620    39.609079544     1.337874380     0.406140013    -0.212205859     0.200047402
   65    35.235923330    34.335703459     4.184826951     0.376200555    -0.267608548     0.191986478
   66    31.634232905    37.217450910     8.778182899     0.396165561    -0.231764188     0.198338624
   67    38.465216372    33.246354969     8.889979003     0.413149426    -0.221779427     0.173555286
   68    31.628257178    32.776841079     5.989346936     0.471031931    -0.151109667     0.072765300
   21     2.045140537     6.368365464    13.823611293    -0.412036807     0.204731404    -0.195731248
   22     9.377446208     1.751987918    15.863538013     0.457539238    -0.168624338     0.110560744
   23     9.261519789     9.279313630    16.728377644     0.408452815    -0.217917257     0.188887181
   24     4.208310363     4.167027278    17.556489065     0.417347344    -0.202075450     0.187047338
   25     5.486969173     0.410877561    10.841505136     0.402071683    -0.223043117     0.196443707
   26     2.046195130     0.993255443    17.378650343     0.104437383     0.383131187    -0.303814626
   27     0.710818307     2.993513921    12.666853769     0.416985089    -0.213977055     0.174175932
   28     7.703979025     5.432327668    10.936132633     0.423196343    -0.198239096     0.177781089
   29     8.416608846     8.085140570    15.015647459     0.400607478    -0.224748951     0.197488120
   30     7.186575576     8.998801951    11.712692733     0.413522601    -0.217136002     0.178468526
   31     5.698944638     9.962552643    18.727083948     0.406931204    -0.227664601     0.180487742
   32     7.825819526     0.613539880    17.956012451     0.405738284    -0.227198892     0.183731077
   33     0.889042858     7.987866467    15.358229835     0.408210215    -0.225100941     0.180814785
   34    10.486346829     2.972632428    18.076462310     0.483355527     0.104342605    -0.074027394
   35     7.858636041     7.574276694    10.252674810     0.415859881    -0.212872915     0.178173178
   36     7.372404409     2.561036570    15.586745517     0.449300180    -0.175582724     0.131529676
   37     7.877963770     5.173916455    17.523456776     0.410045646    -0.214536368     0.189305876
   38     5.963011960     6.091123225    14.222595522     0.426769338    -0.197265345     0.170159678
   39     8.149518660     5.786463939    13.648121513     0.434133316    -0.184794799     0.165466451
   40     2.915929093     8.805219687    16.195086414     0.407066456    -0.223543387     0.185270759
   41     6.415301136     1.997124251    13.636063527     0.448379353    -0.174668215     0.135819626
   42     0.699411415     8.438711717    13.085097577     0.417935536    -0.199423994     0.188573483
   43     4.237222143     7.023402211    15.229488588     0.423641008    -0.200155876     0.174544899
   44     9.177617351     4.022743600    14.512827421     0.435852855    -0.185385513     0.160201437
   45     4.517048161     9.539451049    14.688652673     0.412549694    -0.210495027     0.188400090
   46     7.609074571     1.217954690    11.988394018     0.446283123    -0.181182257     0.134180339
   47     7.033538601     1.787688429    19.553158747     0.413603229    -0.210443273     0.186134354
   48    10.238453707     3.444538297    10.474260839     0.407153270    -0.228195901     0.179312146
   49     3.477920145     5.296696904    11.564155666    -0.417721799     0.182376705    -0.205541324
   50     6.632680169     9.370783240    16.685209578     0.401929195    -0.217889114     0.202428397
   51     9.909650273     5.804395618    10.613594463     0.418317750    -0.196555783     0.190725154
   52     9.617102843     9.566777376    11.314773091     0.401903274    -0.213144844     0.207468151
   53     8.886329506     4.246938995    19.237785898     0.406642365    -0.224429960     0.185130171
   54     5.045441738     2.353648283    19.549203636     0.403508581    -0.243661456     0.166763064
   55     3.491664884    10.021957510    12.450610170     0.403567080    -0.221592025     0.195014324
   56     6.602806417     4.014579161    19.414662883     0.413984336    -0.212191067     0.183280988
   57     5.492472936     5.940746865    17.044431539     0.416325231    -0.207766369     0.183047639
   58     4.365433281     0.228878680    16.834761211     0.405016573    -0.225963289     0.186821218
   59     6.017163322     1.707908454    17.549874923     0.411391130    -0.219054795     0.181031311
   60     9.122469241     6.387223614    18.795496172     0.407371540    -0.219198588     0.189737733
   61     9.287346545     1.760719949    19.698905998     0.422827888    -0.205990652     0.169659743
   62     9.119115741     7.276630410    12.133068066     0.420398538    -0.198390966     0.184136074
   63     2.381695044     7.810261928    19.326904024     0.399569068    -0.227146069     0.196848225
   64     3.721654528     9.131954082    10.393722863     0.406139300    -0.212209104     0.200045407
   65     4.848600238     3.858577998    13.240675434     0.376063330    -0.267715442     0.192106258
   66     1.246909814     6.740325449    17.834031381     0.396164061    -0.231782138     0.198320642
   67     8.077893280     2.769229508    17.945827485     0.413150467    -0.221788068     0.173541765
   68     1.240934086     2.299715618    15.045195418     0.471053095    -0.150971638     0.072914653
   21    12.134796487     6.513025675    14.111698163    -0.412033032     0.204737260    -0.195733071
   22    19.467102157     1.896648130    16.151624883     0.457550235    -0.168531171     0.110657250
   23    19.351175739     9.423973842    17.016464514     0.408462045    -0.217867968     0.188924076
   24    14.297966313     4.311687490    17.844575934     0.417343937    -0.202075967     0.187054383
   25    15.576625123     0.555537772    11.129592005     0.402069714    -0.223054163     0.196435195
   26    12.135851080     1.137915655    17.666737213     0.104382586     0.382238062    -0.304956292
   27    10.800474257     3.138174132    12.954940638     0.416990190    -0.213899473     0.174258993
   28    17.793634975     5.576987879    11.224219502     0.423193114    -0.198246621     0.177780387
   29    18.506264796     8.229800782    15.303734328     0.400617033    -0.224703349     0.197520627
   30    17.276231526     9.143462162    12.000779603     0.413522947    -0.217127990     0.178477472
   31    15.788600587    10.107212855    19.015170818     0.406940016    -0.227627943     0.180514106
   32    17.915475476     0.758200091    18.244099320     0.405738701    -0.227189229     0.183742105
   33    10.978698808     8.132526679    15.646316705     0.408213409    -0.225093480     0.180816863
   34    20.576002779     3.117292640    18.364549180     0.483352318     0.104630251    -0.073641344
   35    17.948291990     7.718936906    10.540761679     0.415856200    -0.212876983     0.178176909
   36    17.462060359     2.705696781    15.874832387     0.449303567    -0.175533183     0.131584217
   37    17.967619720     5.318576666    17.811543646     0.410041146    -0.214546359     0.189304300
   38    16.052667910     6.235783437    14.510682392     0.426767192    -0.197264784     0.170165711
   39    18.239174610     5.931124151    13.936208382     0.434130185    -0.184799028     0.165469941
   40    13.005585042     8.949879898    16.483173283     0.407071392    -0.223529497     0.185276673
   41    16.504957086     2.141784462    13.924150396     0.448382055    -0.174630403     0.135859320
   42    10.789067365     8.583371928    13.373184446     0.417938751    -0.199418572     0.188572092
   43    14.326878093     7.168062422    15.517575457     0.423639689    -0.200152363     0.174552129
   44    19.267273301     4.167403811    14.800914291     0.435851153    -0.185389167     0.160201839
   45    14.606704110     9.684111261    14.976739542     0.412552883    -0.210477258     0.188412957
   46    17.698730521     1.362614902    12.276480887     0.446285679    -0.181155252     0.134208297
   47    17.123194551     1.932348641    19.841245617     0.413602401    -0.210446449     0.186132604
   48    20.328109657     3.589198508    10.762347708     0.407151141    -0.228211246     0.179297451
   49    13.567576095     5.441357116    11.852242536    -0.417662135     0.182477212    -0.205573363
   50    16.722336119     9.515443451    16.973296447     0.401934926    -0.217859591     0.202448792
   51    19.999306223     5.949055830    10.901681332     0.418313703    -0.196561516     0.190728122
   52    19.706758793     9.711437587    11.602859961     0.401905266    -0.213135351     0.207474046
   53    18.975985456     4.391599207    19.525872767     0.406639260    -0.224446674     0.185116727
   54    15.135097688     2.498308495    19.837290506     0.403506193    -0.243663015     0.166766567
   55    13.581320834    10.166617722    12.738697040     0.403570253    -0.221577263     0.195024530
   56    16.692462367     4.159239373    19.702749753     0.413981138    -0.212196857     0.183281508
   57    15.582128885     6.085407077    17.332518409     0.416322679    -0.207767207     0.183052491
   58    14.455089231     0.373538892    17.122848080     0.405013672    -0.225936115     0.186860369
   59    16.106819272     1.852568666    17.837961792     0.411389223    -0.219037258     0.181056861
   60    19.212125191     6.531883826    19.083583041     0.407366539    -0.219209110     0.189736314
   61    19.377002495     1.905380160    19.986992868     0.422824935    -0.205996400     0.169660123
   62    19.208771690     7.421290622    12.421154935     0.420395715    -0.198391136     0.184142337
   63    12.471350994     7.954922140    19.614990893     0.399575113    -0.227118190     0.196868121
   64    13.811310478     9.276614294    10.681809732     0.406142038    -0.212194534     0.200055304
   65    14.938256188     4.003238210    13.528762303     0.376030653    -0.267867711     0.191957904
   66    11.336565763     6.884985660    18.122118251     0.396168484    -0.231755571     0.198342854
   67    18.167549230     2.913889719    18.233914355     0.413149817    -0.221793297     0.173536630
   68    11.330590036     2.444375829    15.333282288     0.471020712    -0.151199378     0.072651479
   21    22.224452437     6.657685887    14.399785032    -0.412026502     0.204751400    -0.195732024
   22    29.556758107     2.041308342    16.439711752     0.457549887    -0.168531340     0.110658431
   23    29.440831689     9.568634053    17.304551384     0.408439034    -0.217921425     0.188912171
   24    24.387622263     4.456347701    18.132662804     0.417340637    -0.202089292     0.187047349
   25    25.666281073     0.700197984    11.417678875     0.402067336    -0.223059190     0.196434353
   26    22.225507030     1.282575867    17.954824083     0.104418344     0.382747545    -0.304304332
   27    20.890130207     3.282834344    13.243027508     0.416985986    -0.213949843     0.174207212
   28    27.883290925     5.721648091    11.512306372     0.423183499    -0.198268058     0.177779367
   29    28.595920746     8.374460994    15.591821198     0.400591808    -0.224755499     0.197512453
   30    27.365887476     9.288122374    12.288866472     0.413506212    -0.217160553     0.178476630
   31    25.878256537    10.251873066    19.303257687     0.406918538    -0.227681946     0.180494418
   32    28.005131426     0.902860303    18.532186190     0.405738632    -0.227193394     0.183737107
   33    21.068354757     8.277186891    15.934403575     0.408206892    -0.225096471     0.180827852
   34    30.665658728     3.261952852    18.652636049     0.483349518     0.104641176    -0.073644198
   35    28.037947940     7.863597117    10.828848549     0.415843889    -0.212900142     0.178177973
   36    27.551716309     2.850356993    16.162919256     0.449300726    -0.175538789     0.131586441
   37    28.057275670     5.463236878    18.099630515     0.410037930    -0.214555922     0.189300428
   38    26.142323859     6.380443649    14.798769261     0.426757754    -0.197288005     0.170162460
   39    28.328830560     6.075784362    14.224295252     0.434120547    -0.184822594     0.165468908
   40    23.095240992     9.094540110    16.771260153     0.407057457    -0.223546518     0.185286753
   41    26.594613035     2.286444674    14.212237266     0.448379338    -0.174634592     0.135862902
   42    20.878723315     8.728032140    13.661271316     0.417935369    -0.199414447     0.188583948
   43    24.416534042     7.312722634    15.805662327     0.423629851    -0.200175760     0.174549174
   44    29.356929250     4.312064023    15.089001160     0.435842121    -0.185411137     0.160200985
   45    24.696360060     9.828771473    15.264826412     0.412539499    -0.210505717     0.188410469
   46    27.788386471     1.507275113    12.564567757     0.446282864    -0.181159592     0.134211802
   47    27.212850501     2.077008853    20.129332486     0.413601238    -0.210446480     0.186135152
   48    30.417765607     3.733858720    11.050434578     0.407143783    -0.228224014     0.179297908
   49    23.657232044     5.586017327    12.140329406    -0.417560298     0.182856628    -0.205443061
   50    26.811992069     9.660103663    17.261383317     0.401915655    -0.217906298     0.202436785
   51    30.088962172     6.093716041    11.189768202     0.418302938    -0.196584394     0.190728152
   52    29.796414742     9.856097799    11.890946830     0.401887661    -0.213169960     0.207472591
   53    29.065641406     4.536259418    19.813959637     0.406635257    -0.224454862     0.185115594
   54    25.224753638     2.642968706    20.125377375     0.403502871    -0.243668970     0.166765903
   55    23.670976784    10.311277934    13.026783910     0.403555149    -0.221604536     0.195024796
   56    26.782118317     4.303899584    19.990836622     0.413979428    -0.212202212     0.183279171
   57    25.671784835     6.230067288    17.620605278     0.416318026    -0.207781309     0.183047068
   58    24.544745181     0.518199104    17.410934950     0.405012721    -0.225955879     0.186838530
   59    26.196475222     1.997228878    18.126048662     0.411389173    -0.219048291     0.181043625
   60    29.301781141     6.676544038    19.371669911     0.407363317    -0.219218324     0.189732587
   61    29.466658445     2.050040372    20.275079737     0.422824009    -0.205993522     0.169665926
   62    29.298427640     7.565950834    12.709241805     0.420384017    -0.198418602     0.184139449
   63    22.561006944     8.099582351    19.903077763     0.399564155    -0.227140191     0.196864979
   64    23.900966428     9.421274505    10.969896602     0.406127500    -0.212222136     0.200055540
   65    25.027912138     4.147898421    13.816849173     0.376152427    -0.267570493     0.192133764
   66    21.426221713     7.029645872    18.410205120     0.396159820    -0.231771525     0.198341517
   67    28.257205180     3.058549931    18.522001224     0.413146534    -0.221800139     0.173535703
   68    21.420245986     2.589036041    15.621369157     0.471041400    -0.151058530     0.072810163
   21    32.314108387     6.802346099    14.687871902    -0.412013659     0.204767179    -0.195742554
   22    39.646414057     2.185968553    16.727798622     0.457555562    -0.168477867     0.110716377
   23    39.530487639     9.713294265    17.592638253     0.408449646    -0.217906256     0.188906725
   24    34.477278212     4.601007913    18.420749674     0.417346670    -0.202090294     0.187032805
   25    35.755937022     0.844858196    11.705765745     0.402075260    -0.223048050     0.196430782
   26    32.315162980     1.427236078    18.242910952     0.104434317     0.382702749    -0.304355186
   27    30.979786157     3.427494556    13.531114377     0.416971088    -0.213980084     0.174205728
   28    37.972946874     5.866308303    11.800393242     0.423193382    -0.198252573     0.177773110
   29    38.685576696     8.519121205    15.879908068     0.400603943    -0.224738385     0.197507313
   30    37.455543426     9.432782586    12.576953342     0.413519150    -0.217140684     0.178470826
   31    35.967912487    10.396533278    19.591344557     0.406927804    -0.227668579     0.180490388
   32    38.094787376     1.047520515    18.820273059     0.405745339    -0.227191917     0.183724121
   33    31.158010707     8.421847102    16.222490444     0.408199884    -0.225113462     0.180822521
   34    40.755314678     3.406613063    18.940722919     0.483353637     0.104811747    -0.073374105
   35    38.127603890     8.008257329    11.116935418     0.415855540    -0.212883919     0.178170163
   36    37.641372258     2.995017205    16.451006126     0.449304924    -0.175507592     0.131613718
   37    38.146931619     5.607897089    18.387717385     0.410046101    -0.214560341     0.189277719
   38    36.231979809     6.525103860    15.086856131     0.426763965    -0.197282297     0.170153500
   39    38.418486510     6.220444574    14.512382122     0.434129307    -0.184808535     0.165461627
   40    33.184896942     9.239200322    17.059347022     0.407059578    -0.223551427     0.185276171
   41    36.684268985     2.431104886    14.500324135     0.448383780    -0.174609836     0.135880060
   42    30.968379265     8.872692352    13.949358185     0.417923429    -0.199441912     0.188581363
   43    34.506189992     7.457382846    16.093749196     0.423635376    -0.200170969     0.174541259
   44    39.446585200     4.456724235    15.377088030     0.435850982    -0.185395212     0.160195308
   45    34.786016010     9.973431684    15.552913282     0.412543606    -0.210502755     0.188404785
   46    37.878042420     1.651935325    12.852654626     0.446288226    -0.181137443     0.134223865
   47    37.302506451     2.221669064    20.417419356     0.413609271    -0.210449854     0.186113487
   48    40.507421557     3.878518932    11.338521447     0.407154384    -0.228202522     0.179301190
   49    33.746887994     5.730677539    12.428416275    -0.417394227     0.182735195    -0.205888096
   50    36.901648019     9.804763875    17.549470186     0.401924921    -0.217894625     0.202430951
   51    40.178618122     6.238376253    11.477855072     0.418314398    -0.196567392     0.190720541
   52    39.886070692    10.000758011    12.179033700     0.401902493    -0.213150083     0.207464281
   53    39.155297356     4.680919630    20.102046506     0.406645238    -0.224464239     0.185082294
   54    35.314409587     2.787628918    20.413464245     0.403513020    -0.243670488     0.166739125
   55    33.760632733    10.455938145    13.314870779     0.403560873    -0.221599086     0.195019144
   56    36.871774267     4.448559796    20.278923492     0.413988331    -0.212205624     0.183255109
   57    35.761440785     6.374727500    17.908692148     0.416324273    -0.207782020     0.183032052
   58    34.634401130     0.662859315    17.699021819     0.405018359    -0.225950142     0.186833247
   59    36.286131171     2.141889089    18.414135532     0.411395700    -0.219043220     0.181034929
   60    39.391437091     6.821204249    19.659756781     0.407370712    -0.219226282     0.189707512
   61    39.556314395     2.194700584    20.563166607     0.422829966    -0.205997194     0.169646621
   62    39.388083590     7.710611045    12.997328674     0.420394836    -0.198402613     0.184131978
   63    32.650662894     8.244242563    20.191164632     0.399566599    -0.227144011     0.196855611
   64    33.990622378     9.565934717    11.257983471     0.406132239    -0.212217319     0.200051028
   65    35.117568087     4.292558633    14.104936042     0.375992042    -0.267838646     0.192074059
   66    31.515877663     7.174306084    18.698291990     0.396160029    -0.231777552     0.198334057
   67    38.346861130     3.203210143    18.810088094     0.413156346    -0.221801482     0.173510623
   68    31.509901936     2.733696253    15.909456027     0.471043252    -0.151052258     0.072811195
   21     2.180216008    16.393458985    13.854236717    -0.412037674     0.204734458    -0.195726230
   22     9.512521679    11.777081439    15.894163437     0.457552098    -0.168612875     0.110525003
   23     9.396595261    19.304407151    16.759003068     0.408451923    -0.217908394     0.188899334
   24     4.343385834    14.192120799    17.587114488     0.417351818    -0.202074651     0.187038219
   25     5.622044644    10.435971082    10.872130559     0.402075996    -0.223046738     0.196430768
   26     2.181270601    11.018348964    17.409275767     0.104550229     0.382779483    -0.304218863
   27     0.845893778    13.018607442    12.697479192     0.416983678    -0.213957593     0.174203217
   28     7.839054496    15.457421189    10.966758056     0.423197285    -0.198250468     0.177766167
   29     8.551684317    18.110234091    15.046272882     0.400607635    -0.224742818     0.197494781
   30     7.321651047    19.023895472    11.743318157     0.413522647    -0.217139946     0.178463621
   31     5.834020109    19.987646164    18.757709372     0.406929875    -0.227664237     0.180491196
   32     7.960894997    10.638633401    17.986637874     0.405748113    -0.227190572     0.183719657
   33     1.024118329    18.012959989    15.388855259     0.408214043    -0.225095149     0.180813354
   34    10.621422300    12.997725949    18.107087734     0.483325852     0.104399470    -0.074140885
   35     7.993711512    17.599370215    10.283300233     0.415859325    -0.212883004     0.178162421
   36     7.507479880    12.586130091    15.617370941     0.449309652    -0.175577324     0.131504522
   37     8.013039241    15.199009976    17.554082199     0.410048570    -0.214537227     0.189298571
   38     6.098087431    16.116216746    14.253220946     0.426770145    -0.197269190     0.170153195
   39     8.284594131    15.811557460    13.678746936     0.434132062    -0.184806324     0.165456869
   40     3.051004564    18.830313208    16.225711837     0.407068701    -0.223539933     0.185269996
   41     6.550376607    12.022217772    13.666688950     0.448387607    -0.174666205     0.135794960
   42     0.834486886    18.463805238    13.115723000     0.417941855    -0.199411566     0.188572620
   43     4.372297614    17.048495732    15.260114011     0.423642916    -0.200156448     0.174539612
   44     9.312692822    14.047837121    14.543452845     0.435852472    -0.185396371     0.160189914
   45     4.652123632    19.564544570    14.719278096     0.412551922    -0.210491080     0.188399619
   46     7.744150042    11.243048211    12.019019441     0.446289937    -0.181182354     0.134157545
   47     7.168614072    11.812781950    19.583784171     0.413613488    -0.210439490     0.186115834
   48    10.373529178    13.469631818    10.504886262     0.407156336    -0.228209536     0.179287829
   49     3.612995616    15.321790425    11.594781090    -0.417610845     0.182538033    -0.205623560
   50     6.767755640    19.395876761    16.715835001     0.401926213    -0.217891776     0.202431453
   51    10.044725744    15.829489139    10.644219886     0.418317101    -0.196567830     0.190714161
   52     9.752178314    19.591870897    11.345398515     0.401906908    -0.213143583     0.207462406
   53     9.021404977    14.272032516    19.268411321     0.406644990    -0.224431778     0.185122200
   54     5.180517209    12.378741804    19.579829060     0.403518632    -0.243655689     0.166747171
   55     3.626740355    20.047051031    12.481235594     0.403571106    -0.221585452     0.195013461
   56     6.737881888    14.039672682    19.445288307     0.413991358    -0.212189048     0.183267465
   57     5.627548407    15.965840386    17.075056963     0.416329454    -0.207765024     0.183039559
   58     4.500508752    10.253972201    16.865386634     0.405022197    -0.225952350     0.186822256
   59     6.152238793    11.733001975    17.580500346     0.411399080    -0.219045225     0.181024823
   60     9.257544712    16.412317135    18.826121595     0.407372453    -0.219201437     0.189732481
   61     9.422422016    11.785813470    19.729531422     0.422839342    -0.205985796     0.169637092
   62     9.254191212    17.301723931    12.163693489     0.420397167    -0.198401837     0.184127491
   63     2.516770515    17.835355449    19.357529447     0.399573177    -0.227139104     0.196847920
   64     3.856729999    19.157047603    10.424348286     0.406142593    -0.212202382     0.200045853
   65     4.983675709    13.883671519    13.271300857     0.376036453    -0.267842065     0.191982327
   66     1.381985285    16.765418970    17.864656805     0.396168384    -0.231773390     0.198322229
   67     8.212968751    12.794323029    17.976452909     0.413156484    -0.221787009     0.173528794
   68     1.376009558    12.324809139    15.075820841     0.471044046    -0.151027534     0.072857333
   21    12.269871958    16.538119196    14.142323586    -0.412031440     0.204743811    -0.195729570
   22    19.602177629    11.921741651    16.182250306     0.457584752    -0.168396565     0.110719427
   23    19.486251210    19.449067363    17.047089938     0.408446331    -0.217919164     0.188899002
   24    14.433041784    14.336781011    17.875201358     0.417353109    -0.202064051     0.187046789
   25    15.711700594    10.580631293    11.160217429     0.402079673    -0.223035809     0.196435650
   26    12.270926551    11.163009176    17.697362637     0.104033835     0.382170173    -0.305160482
   27    10.935549728    13.163267653    12.985566062     0.416983557    -0.213916205     0.174254328
   28    17.928710446    15.602081400    11.254844926     0.423193841    -0.198253932     0.177770502
   29    18.641340267    18.254894303    15.334359752     0.400601282    -0.224750579     0.197498836
   30    17.411306997    19.168555683    12.031405026     0.413516265    -0.217151296     0.178464600
   31    15.923676059    20.132306376    19.045796241     0.406927095    -0.227661942     0.180500358
   32    18.050550947    10.783293613    18.274724744     0.405755284    -0.227160474     0.183741036
   33    11.113774279    18.157620200    15.676942129     0.408208622    -0.225101879     0.180817214
   34    20.711078250    13.142386161    18.395174603     0.483314572     0.104997837    -0.073365379
   35    18.083367461    17.744030427    10.571387103     0.415855042    -0.212888102     0.178166327
   36    17.597135830    12.730790302    15.905457810     0.449324885    -0.175450877     0.131621190
   37    18.102695191    15.343670187    17.842169069     0.410049186    -0.214538777     0.189295479
   38    16.187743381    16.260876958    14.541307815     0.426769256    -0.197265368     0.170159856
   39    18.374250081    15.956217672    13.966833806     0.434132456    -0.184799633     0.165463307
   40    13.140660513    18.974973419    16.513798707     0.407065061    -0.223541987     0.185275514
   41    16.640032557    12.166877983    13.954775820     0.448401024    -0.174559504     0.135887825
   42    10.924142836    18.608465450    13.403809870     0.417935365    -0.199428071     0.188569550
   43    14.461953564    17.193155943    15.548200881     0.423640559    -0.200155802     0.174546074
   44    19.402348772    14.192497332    14.831539714     0.435855430    -0.185383140     0.160197176
   45    14.741779581    19.709204782    15.007364966     0.412547694    -0.210493364     0.188406327
   46    17.833805992    11.387708423    12.307106311     0.446303539    -0.181093795     0.134231845
   47    17.258270022    11.957442162    19.871871040     0.413616602    -0.210417056     0.186134277
   48    20.463185128    13.614292029    10.792973132     0.407156688    -0.228206853     0.179290444
   49    13.702651566    15.466450637    11.882867960    -0.417562007     0.182650683    -0.205622709
   50    16.857411590    19.540536972    17.003921871     0.401923054    -0.217887720     0.202442092
   51    20.134381694    15.974149351    10.932306756     0.418313044    -0.196570764     0.190720037
   52    19.841834264    19.736531108    11.633485384     0.401897350    -0.213158255     0.207465848
   53    19.111060927    14.416692728    19.556498191     0.406649200    -0.224443277     0.185099010
   54    15.270173159    12.523402016    19.867915929     0.403526102    -0.243632538     0.166762919
   55    13.716396305    20.191711243    12.769322464     0.403565225    -0.221594117     0.195015785
   56    16.827537838    14.184332894    19.733375176     0.413995353    -0.212174064     0.183275787
   57    15.717204356    16.110500598    17.363143832     0.416329818    -0.207758923     0.183045657
   58    14.590164702    10.398632413    17.153473504     0.405031787    -0.225904021     0.186859907
   59    16.241894743    11.877662187    17.868587216     0.411407573    -0.219003340     0.181056195
   60    19.347200662    16.556977347    19.114208465     0.407370944    -0.219208432     0.189727639
   61    19.512077966    11.930473681    20.017618291     0.422837125    -0.205961611     0.169671979
   62    19.343847161    17.446384143    12.451780359     0.420393447    -0.198404103     0.184133543
   63    12.606426465    17.980015661    19.645616317     0.399576858    -0.227121425     0.196860846
   64    13.946385949    19.301707815    10.712435156     0.406137370    -0.212212131     0.200046116
   65    15.073331659    14.028331731    13.559387727     0.376030552    -0.267962200     0.191826180
   66    11.471641234    16.910079181    18.152743674     0.396168503    -0.231760431     0.198337137
   67    18.302624701    12.938983240    18.264539778     0.413164293    -0.221774052     0.173526761
   68    11.465665507    12.469469350    15.363907711     0.471035212    -0.151178639     0.072600605
   21    22.359527908    16.682779408    14.430410456    -0.412018018     0.204765505    -0.195735129
   22    29.691833578    12.066401863    16.470337176     0.457537483    -0.168570470     0.110650116
   23    29.575907160    19.593727574    17.335176807     0.408439221    -0.217922081     0.188911011
   24    24.522697734    14.481441222    18.163288228     0.417338774    -0.202089912     0.187050836
   25    25.801356544    10.725291505    11.448304299     0.402062002    -0.223064438     0.196439310
   26    22.360582501    11.307669388    17.985449506     0.104238225     0.383269597    -0.303708427
   27    21.025205678    13.307927865    13.273652931     0.416974859    -0.213999029     0.174173427
   28    28.018366396    15.746741612    11.542931795     0.423181875    -0.198265377     0.177786222
   29    28.730996217    18.399554515    15.622446622     0.400594026    -0.224753158     0.197510618
   30    27.500962947    19.313215895    12.319491896     0.413507436    -0.217154960     0.178480597
   31    26.013332008    20.276966587    19.333883111     0.406920457    -0.227659349     0.180518593
   32    28.140206897    10.927953824    18.562811613     0.405735098    -0.227203623     0.183732261
   33    21.203430228    18.302280412    15.965028998     0.408202369    -0.225110111     0.180821082
   34    30.800734199    13.287046373    18.683261473     0.483359444     0.104564492    -0.073687956
   35    28.173023411    17.888690638    10.859473972     0.415844373    -0.212896164     0.178181594
   36    27.686791780    12.875450514    16.193544680     0.449290877    -0.175566147     0.131583568
   37    28.192351141    15.488330399    18.130255939     0.410037634    -0.214554796     0.189302346
   38    26.277399330    16.405537170    14.829394685     0.426756037    -0.197286840     0.170168118
   39    28.463906031    16.100877883    14.254920676     0.434118609    -0.184821716     0.165474973
   40    23.230316463    19.119633631    16.801885576     0.407056986    -0.223551481     0.185281799
   41    26.729688506    12.311538195    14.242862689     0.448369585    -0.174660624     0.135861628
   42    21.013798786    18.753125661    13.691896739     0.417930013    -0.199434147     0.188574986
   43    24.551609513    17.337816155    15.836287750     0.423628213    -0.200174147     0.174554999
   44    29.492004722    14.337157544    15.119626584     0.435837970    -0.185413010     0.160210111
   45    24.831435531    19.853864994    15.295451836     0.412538364    -0.210500713     0.188418546
   46    27.923461942    11.532368635    12.595193180     0.446272948    -0.181182827     0.134213410
   47    27.347925972    12.102102374    20.159957910     0.413598756    -0.210451779     0.186134677
   48    30.552841078    13.758952241    11.081060001     0.407139986    -0.228221572     0.179309636
   49    23.792307516    15.611110848    12.170954829    -0.417525920     0.182902161    -0.205472397
   50    26.947067540    19.685197184    17.292008740     0.401916534    -0.217884997     0.202457965
   51    30.224037643    16.118809562    11.220393626     0.418303020    -0.196579605     0.190732908
   52    29.931490213    19.881191320    11.921572254     0.401890381    -0.213158714     0.207478877
   53    29.200716877    14.561352939    19.844585060     0.406635273    -0.224454134     0.185116442
   54    25.359829109    12.668062227    20.156002799     0.403504594    -0.243668118     0.166762976
   55    23.806052255    20.336371455    13.057409333     0.403554215    -0.221600875     0.195030888
   56    26.917193788    14.328993105    20.021462046     0.413978735    -0.212205230     0.183277241
   57    25.806860306    16.255160809    17.651230702     0.416316254    -0.207781438     0.183050952
   58    24.679820652    10.543292625    17.441560373     0.405012079    -0.225972721     0.186819552
   59    26.331550693    12.022322399    18.156674085     0.411386672    -0.219061491     0.181033338
   60    29.436856612    16.701637559    19.402295334     0.407363562    -0.219217681     0.189732803
   61    29.601733916    12.075133893    20.305705161     0.422822775    -0.205997049     0.169664719
   62    29.433503111    17.591044355    12.739867228     0.420383966    -0.198414460     0.184144028
   63    22.696082415    18.124675872    19.933703186     0.399567047    -0.227135640     0.196864359
   64    24.036041899    19.446368026    11.000522025     0.406126986    -0.212217771     0.200061213
   65    25.162987609    14.172991942    13.847474596     0.376117379    -0.267709842     0.192008223
   66    21.561297184    17.054739393    18.440830544     0.396162301    -0.231770701     0.198337524
   67    28.392280651    13.083643452    18.552626648     0.413145383    -0.221802389     0.173535566
   68    21.555321457    12.614129562    15.651994581     0.471087718    -0.150862576     0.072916701
   21    32.449183858    16.827439620    14.718497325    -0.412022583     0.204759833    -0.195731453
   22    39.781489528    12.211062074    16.758424046     0.457551976    -0.168508518     0.110684544
   23    39.665563110    19.738387786    17.623263677     0.408461986    -0.217886297     0.188903063
   24    34.612353683    14.626101434    18.451375097     0.417349483    -0.202084934     0.187032320
   25    35.891012493    10.869951717    11.736391168     0.402072755    -0.223049786     0.196433939
   26    32.450238451    11.452329599    18.273536376     0.104327849     0.382694275    -0.304402351
   27    31.114861628    13.452588077    13.561739801     0.416968949    -0.213965834     0.174228350
   28    38.108022345    15.891401824    11.831018665     0.423196926    -0.198238747     0.177780093
   29    38.820652167    18.544214726    15.910533491     0.400621392    -0.224711569     0.197502433
   30    37.590618897    19.457876107    12.607578765     0.413525718    -0.217125743     0.178473786
   31    36.102987958    20.421626799    19.621969981     0.406936745    -0.227644897     0.180500099
   32    38.229862847    11.072614036    18.850898483     0.405744172    -0.227196521     0.183721005
   33    31.293086178    18.446940623    16.253115868     0.408203705    -0.225109839     0.180818404
   34    40.890390149    13.431706584    18.971348343     0.483361958     0.104666595    -0.073526332
   35    38.262679361    18.033350850    11.147560842     0.415859909    -0.212871309     0.178175032
   36    37.776447729    13.020110726    16.481631549     0.449304997    -0.175517421     0.131600358
   37    38.282007090    15.632990610    18.418342808     0.410047511    -0.214553494     0.189282427
   38    36.367055280    16.550197381    15.117481555     0.426769705    -0.197267370     0.170156409
   39    38.553561981    16.245538095    14.543007545     0.434131846    -0.184798636     0.165466021
   40    33.319972413    19.264293843    17.089972446     0.407066706    -0.223541427     0.185272575
   41    36.819344456    12.456198407    14.530949559     0.448384163    -0.174613883     0.135873596
   42    31.103454736    18.897785873    13.979983609     0.417925773    -0.199438516     0.188579763
   43    34.641265463    17.482476367    16.124374620     0.423640976    -0.200158037     0.174542499
   44    39.581660671    14.481817756    15.407713454     0.435851978    -0.185387512     0.160201511
   45    34.921091481    19.998525205    15.583538705     0.412550710    -0.210487142     0.188406674
   46    38.013117892    11.677028846    12.883280050     0.446288779    -0.181138660     0.134220386
   47    37.437581922    12.246762585    20.448044779     0.413607319    -0.210457215     0.186109501
   48    40.642497028    13.903612453    11.369146871     0.407154982    -0.228192580     0.179312485
   49    33.881963465    15.755771060    12.459041699    -0.417509142     0.182860984    -0.205543126
   50    37.036723490    19.829857396    17.580095610     0.401934655    -0.217870014     0.202438113
   51    40.313693593    16.263469774    11.508480495     0.418318021    -0.196555415     0.190724939
   52    40.021146163    20.025851532    12.209659124     0.401909844    -0.213130196     0.207470472
   53    39.290372827    14.706013151    20.132671930     0.406645272    -0.224457222     0.185090730
   54    35.449485059    12.812722439    20.444089669     0.403515496    -0.243667252     0.166737864
   55    33.895708204    20.481031666    13.345496203     0.403566433    -0.221585017     0.195023625
   56    37.006849738    14.473653317    20.309548916     0.413988840    -0.212203354     0.183256587
   57    35.896516256    16.399821021    17.939317572     0.416326929    -0.207775226     0.183033723
   58    34.769476601    10.687952836    17.729647243     0.405019525    -0.225951079     0.186829586
   59    36.421206642    12.166982610    18.444760955     0.411396521    -0.219044016     0.181032101
   60    39.526512562    16.846297770    19.690382204     0.407372297    -0.219216530     0.189715379
   61    39.691389866    12.219794105    20.593792030     0.422828373    -0.206006817     0.169638906
   62    39.523159061    17.735704566    13.027954098     0.420400043    -0.198388346     0.184135461
   63    32.785738365    18.269336084    20.221790056     0.399570256    -0.227135487     0.196858023
   64    34.125697849    19.591028238    11.288608895     0.406137610    -0.212202391     0.200055959
   65    35.252643558    14.317652154    14.135561466     0.376012454    -0.267757782     0.192146830
   66    31.650953134    17.199399605    18.728917413     0.396162371    -0.231772597     0.198335168
   67    38.481936601    13.228303664    18.840713518     0.413155359    -0.221800470     0.173514267
   68    31.644977407    12.758789774    15.940081450     0.471029004    -0.151104440     0.072795094
   21     2.315291480    26.418552506    13.884862140    -0.412037908     0.204727523    -0.195732990
   22     9.647597150    21.802174960    15.924788860     0.457552625    -0.168550429     0.110618030
   23     9.531670732    29.329500672    16.789628491     0.408446476    -0.217912518     0.188906354
   24     4.478461305    24.217214320    17.617739912     0.417348858    -0.202076162     0.187043192
   25     5.757120115    20.461064603    10.902755983     0.402077706    -0.223048015     0.196425817
   26     2.316346072    21.043442485    17.439901190     0.104352677     0.382791525    -0.304271535
   27     0.980969250    23.043700963    12.728104616     0.416975499    -0.213959362     0.174220622
   28     7.974129967    25.482514710    10.997383480     0.423195123    -0.198251703     0.177769935
   29     8.686759788    28.135327612    15.076898306     0.400602907    -0.224743605     0.197503476
   30     7.456726518    29.048988993    11.773943580     0.413519575    -0.217142570     0.178467548
   31     5.969095580    30.012739685    18.788334795     0.406923744    -0.227659459     0.180511044
   32     8.095970468    20.663726922    18.017263298     0.405746002    -0.227189747     0.183725340
   33     1.159193800    28.038053510    15.419480683     0.408207806    -0.225096930     0.180825217
   34    10.756497771    23.022819470    18.137713157     0.483345622     0.104574548    -0.073764312
   35     8.128786983    27.624463736    10.313925657     0.415857576    -0.212884406     0.178164828
   36     7.642555351    22.611223612    15.647996364     0.449306560    -0.175543408     0.131560354
   37     8.148114712    25.224103497    17.584707623     0.410045434    -0.214542614     0.189299258
   38     6.233162902    26.141310267    14.283846369     0.426766751    -0.197271547     0.170158976
   39     8.419669602    25.836650981    13.709372360     0.434131311    -0.184804981     0.165460339
   40     3.186080035    28.855406729    16.256337261     0.407063254    -0.223539895     0.185282009
   41     6.685452078    22.047311293    13.697314374     0.448385843    -0.174636175     0.135839399
   42     0.969562358    28.488898759    13.146348424     0.417933567    -0.199419282     0.188582829
   43     4.507373085    27.073589253    15.290739435     0.423638209    -0.200159891     0.174547089
   44     9.447768293    24.072930642    14.574078268     0.435851995    -0.185393577     0.160194445
   45     4.787199103    29.589638091    14.749903520     0.412544888    -0.210492440     0.188413503
   46     7.879225513    21.268141732    12.049644865     0.446289413    -0.181157909     0.134192294
   47     7.303689543    21.837875471    19.614409594     0.413608874    -0.210438483     0.186127225
   48    10.508604649    23.494725339    10.535511686     0.407153559    -0.228208775     0.179295104
   49     3.748071087    25.346883946    11.625406514    -0.417688264     0.182499788    -0.205500223
   50     6.902831111    29.420970282    16.746460425     0.401919368    -0.217887717     0.202449412
   51    10.179801215    25.854582660    10.674845310     0.418315501    -0.196568895     0.190716573
   52     9.887253785    29.616964418    11.376023938     0.401904292    -0.213145540     0.207465465
   53     9.156480448    24.297126037    19.299036745     0.406642435    -0.224442970     0.185114244
   54     5.315592680    22.403835325    19.610454483     0.403515357    -0.243655179     0.166755841
   55     3.761815826    30.072144552    12.511861017     0.403561848    -0.221592198     0.195024954
   56     6.872957359    24.064766203    19.475913730     0.413987292    -0.212192667     0.183272458
   57     5.762623878    25.990933907    17.105682386     0.416326125    -0.207767864     0.183043907
   58     4.635584223    20.279065722    16.896012058     0.405023857    -0.225947912     0.186824025
   59     6.287314264    21.758095496    17.611125770     0.411398110    -0.219042605     0.181030196
   60     9.392620183    26.437410656    18.856747019     0.407370730    -0.219205898     0.189731028
   61     9.557497487    21.810906991    19.760156845     0.422832911    -0.205982484     0.169657141
   62     9.389266683    27.326817452    12.194318913     0.420395839    -0.198401733     0.184130635
   63     2.651845986    27.860448970    19.388154871     0.399576127    -0.227124715     0.196858533
   64     3.991805470    29.182141124    10.454973710     0.406134208    -0.212209311     0.200055526
   65     5.118751180    23.908765040    13.301926281     0.376143087    -0.267735570     0.191921970
   66     1.517060756    26.790512491    17.895282228     0.396170354    -0.231759744     0.198334242
   67     8.348044222    22.819416550    18.007078332     0.413154220    -0.221790088     0.173530249
   68     1.511085029    22.349902660    15.106446265     0.471062593    -0.151003867     0.072786442
   21    12.404947429    26.563212718    14.172949010    -0.412038654     0.204740983    -0.195717340
   22    19.737253100    21.946835172    16.212875730     0.457545803    -0.168617257     0.110544376
   23    19.621326681    29.474160884    17.077715361     0.408445051    -0.217913679     0.188908097
   24    14.568117255    24.361874532    17.905826782     0.417343639    -0.202083500     0.187046908
   25    15.846776065    20.605724814    11.190842853     0.402069685    -0.223059186     0.196429550
   26    12.406002022    21.188102697    17.727988060     0.104360401     0.382669853    -0.304421895
   27    11.070625199    23.188361175    13.016191485     0.416979362    -0.213952402     0.174219922
   28    18.063785917    25.627174921    11.285470349     0.423189717    -0.198262111     0.177771198
   29    18.776415738    28.279987824    15.364985175     0.400601091    -0.224746880     0.197503432
   30    17.546382468    29.193649204    12.062030450     0.413514321    -0.217154289     0.178465462
   31    16.058751530    30.157399897    19.076421665     0.406925917    -0.227661520     0.180503547
   32    18.185626418    20.808387134    18.305350167     0.405741498    -0.227191204     0.183733485
   33    11.248849750    28.182713721    15.707567552     0.408210349    -0.225101254     0.180814092
   34    20.846153721    23.167479682    18.425800027     0.483337622     0.104389318    -0.074078428
   35    18.218442932    27.769123948    10.602012526     0.415851322    -0.212895080     0.178166671
   36    17.732211301    22.755883824    15.936083234     0.449302328    -0.175586023     0.131517934
   37    18.237770662    25.368763708    17.872794493     0.410040640    -0.214544269     0.189307767
   38    16.322818852    26.285970479    14.571933239     0.426763394    -0.197281198     0.170156206
   39    18.509325552    25.981311193    13.997459230     0.434127031    -0.184815334     0.165460005
   40    13.275735984    29.000066940    16.544424130     0.407064060    -0.223546598     0.185272151
   41    16.775108028    22.191971504    13.985401243     0.448380321    -0.174676032     0.135806376
   42    11.059218307    28.633558971    13.434435293     0.417936882    -0.199425630     0.188568768
   43    14.597029035    27.218249464    15.578826304     0.423635459    -0.200169124     0.174543173
   44    19.537424243    24.217590853    14.862165138     0.435848225    -0.185404182     0.160192429
   45    14.876855053    29.734298303    15.037990389     0.412545851    -0.210498738     0.188404358
   46    17.968881463    21.412801944    12.337731734     0.446282821    -0.181193482     0.134166185
   47    17.393345493    21.982535683    19.902496464     0.413605529    -0.210440473     0.186132408
   48    20.598260599    23.639385550    10.823598555     0.407149721    -0.228216277     0.179294270
   49    13.837727037    25.491544158    11.913493383    -0.417736066     0.182641444    -0.205277085
   50    16.992487061    29.565630493    17.034547294     0.401922511    -0.217888069     0.202442793
   51    20.269457165    25.999242872    10.962932180     0.418309860    -0.196578544     0.190719000
   52    19.976909735    29.761624629    11.664110808     0.401899048    -0.213158904     0.207461892
   53    19.246136398    24.441786249    19.587123614     0.406638652    -0.224435205     0.185131967
   54    15.405248630    22.548495537    19.898541353     0.403510581    -0.243656198     0.166765909
   55    13.851471776    30.216804764    12.799947887     0.403562479    -0.221600349     0.195014386
   56    16.962613309    24.209426415    19.764000600     0.413983634    -0.212190979     0.183282674
   57    15.852279828    26.135594119    17.393769256     0.416321050    -0.207775602     0.183046668
   58    14.725240173    20.423725934    17.184098927     0.405019733    -0.225945168     0.186836284
   59    16.376970214    21.902755708    17.899212639     0.411393930    -0.219043696     0.181038376
   60    19.482276133    26.582070868    19.144833888     0.407365321    -0.219207050     0.189741308
   61    19.647153437    21.955567202    20.048243715     0.422828985    -0.205992162     0.169655174
   62    19.478922633    27.471477664    12.482405782     0.420390931    -0.198411392     0.184131432
   63    12.741501936    28.005109182    19.676241740     0.399571640    -0.227132684     0.196858448
   64    14.081461420    29.326801336    10.743060579     0.406134914    -0.212217738     0.200045154
   65    15.208407130    24.053425252    13.590013150     0.375972812    -0.267830085     0.192123633
   66    11.606716706    26.935172702    18.183369098     0.396165958    -0.231767553     0.198333899
   67    18.437700172    22.964076761    18.295165202     0.413150080    -0.221788949     0.173541560
   68    11.600740978    22.494562871    15.394533135     0.471041822    -0.151085314     0.072751840
   21    22.494603379    26.707872929    14.461035879    -0.412020801     0.204759515    -0.195735537
   22    29.826909049    22.091495384    16.500962600     0.457532591    -0.168620141     0.110594649
   23    29.710982631    29.618821095    17.365802231     0.408447654    -0.217908753     0.188908150
   24    24.657773205    24.506534743    18.193913651     0.417337246    -0.202085284     0.187059245
   25    25.936432015    20.750385026    11.478929722     0.402063213    -0.223058327     0.196443771
   26    22.495657972    21.332762909    18.016074930     0.104173217     0.382192398    -0.305085090
   27    21.160281149    23.333021386    13.304278355     0.416982816    -0.213922286     0.174248636
   28    28.153441867    25.771835133    11.573557219     0.423186392    -0.198264781     0.177776135
   29    28.866071688    28.424648036    15.653072045     0.400602208    -0.224742370     0.197506299
   30    27.636038418    29.338309416    12.350117319     0.413513830    -0.217149420     0.178472524
   31    26.148407479    30.302060108    19.364508535     0.406923842    -0.227661742     0.180507946
   32    28.275282368    20.953047345    18.593437037     0.405735315    -0.227192754     0.183745221
   33    21.338505699    28.327373933    15.995654422     0.408201488    -0.225110545     0.180822531
   34    30.935809670    23.312139894    18.713886897     0.483361566     0.104387318    -0.073924856
   35    28.308098882    27.913784159    10.890099396     0.415848831    -0.212894308     0.178173409
   36    27.821867251    22.900544035    16.224170103     0.449290078    -0.175590816     0.131553377
   37    28.327426612    25.513423920    18.160881362     0.410036510    -0.214547608     0.189312928
   38    26.412474801    26.430630691    14.860020109     0.426755738    -0.197287676     0.170167897
   39    28.598981502    26.125971404    14.285546099     0.434119594    -0.184823588     0.165470297
   40    23.365391934    29.144727152    16.832511000     0.407057470    -0.223549771     0.185282801
   41    26.864763978    22.336631716    14.273488113     0.448369259    -0.174678456     0.135839775
   42    21.148874257    28.778219182    13.722522163     0.417929244    -0.199435967     0.188574764
   43    24.686684984    27.362909676    15.866913174     0.423627689    -0.200175380     0.174554858
   44    29.627080193    24.362251065    15.150252007     0.435838076    -0.185417225     0.160204943
   45    24.966511002    29.878958515    15.326077259     0.412539852    -0.210501964     0.188413890
   46    28.058537413    21.557462156    12.625818604     0.446273001    -0.181194376     0.134197641
   47    27.483001443    22.127195895    20.190583333     0.413599460    -0.210448204     0.186137154
   48    30.687916549    23.784045762    11.111685425     0.407140758    -0.228230521     0.179296494
   49    23.927382987    25.636204369    12.201580253    -0.417593211     0.182711610    -0.205505177
   50    27.082143011    29.710290705    17.322634164     0.401920701    -0.217887845     0.202446627
   51    30.359113114    26.143903083    11.251019049     0.418306380    -0.196579865     0.190725272
   52    30.066565684    29.906284841    11.952197678     0.401894894    -0.213159126     0.207469712
   53    29.335792348    24.586446460    19.875210484     0.406635207    -0.224439931     0.185133805
   54    25.494904580    22.693155748    20.186628223     0.403507021    -0.243661273     0.166767106
   55    23.941127726    30.361464976    13.088034757     0.403559276    -0.221598575     0.195023031
   56    27.052269259    24.354086626    20.052087469     0.413979311    -0.212195054     0.183287721
   57    25.941935777    26.280254330    17.681856126     0.416314911    -0.207777684     0.183058265
   58    24.814896123    20.568386146    17.472185797     0.405013120    -0.225934948     0.186862975
   59    26.466626164    22.047415920    18.187299509     0.411386934    -0.219041036     0.181057490
   60    29.571932083    26.726731080    19.432920758     0.407362854    -0.219208637     0.189744772
   61    29.736809387    22.100227414    20.336330584     0.422823281    -0.206000114     0.169659737
   62    29.568578582    27.616137876    12.770492652     0.420386999    -0.198413048     0.184138625
   63    22.831157886    28.149769393    19.964328610     0.399565476    -0.227136206     0.196866895
   64    24.171117370    29.471461547    11.031147449     0.406131721    -0.212216717     0.200052717
   65    25.298063080    24.198085463    13.878100020     0.376188704    -0.267653534     0.191946985
   66    21.696372655    27.079832914    18.471455967     0.396159442    -0.231770511     0.198343456
   67    28.527356122    23.108736973    18.583252072     0.413144304    -0.221794811     0.173547821
   68    21.690396928    22.639223083    15.682620004     0.471029397    -0.151183310     0.072628601
   21    32.584259329    26.852533141    14.749122749    -0.412031637     0.204742227    -0.195730811
   22    39.916564999    22.236155595    16.789049469     0.457567954    -0.168494964     0.110639121
   23    39.800638581    29.763481307    17.653889100     0.408447514    -0.217901222     0.188917140
   24    34.747429155    24.651194955    18.482000521     0.417354112    -0.202065884     0.187042571
   25    36.026087965    20.895045238    11.767016592     0.402078240    -0.223038281     0.196435777
   26    32.585313922    21.477423120    18.304161799     0.104418183     0.382337510    -0.304819408
   27    31.249937099    23.477681598    13.592365224     0.416968431    -0.213952185     0.174246349
   28    38.243097817    25.916495345    11.861644089     0.423192959    -0.198248320     0.177778859
   29    38.955727638    28.569308247    15.941158915     0.400603753    -0.224730057     0.197517176
   30    37.725694368    29.482969628    12.638204189     0.413515560    -0.217140083     0.178479877
   31    36.238063429    30.446720320    19.652595404     0.406930887    -0.227647712     0.180509757
   32    38.364938318    21.097707557    18.881523906     0.405753830    -0.227173576     0.183728047
   33    31.428161649    28.472034144    16.283741291     0.408205165    -0.225102972     0.180823657
   34    41.025465620    23.456800105    19.001973766     0.483328699     0.104721736    -0.073666321
   35    38.397754832    28.058444371    11.178186266     0.415853446    -0.212880611     0.178179003
   36    37.911523200    23.045204247    16.512256973     0.449316368    -0.175507290     0.131575046
   37    38.417082561    25.658084132    18.448968232     0.410050605    -0.214536015     0.189295536
   38    36.502130751    26.575290902    15.148106978     0.426767901    -0.197266100     0.170162407
   39    38.688637452    26.270631616    14.573632969     0.434130193    -0.184798649     0.165470344
   40    33.455047884    29.289387364    17.120597869     0.407062536    -0.223540049     0.185283400
   41    36.954419927    22.481291928    14.561574982     0.448394331    -0.174604162     0.135852532
   42    31.238530207    28.922879394    14.010609033     0.417929190    -0.199432545     0.188578503
   43    34.776340934    27.507569888    16.155000044     0.423639190    -0.200155683     0.174549533
   44    39.716736142    24.506911277    15.438338877     0.435852666    -0.185385383     0.160202101
   45    35.056166952    30.023618726    15.614164129     0.412545632    -0.210489292     0.188415391
   46    38.148193363    21.702122367    12.913905474     0.446297887    -0.181127277     0.134205460
   47    37.572657393    22.271856106    20.478670203     0.413614768    -0.210431438     0.186122094
   48    40.777572499    23.928705974    11.399772295     0.407156374    -0.228203302     0.179295677
   49    34.017038936    25.780864581    12.489667122    -0.417659387     0.182536502    -0.205526305
   50    37.171798961    29.854950917    17.610721034     0.401925897    -0.217875271     0.202449844
   51    40.448769064    26.288563295    11.539105919     0.418311798    -0.196563779     0.190729968
   52    40.156221634    30.050945053    12.240284547     0.401896975    -0.213144243     0.207480971
   53    39.425448298    24.731106672    20.163297354     0.406649433    -0.224437138     0.185105941
   54    35.584560530    22.837815960    20.474715092     0.403523671    -0.243643471     0.166752828
   55    34.030783676    30.506125187    13.376121626     0.403560485    -0.221591046     0.195029083
   56    37.141925209    24.498746838    20.340174339     0.413994112    -0.212182290     0.183269068
   57    36.031591727    26.424914542    17.969942995     0.416330509    -0.207759850     0.183043033
   58    34.904552072    20.713046357    17.760272666     0.405027183    -0.225925219     0.186844256
   59    36.556282113    22.192076131    18.475386379     0.411404037    -0.219022319     0.181041273
   60    39.661588033    26.871391291    19.721007628     0.407374786    -0.219201313     0.189727616
   61    39.826465337    22.244887626    20.624417454     0.422836224    -0.205979458     0.169652559
   62    39.658234532    27.760798087    13.058579522     0.420394634    -0.198395095     0.184140539
   63    32.920813836    28.294429605    20.252415479     0.399566987    -0.227129926     0.196871073
   64    34.260773320    29.616121759    11.319234319     0.406132325    -0.212209506     0.200059142
   65    35.387719029    24.342745675    14.166186889     0.375948613    -0.267941397     0.192015750
   66    31.786028605    27.224493126    18.759542837     0.396158768    -0.231768533     0.198347114
   67    38.617012072    23.253397185    18.871338941     0.413162172    -0.221779590     0.173524732
   68    31.780052878    22.783883295    15.970706874     0.471018741    -0.151182019     0.072700364
   21     2.450366951    36.443646027    13.915487564    -0.412037815     0.204743645    -0.195716322
   22     9.782672621    31.827268481    15.955414284     0.457541254    -0.168586859     0.110609548
   23     9.666746203    39.354594193    16.820253915     0.408441694    -0.217925960     0.188901186
   24     4.613536776    34.242307841    17.648365336     0.417342453    -0.202078442     0.187055019
   25     5.892195586    30.486158124    10.933381407     0.402072486    -0.223048278     0.196436203
   26     2.451421543    31.068536007    17.470526614     0.104713696     0.382370157    -0.304677051
   27     1.116044721    33.068794484    12.758730039     0.416986741    -0.213928932     0.174231083
   28     8.109205438    35.507608231    11.028008903     0.423189026    -0.198253504     0.177782442
   29     8.821835260    38.160421133    15.107523729     0.400597040    -0.224755545     0.197501789
   30     7.591801989    39.074082514    11.804569004     0.413516357    -0.217140857     0.178477089
   31     6.104171051    40.037833206    18.818960219     0.406922832    -0.227673721     0.180495112
   32     8.231045939    30.688820443    18.047888721     0.405739681    -0.227190546     0.183738310
   33     1.294269271    38.063147031    15.450106106     0.408208815    -0.225096728     0.180823191
   34    10.891573242    33.047912991    18.168338581     0.483360844     0.104441444    -0.073853092
   35     8.263862454    37.649557257    10.344551080     0.415852028    -0.212884612     0.178177531
   36     7.777630822    32.636317133    15.678621788     0.449298519    -0.175565142     0.131558815
   37     8.283190183    35.249197018    17.615333047     0.410039482    -0.214545704     0.189308647
   38     6.368238373    36.166403788    14.314471793     0.426761471    -0.197276984     0.170165915
   39     8.554745073    35.861744502    13.739997784     0.434125308    -0.184809178     0.165471401
   40     3.321155506    38.880500250    16.286962684     0.407061709    -0.223541874     0.185283015
   41     6.820527549    32.072404814    13.727939797     0.448378837    -0.174654049     0.135839542
   42     1.104637829    38.513992280    13.176973847     0.417935150    -0.199419769     0.188578805
   43     4.642448556    37.098682774    15.321364858     0.423633436    -0.200165302     0.174552469
   44     9.582843764    34.098024163    14.604703692     0.435846286    -0.185398181     0.160204649
   45     4.922274574    39.614731612    14.780528943     0.412544180    -0.210496175     0.188410882
   46     8.014300984    31.293235253    12.080270288     0.446283229    -0.181171530     0.134194472
   47     7.438765014    31.862968992    19.645035018     0.413605340    -0.210440749     0.186132518
   48    10.643680120    33.519818860    10.566137109     0.407150419    -0.228207441     0.179303932
   49     3.883146558    35.371977467    11.656031937    -0.417802601     0.182858649    -0.204948044
   50     7.037906582    39.446063803    16.777085848     0.401921714    -0.217894970     0.202436947
   51    10.314876686    35.879676181    10.705470734     0.418309158    -0.196570088     0.190729257
   52    10.022329256    39.642057939    11.406649362     0.401897248    -0.213145521     0.207479129
   53     9.291555919    34.322219558    19.329662168     0.406637659    -0.224440483     0.185127750
   54     5.450668151    32.428928846    19.641079907     0.403507115    -0.243659795     0.166769038
   55     3.896891297    40.097238073    12.542486441     0.403562634    -0.221588224     0.195027842
   56     7.008032830    34.089859724    19.506539154     0.413982086    -0.212193146     0.183283663
   57     5.897699349    36.016027428    17.136307810     0.416320120    -0.207770905     0.183054116
   58     4.770659694    30.304159243    16.926637481     0.405014079    -0.225940830     0.186853786
   59     6.422389735    31.783189017    17.641751193     0.411389926    -0.219040943     0.181050806
   60     9.527695654    36.462504177    18.887372442     0.407363251    -0.219211290     0.189740855
   61     9.692572958    31.836000512    19.790782269     0.422829093    -0.205990695     0.169656688
   62     9.524342154    37.351910974    12.224944336     0.420389910    -0.198404522     0.184141167
   63     2.786921457    37.885542491    19.418780294     0.399573027    -0.227128081     0.196860943
   64     4.126880941    39.207234645    10.485599133     0.406134501    -0.212204635     0.200059891
   65     5.253826651    33.933858561    13.332551704     0.376211245    -0.267555480     0.192039486
   66     1.652136227    36.815606012    17.925907652     0.396167594    -0.231761969     0.198337155
   67     8.483119693    32.844510071    18.037703756     0.413149587    -0.221791094     0.173539993
   68     1.646160500    32.374996181    15.137071689     0.471012654    -0.151165427     0.072774263
   21    12.540022900    36.588306239    14.203574433    -0.412026890     0.204746018    -0.195736840
   22    19.872328571    31.971928693    16.243501154     0.457542572    -0.168560495     0.110644267
   23    19.756402152    39.499254405    17.108340785     0.408446893    -0.217904428     0.188914785
   24    14.703192726    34.386968053    17.936452205     0.417340646    -0.202088585     0.187048094
   25    15.981851536    30.630818335    11.221468276     0.402068912    -0.223062496     0.196427374
   26    12.541077493    31.213196218    17.758613484     0.104427095     0.382380980    -0.304761822
   27    11.205700670    33.213454696    13.046816909     0.416981433    -0.213933002     0.174238788
   28    18.198861388    35.652268442    11.316095773     0.423187791    -0.198259924     0.177778222
   29    18.911491209    38.305081345    15.395610599     0.400604563    -0.224734990     0.197509920
   30    17.681457939    39.218742725    12.092655873     0.413513360    -0.217148812     0.178474352
   31    16.193827001    40.182493418    19.107047089     0.406921678    -0.227659788     0.180515288
   32    18.320701889    30.833480655    18.335975591     0.405741263    -0.227192006     0.183733013
   33    11.383925221    38.207807242    15.738192976     0.408200316    -0.225111147     0.180824426
   34    20.981229192    33.192573203    18.456425451     0.483364600     0.104530258    -0.073702703
   35    18.353518403    37.794217469    10.632637950     0.415850312    -0.212891928     0.178172795
   36    17.867286772    32.780977345    15.966708657     0.449296597    -0.175556301     0.131577177
   37    18.372846133    35.393857229    17.903419916     0.410039689    -0.214554727     0.189297973
   38    16.457894323    36.311064000    14.602558662     0.426758243    -0.197286813     0.170162616
   39    18.644401023    36.006404714    14.028084653     0.434122325    -0.184819419     0.165467789
   40    13.410811455    39.025160461    16.575049554     0.407057591    -0.223550414     0.185281759
   41    16.910183499    32.217065025    14.016026667     0.448375116    -0.174652155     0.135854259
   42    11.194293778    38.658652492    13.465060717     0.417928189    -0.199432991     0.188580251
   43    14.732104506    37.243342985    15.609451728     0.423630221    -0.200174094     0.174550188
   44    19.672499714    34.242684374    14.892790561     0.435842734    -0.185408988     0.160201805
   45    15.011930524    39.759391824    15.068615813     0.412540856    -0.210498980     0.188415025
   46    18.103956934    31.437895465    12.368357158     0.446278446    -0.181176091     0.134204221
   47    17.528420964    32.007629204    19.933121887     0.413603880    -0.210447753     0.186127842
   48    20.733336070    33.664479071    10.854223979     0.407144807    -0.228216690     0.179304904
   49    13.972802508    35.516637679    11.944118807    -0.417668088     0.182527847    -0.205516310
   50    17.127562532    39.590724014    17.065172718     0.401917422    -0.217887405     0.202453611
   51    20.404532636    36.024336393    10.993557603     0.418308269    -0.196576553     0.190724541
   52    20.111985206    39.786718150    11.694736231     0.401893790    -0.213159610     0.207471353
   53    19.381211869    34.466879770    19.617749038     0.406638354    -0.224451150     0.185113291
   54    15.540324101    32.573589058    19.929166776     0.403510464    -0.243663252     0.166755886
   55    13.986547247    40.241898285    12.830573311     0.403559284    -0.221597196     0.195024580
   56    17.097688780    34.234519936    19.794626023     0.413983199    -0.212199599     0.183273677
   57    15.987355299    36.160687640    17.424394680     0.416318598    -0.207780000     0.183047251
   58    14.860315644    30.448819455    17.214724351     0.405017935    -0.225941444     0.186844684
   59    16.512045685    31.927849229    17.929838063     0.411392879    -0.219041075     0.181043937
   60    19.617351604    36.607164389    19.175459312     0.407363877    -0.219218703     0.189730946
   61    19.782228908    31.980660723    20.078869138     0.422825711    -0.205998215     0.169655985
   62    19.613998104    37.496571185    12.513031206     0.420388130    -0.198410388     0.184138911
   63    12.876577407    38.030202703    19.706867164     0.399562725    -0.227138118     0.196870273
   64    14.216536891    39.351894857    10.773686003     0.406131932    -0.212213736     0.200055452
   65    15.343482601    34.078518773    13.620638574     0.376221892    -0.267438420     0.192181631
   66    11.741792177    36.960266223    18.213994521     0.396156550    -0.231773638     0.198345580
   67    18.572775643    32.989170282    18.325790626     0.413148321    -0.221798910     0.173533018
   68    11.735816449    32.519656392    15.425158558     0.471027029    -0.151142206     0.072729438
   21    22.629678850    36.732966450    14.491661303    -0.412019749     0.204763083    -0.195734019
   22    29.961984520    32.116588905    16.531588023     0.457552738    -0.168560322     0.110602488
   23    29.846058102    39.643914616    17.396427654     0.408443817    -0.217909279     0.188915840
   24    24.792848676    34.531628264    18.224539075     0.417344989    -0.202078846     0.187048925
   25    26.071507486    30.775478547    11.509555146     0.402071016    -0.223050926     0.196436205
   26    22.630733443    31.357856430    18.046700353     0.104492367     0.382575105    -0.304495705
   27    21.295356620    33.358114907    13.334903778     0.416972901    -0.213967342     0.174217038
   28    28.288517338    35.796928654    11.604182643     0.423191236    -0.198255186     0.177775306
   29    29.001147159    38.449741557    15.683697469     0.400596990    -0.224744406     0.197514566
   30    27.771113889    39.363402937    12.380742743     0.413514445    -0.217148798     0.178471857
   31    26.283482950    40.327153629    19.395133958     0.406921628    -0.227668648     0.180504224
   32    28.410357839    30.978140866    18.624062460     0.405740900    -0.227189163     0.183737329
   33    21.473581170    38.352467454    16.026279845     0.408200437    -0.225111958     0.180823145
   34    31.070885142    33.337233415    18.744512320     0.483332813     0.104573720    -0.073849368
   35    28.443174353    37.938877680    10.920724820     0.415853051    -0.212887781     0.178171357
   36    27.956942722    32.925637556    16.254795527     0.449305462    -0.175551243     0.131553650
   37    28.462502083    35.538517441    18.191506786     0.410042697    -0.214543520     0.189304158
   38    26.547550273    36.455724212    14.890645532     0.426762234    -0.197279970     0.170160538
   39    28.734056973    36.151064925    14.316171523     0.434125613    -0.184813730     0.165465516
   40    23.500467405    39.169820673    16.863136423     0.407056842    -0.223551789     0.185281745
   41    26.999839449    32.361725237    14.304113536     0.448383585    -0.174644691     0.135835902
   42    21.283949728    38.803312703    13.753147587     0.417928118    -0.199435036     0.188578245
   43    24.821760455    37.388003197    15.897538598     0.423633137    -0.200170110     0.174547680
   44    29.762155664    34.387344586    15.180877431     0.435845792    -0.185403350     0.160200012
   45    25.101586473    39.904052036    15.356702683     0.412540118    -0.210504183     0.188410828
   46    28.193612884    31.582555677    12.656444028     0.446286426    -0.181165822     0.134191544
   47    27.618076914    32.152289416    20.221208757     0.413606415    -0.210436480     0.186134954
   48    30.822992020    33.809139283    11.142310849     0.407150528    -0.228212655     0.179297049
   49    24.062458458    35.661297890    12.232205676    -0.417607839     0.182722144    -0.205466082
   50    27.217218482    39.735384226    17.353259587     0.401919024    -0.217893162     0.202444234
   51    30.494188585    36.168996604    11.281644473     0.418310755    -0.196571862     0.190723925
   52    30.201641155    39.931378362    11.982823101     0.401897000    -0.213158352     0.207466428
   53    29.470867819    34.611539981    19.905835907     0.406641571    -0.224437337     0.185122971
   54    25.629980051    32.718249269    20.217253646     0.403508814    -0.243656772     0.166769345
   55    24.076203197    40.386558497    13.118660180     0.403558124    -0.221600913     0.195022757
   56    27.187344730    34.379180147    20.082712893     0.413985450    -0.212188584     0.183281346
   57    26.077011248    36.305347851    17.712481549     0.416322368    -0.207771943     0.183047823
   58    24.949971594    30.593479667    17.502811220     0.405014168    -0.225947516     0.186845509
   59    26.601701635    32.072509441    18.217924933     0.411391165    -0.219042440     0.181046179
   60    29.707007554    36.751824601    19.463546182     0.407368153    -0.219207034     0.189735248
   61    29.871884858    32.125320935    20.366956008     0.422831221    -0.205981966     0.169661981
   62    29.703654053    37.641231397    12.801118076     0.420390209    -0.198407049     0.184137761
   63    22.966233357    38.174862914    19.994954033     0.399563468    -0.227143513     0.196862539
   64    24.306192841    39.496555068    11.061772872     0.406130147    -0.212218868     0.200053632
   65    25.433138551    34.223178984    13.908725443     0.376176545    -0.267632824     0.191999682
   66    21.831448126    37.104926435    18.502081391     0.396157643    -0.231779364     0.198336704
   67    28.662431593    33.133830494    18.613877495     0.413152322    -0.221787650     0.173537884
   68    21.825472399    32.664316604    15.713245428     0.471032049    -0.151098297     0.072788140
   21    32.719334800    36.877626662    14.779748173    -0.412021881     0.204759099    -0.195733700
   22    40.051640470    32.261249116    16.819674893     0.457529043    -0.168599726     0.110640441
   23    39.935714052    39.788574828    17.684514524     0.408452502    -0.217894798     0.188913765
   24    34.882504626    34.676288476    18.512625944     0.417346145    -0.202070354     0.187055519
   25    36.161163436    30.920138759    11.797642015     0.402068025    -0.223047693     0.196445998
   26    32.720389393    31.502516641    18.334787223     0.103870517     0.382622341    -0.304649076
   27    31.385012570    33.502775119    13.622990648     0.416971750    -0.213954491     0.174235574
   28    38.378173288    35.941588866    11.892269512     0.423192491    -0.198244788     0.177783913
   29    39.090803109    38.594401768    15.971784338     0.400609346    -0.224724051     0.197512666
   30    37.860769839    39.508063149    12.668829613     0.413519661    -0.217134961     0.178476605
   31    36.373138900    40.471813841    19.683220828     0.406928726    -0.227664101     0.180493960
   32    38.500013789    31.122801078    18.912149330     0.405745611    -0.227176643     0.183742405
   33    31.563237120    38.497127665    16.314366715     0.408204288    -0.225106266     0.180821538
   34    41.160541091    33.481893626    19.032599190     0.483387982     0.104377486    -0.073765844
   35    38.532830303    38.083537892    11.208811689     0.415854833    -0.212877471     0.178179516
   36    38.046598671    33.070297768    16.542882397     0.449290212    -0.175571632     0.131578522
   37    38.552158033    35.683177653    18.479593655     0.410046535    -0.214535587     0.189304835
   38    36.637206222    36.600384423    15.178732402     0.426763611    -0.197270688     0.170167847
   39    38.823712923    36.295725137    14.604258392     0.434127040    -0.184803607     0.165473078
   40    33.590123355    39.314480885    17.151223293     0.407061829    -0.223544940     0.185279052
   41    37.089495398    32.506385449    14.592200406     0.448371771    -0.174658013     0.135857768
   42    31.373605678    38.947972915    14.041234456     0.417929149    -0.199432558     0.188578581
   43    34.911416405    37.532663409    16.185625467     0.423635102    -0.200160949     0.174553414
   44    39.851811613    34.532004798    15.468964301     0.435846640    -0.185394000     0.160208525
   45    35.191242423    40.048712247    15.644789552     0.412545756    -0.210495634     0.188408033
   46    38.283268834    31.727215888    12.944530897     0.446276840    -0.181174312     0.134211960
   47    37.707732864    32.296949627    20.509295627     0.413608370    -0.210430075     0.186137852
   48    40.912647970    33.953799495    11.430397718     0.407150292    -0.228203159     0.179309670
   49    34.152114407    35.805958102    12.520292546    -0.417643026     0.182695823    -0.205417963
   50    37.306874432    39.880044438    17.641346457     0.401926042    -0.217889264     0.202434497
   51    40.583844535    36.313656816    11.569731342     0.418312384    -0.196561674     0.190730852
   52    40.291297105    40.076038574    12.270909971     0.401901469    -0.213143065     0.207473477
   53    39.560523769    34.756200193    20.193922777     0.406646412    -0.224429331     0.185122044
   54    35.719636001    32.862909481    20.505340516     0.403510612    -0.243653982     0.166769071
   55    34.165859147    40.531218708    13.406747050     0.403565227    -0.221593574     0.195016398
   56    37.277000680    34.523840359    20.370799763     0.413988401    -0.212181233     0.183283191
   57    36.166667198    36.450008063    18.000568419     0.416324036    -0.207763022     0.183054156
   58    35.039627543    30.738139878    17.790898090     0.405023370    -0.225929958     0.186846792
   59    36.691357584    32.217169652    18.506011802     0.411397090    -0.219028134     0.181050024
   60    39.796663504    36.896484812    19.751633051     0.407372711    -0.219200444     0.189733076
   61    39.961540808    32.269981147    20.655042877     0.422830557    -0.205981643     0.169664029
   62    39.793310003    37.785891608    13.089204945     0.420393208    -0.198395900     0.184142928
   63    33.055889307    38.319523126    20.283040903     0.399569973    -0.227133555     0.196860826
   64    34.395848791    39.641215280    11.349859742     0.406137158    -0.212211171     0.200047563
   65    35.522794500    34.367839196    14.196812313     0.376194486    -0.267643331     0.191949879
   66    31.921104076    37.249586647    18.790168261     0.396162705    -0.231769284     0.198338372
   67    38.752087543    33.278490706    18.901964365     0.413155494    -0.221777531     0.173543263
   68    31.915128349    32.808976816    16.001332297     0.471042878    -0.151096610     0.072721531
   21     2.332011708     6.400501200    23.835596655    -0.412034258     0.204743194    -0.195724282
   22     9.664317379     1.784123655    25.875523375     0.457540028    -0.168547130     0.110675143
   23     9.548390960     9.311449367    26.740363006     0.408453228    -0.217905308     0.188900073
   24     4.495181534     4.199163015    27.568474427     0.417343768    -0.202077078     0.187053559
   25     5.773840344     0.443013297    20.853490498     0.402068036    -0.223061825     0.196429929
   26     2.333066301     1.025391180    27.390635705     0.104443050     0.382140419    -0.305057944
   27     0.997689478     3.025649657    22.678839130     0.416969977    -0.213974909     0.174214743
   28     7.990850196     5.464463404    20.948117995     0.423193596    -0.198248552     0.177777086
   29     8.703480017     8.117276307    25.027632821     0.400608345    -0.224737928     0.197498906
   30     7.473446747     9.030937687    21.724678095     0.413521163    -0.217143116     0.178463204
   31     5.985815809     9.994688379    28.739069310     0.406928031    -0.227654479     0.180507661
   32     8.112690697     0.645675616    27.967997812     0.405742300    -0.227178154     0.183747849
   33     1.175914029     8.020002204    25.370215197     0.408205798    -0.225117299     0.180804391
   34    10.773218000     3.004768165    28.088447672     0.483364036     0.104585988    -0.073627306
   35     8.145507211     7.606412431    20.264660171     0.415856259    -0.212882157     0.178170590
   36     7.659275580     2.593172306    25.598730879     0.449295257    -0.175544469     0.131597536
   37     8.164834941     5.206052191    27.535442138     0.410043493    -0.214541212     0.189305052
   38     6.249883131     6.123258962    24.234580884     0.426763014    -0.197278591     0.170160181
   39     8.436389831     5.818599676    23.660106875     0.434128155    -0.184807129     0.165466221
   40     3.202800263     8.837355423    26.207071775     0.407062386    -0.223553531     0.185267462
   41     6.702172307     2.029259987    23.648048888     0.448373989    -0.174639988     0.135873621
   42     0.986282586     8.470847453    23.097082939     0.417931714    -0.199451237     0.188553140
   43     4.524093314     7.055537947    25.241473950     0.423634221    -0.200168774     0.174546581
   44     9.464488522     4.054879336    24.524812783     0.435848109    -0.185396754     0.160201340
   45     4.803919332     9.571586786    24.700638035     0.412543805    -0.210502771     0.188404331
   46     7.895945742     1.250090427    22.000379380     0.446279131    -0.181162402     0.134220421
   47     7.320409772     1.819824166    29.565144109     0.413608110    -0.210428770     0.186139903
   48    10.525324878     3.476674033    20.486246201     0.407149347    -0.228204150     0.179310555
   49     3.764791316     5.328832640    21.576141028    -0.417685248     0.182310884    -0.205673953
   50     6.919551340     9.402918976    26.697194939     0.401925120    -0.217882125     0.202444012
   51    10.196521444     5.836531355    20.625579825     0.418313804    -0.196565629     0.190723661
   52     9.903974014     9.598913112    21.326758453     0.401904603    -0.213147147     0.207463210
   53     9.173200677     4.279074732    29.249771259     0.406643766    -0.224437196     0.185118321
   54     5.332312909     2.385784020    29.561188998     0.403514961    -0.243644166     0.166772889
   55     3.778536055    10.054093247    22.462595532     0.403560929    -0.221606803     0.195010260
   56     6.889677588     4.046714898    29.426648245     0.413986718    -0.212182803     0.183285174
   57     5.779344107     5.972882602    27.056416901     0.416321235    -0.207771115     0.183051339
   58     4.652304452     0.261014417    26.846746572     0.405018290    -0.225924625     0.186864251
   59     6.304034493     1.740044191    27.561860285     0.411393358    -0.219025824     0.181061299
   60     9.409340412     6.419359351    28.807481534     0.407369544    -0.219204803     0.189734839
   61     9.574217716     1.792855685    29.710891360     0.422830802    -0.205977268     0.169668730
   62     9.405986912     7.308766147    22.145053428     0.420394838    -0.198400414     0.184134342
   63     2.668566215     7.842397665    29.338889385     0.399571119    -0.227136005     0.196855674
   64     4.008525699     9.164089819    20.405708224     0.406133635    -0.212225890     0.200039103
   65     5.135471409     3.890713734    23.252660795     0.376082670    -0.267338486     0.192592728
   66     1.533780985     6.772461185    27.846016743     0.396164621    -0.231774641     0.198328287
   67     8.364764451     2.801365244    27.957812847     0.413153637    -0.221782426     0.173541429
   68     1.527805257     2.331851354    25.057180780     0.471031378    -0.151173984     0.072635168
   21    12.421667658     6.545161412    24.123683524    -0.412029299     0.204745265    -0.195732555
   22    19.753973328     1.928783866    26.163610245     0.457538775    -0.168619838     0.110569522
   23    19.638046910     9.456109578    27.028449876     0.408450593    -0.217902443     0.188909075
   24    14.584837484     4.343823226    27.856561296     0.417348510    -0.202070487     0.187050099
   25    15.863496294     0.587673509    21.141577367     0.402065887    -0.223061013     0.196435249
   26    12.422722251     1.170051392    27.678722575     0.104380251     0.382671176    -0.304413427
   27    11.087345428     3.170309869    22.966926000     0.416985659    -0.213952293     0.174204983
   28    18.080506146     5.609123616    21.236204864     0.423190182    -0.198260141     0.177772287
   29    18.793135967     8.261936519    25.315719690     0.400605016    -0.224735125     0.197508847
   30    17.563102697     9.175597899    22.012764964     0.413521331    -0.217136956     0.178470309
   31    16.075471758    10.139348591    29.027156180     0.406933415    -0.227647249     0.180504642
   32    18.202346647     0.790335828    28.256084682     0.405742107    -0.227192288     0.183730800
   33    11.265569978     8.164662416    25.658302067     0.408209478    -0.225097866     0.180820277
   34    20.862873950     3.149428376    28.376534542     0.483356528     0.104371633    -0.073979923
   35    18.235163161     7.751072642    20.552747041     0.415853339    -0.212888663     0.178169631
   36    17.748931530     2.737832518    25.886817749     0.449298312    -0.175584623     0.131533520
   37    18.254490891     5.350712403    27.823529007     0.410044954    -0.214534306     0.189309711
   38    16.339539081     6.267919174    24.522667754     0.426766322    -0.197270432     0.170161344
   39    18.526045781     5.963259887    23.948193744     0.434127391    -0.184810915     0.165463995
   40    13.292456213     8.982015635    26.495158645     0.407066641    -0.223536592     0.185278552
   41    16.791828257     2.173920199    23.936135758     0.448377070    -0.174673172     0.135820789
   42    11.075938536     8.615507665    23.385169808     0.417934731    -0.199425302     0.188573883
   43    14.613749263     7.200198159    25.529560819     0.423638793    -0.200157494     0.174548419
   44    19.554144472     4.199539548    24.812899653     0.435847637    -0.185401961     0.160196598
   45    14.893575281     9.716246998    24.988724904     0.412550165    -0.210484810     0.188410471
   46    17.985601692     1.394750638    22.288466249     0.446280369    -0.181189573     0.134179623
   47    17.410065722     1.964484377    29.853230979     0.413606426    -0.210440050     0.186130893
   48    20.614980828     3.621334245    20.774333070     0.407145542    -0.228227652     0.179289283
   49    13.854447266     5.473492852    21.864227898    -0.417512622     0.182824594    -0.205568427
   50    17.009207290     9.547579188    26.985281809     0.401930041    -0.217874972     0.202441938
   51    20.286177393     5.981191566    20.913666694     0.418309461    -0.196576470     0.190722013
   52    19.993629963     9.743573324    21.614845323     0.401903297    -0.213141950     0.207471080
   53    19.262856627     4.423734943    29.537858129     0.406641693    -0.224428408     0.185133528
   54    15.421968859     2.530444231    29.849275868     0.403512091    -0.243652731     0.166767321
   55    13.868192005    10.198753458    22.750682402     0.403569185    -0.221580478     0.195023088
   56    16.979333538     4.191375109    29.714735115     0.413985747    -0.212187429     0.183282013
   57    15.869000056     6.117542813    27.344503771     0.416325793    -0.207762260     0.183051025
   58    14.741960402     0.405674629    27.134833442     0.405017253    -0.225949167     0.186836824
   59    16.393690443     1.884704402    27.849947154     0.411393751    -0.219043913     0.181038520
   60    19.498996362     6.564019562    29.095568403     0.407369881    -0.219195901     0.189744398
   61    19.663873666     1.937515897    29.998978229     0.422830633    -0.205988745     0.169655216
   62    19.495642861     7.453426359    22.433140297     0.420391246    -0.198406709     0.184135760
   63    12.758222165     7.987057876    29.626976255     0.399572931    -0.227122819     0.196867209
   64    14.098181649     9.308750030    20.693795094     0.406141289    -0.212197380     0.200053806
   65    15.225127359     4.035373946    23.540747665     0.375976162    -0.267678354     0.192328428
   66    11.623436934     6.917121397    28.134103612     0.396165928    -0.231760947     0.198341676
   67    18.454420401     2.946025456    28.245899717     0.413151242    -0.221786062     0.173542484
   68    11.617461207     2.476511566    25.345267649     0.471030992    -0.151080727     0.072831441
   21    22.511323608     6.689821624    24.411770394    -0.412027836     0.204753591    -0.195726925
   22    29.843629278     2.073444078    26.451697114     0.457548916    -0.168559467     0.110619599
   23    29.727702860     9.600769790    27.316536745     0.408444226    -0.217910094     0.188914016
   24    24.674493434     4.488483438    28.144648166     0.417340285    -0.202085067     0.187052700
   25    25.953152244     0.732333720    21.429664237     0.402066386    -0.223062026     0.196433077
   26    22.512378201     1.314711603    27.966809444     0.104352590     0.382284190    -0.304908733
   27    21.177001378     3.314970081    23.255012870     0.416983654    -0.213926903     0.174240961
   28    28.170162096     5.753783827    21.524291734     0.423185980    -0.198269931     0.177771373
   29    28.882791917     8.406596730    25.603806560     0.400601319    -0.224742555     0.197507892
   30    27.652758647     9.320258110    22.300851834     0.413510498    -0.217158687     0.178468969
   31    26.165127708    10.284008803    29.315243049     0.406923533    -0.227663002     0.180507051
   32    28.292002597     0.934996040    28.544171552     0.405741908    -0.227186300     0.183738643
   33    21.355225928     8.309322627    25.946388936     0.408203946    -0.225107025     0.180821364
   34    30.952529899     3.294088588    28.664621411     0.483335992     0.104569334    -0.073834769
   35    28.324819111     7.895732854    20.840833911     0.415847953    -0.212901287     0.178167117
   36    27.838587479     2.882492730    26.174904618     0.449300327    -0.175554836     0.131566392
   37    28.344146841     5.495372614    28.111615877     0.410037464    -0.214551536     0.189306410
   38    26.429195030     6.412579385    24.810754623     0.426758736    -0.197287826     0.170160204
   39    28.615701731     6.107920099    24.236280614     0.434122125    -0.184823659     0.165463578
   40    23.382112163     9.126675846    26.783245515     0.407059322    -0.223549524     0.185279029
   41    26.881484206     2.318580410    24.224222628     0.448377817    -0.174648897     0.135849534
   42    21.165594486     8.760167877    23.673256678     0.417930855    -0.199430846     0.188576612
   43    24.703405213     7.344858371    25.817647689     0.423630940    -0.200175062     0.174547331
   44    29.643800421     4.344199759    25.100986522     0.435842566    -0.185413499     0.160197040
   45    24.983231231     9.860907209    25.276811774     0.412541169    -0.210503634     0.188409141
   46    28.075257642     1.539410850    22.576553119     0.446280822    -0.181171003     0.134203189
   47    27.499721672     2.109144589    30.141317848     0.413605474    -0.210442144     0.186130642
   48    30.704636778     3.765994456    21.062419940     0.407141707    -0.228233908     0.179290027
   49    23.944103215     5.618153064    22.152314767    -0.417531540     0.183010145    -0.205364797
   50    27.098863240     9.692239399    27.273368679     0.401920117    -0.217891986     0.202443330
   51    30.375833343     6.125851778    21.201753564     0.418307105    -0.196584619     0.190718782
   52    30.083285913     9.888233536    21.902932192     0.401895064    -0.213163056     0.207465344
   53    29.352512577     4.568395155    29.825944999     0.406636338    -0.224446430     0.185123441
   54    25.511624809     2.675104443    30.137362737     0.403510048    -0.243656341     0.166766990
   55    23.957847955    10.343413670    23.038769271     0.403557057    -0.221606690     0.195018402
   56    27.068989488     4.336035321    30.002821984     0.413982615    -0.212194455     0.183280953
   57    25.958656006     6.262203025    27.632590640     0.416317336    -0.207778857     0.183051421
   58    24.831616351     0.550334840    27.422920312     0.405018769    -0.225933689     0.186852254
   59    26.483346392     2.029364614    28.138034024     0.411393430    -0.219034604     0.181050511
   60    29.588652312     6.708679774    29.383655273     0.407362619    -0.219214336     0.189738693
   61    29.753529616     2.082176108    30.287065099     0.422828576    -0.205992090     0.169656281
   62    29.585298811     7.598086570    22.721227167     0.420387782    -0.198417060     0.184132514
   63    22.847878115     8.131718088    29.915063125     0.399567933    -0.227128375     0.196870943
   64    24.187837599     9.453410242    20.981881964     0.406129161    -0.212225325     0.200048784
   65    25.314783308     4.180034158    23.828834535     0.376026138    -0.267617144     0.192315906
   66    21.713092884     7.061781608    28.422190482     0.396162714    -0.231762743     0.198345998
   67    28.544076351     3.090685667    28.533986586     0.413148986    -0.221793079     0.173538888
   68    21.707117157     2.621171777    25.633354519     0.471021953    -0.151186757     0.072669695
   21    32.600979558     6.834481835    24.699857264    -0.412032372     0.204761191    -0.195709425
   22    39.933285228     2.218104290    26.739783984     0.457547000    -0.168614657     0.110543385
   23    39.817358810     9.745430001    27.604623615     0.408443095    -0.217948567     0.188872072
   24    34.764149383     4.633143649    28.432735035     0.417346228    -0.202092071     0.187031870
   25    36.042808193     0.876993932    21.717751106     0.402073433    -0.223061115     0.196419687
   26    32.602034150     1.459371815    28.254896314     0.104227628     0.382504843    -0.304674657
   27    31.266657328     3.459630292    23.543099739     0.416966326    -0.213980353     0.174216796
   28    38.259818045     5.898444039    21.812378603     0.423193927    -0.198280831     0.177740293
   29    38.972447867     8.551256942    25.891893429     0.400598150    -0.224781292     0.197470233
   30    37.742414596     9.464918322    22.588938704     0.413515997    -0.217170569     0.178441767
   31    36.254783658    10.428669014    29.603329919     0.406921478    -0.227689545     0.180478205
   32    38.381658547     1.079656251    28.832258421     0.405744933    -0.227195289     0.183720847
   33    31.444881878     8.453982839    26.234475806     0.408201974    -0.225118480     0.180811555
   34    41.042185849     3.438748800    28.952708281     0.483345210     0.104374854    -0.074049295
   35    38.414475061     8.040393065    21.128920780     0.415853721    -0.212910849     0.178142228
   36    37.928243429     3.027152941    26.462991488     0.449303775    -0.175588359     0.131509869
   37    38.433802790     5.640032826    28.399702747     0.410044830    -0.214552690     0.189289146
   38    36.518850980     6.557239597    25.098841493     0.426762327    -0.197299523     0.170137635
   39    38.705357681     6.252580310    24.524367483     0.434126212    -0.184836310     0.165438721
   40    33.471768113     9.271336058    27.071332384     0.407057368    -0.223565520     0.185264022
   41    36.971140156     2.463240622    24.512309497     0.448383443    -0.174675656     0.135796551
   42    31.255250436     8.904828088    23.961343547     0.417928400    -0.199442225     0.188570016
   43    34.793061163     7.489518582    26.105734558     0.423634140    -0.200187034     0.174525835
   44    39.733456371     4.488859971    25.389073392     0.435846099    -0.185428016     0.160170624
   45    35.072887181    10.005567421    25.564898643     0.412540729    -0.210520687     0.188391049
   46    38.164913591     1.684071062    22.864639988     0.446286069    -0.181191771     0.134157692
   47    37.589377621     2.253804801    30.429404718     0.413609212    -0.210448434     0.186115225
   48    40.794292728     3.910654668    21.350506809     0.407151810    -0.228245968     0.179251728
   49    34.033759165     5.762813275    22.440401637    -0.417795346     0.182478074    -0.205301733
   50    37.188519189     9.836899611    27.561455548     0.401917647    -0.217918211     0.202420005
   51    40.465489293     6.270511990    21.489840433     0.418313193    -0.196595672     0.190694033
   52    40.172941863    10.032893747    22.191019062     0.401900117    -0.213174362     0.207443938
   53    39.442168527     4.713055366    30.114031868     0.406642918    -0.224442429     0.185113838
   54    35.601280758     2.819764655    30.425449607     0.403508595    -0.243671062     0.166748996
   55    34.047503904    10.488073882    23.326856141     0.403559897    -0.221614275     0.195003904
   56    37.158645437     4.480695532    30.290908854     0.413986673    -0.212200466     0.183264827
   57    36.048311956     6.406863237    27.920677510     0.416323874    -0.207784024     0.183030684
   58    34.921272301     0.694995052    27.711007181     0.405022427    -0.225943406     0.186832574
   59    36.573002342     2.174024826    28.426120893     0.411397247    -0.219045059     0.181029188
   60    39.678308261     6.853339986    29.671742142     0.407370131    -0.219215456     0.189721269
   61    39.843185566     2.226836320    30.575151969     0.422833732    -0.205998346     0.169635835
   62    39.674954761     7.742746782    23.009314036     0.420392860    -0.198429905     0.184107076
   63    32.937534065     8.276378300    30.203149994     0.399568711    -0.227140748     0.196855089
   64    34.277493549     9.598070453    21.269968833     0.406132538    -0.212230633     0.200036296
   65    35.404439258     4.324694369    24.116921404     0.376189138    -0.267892874     0.191611952
   66    31.802748834     7.206441820    28.710277352     0.396160973    -0.231775904     0.198334097
   67    38.633732300     3.235345879    28.822073456     0.413152942    -0.221796416     0.173525205
   68    31.796773107     2.765831989    25.921441389     0.471040293    -0.151093993     0.072743713
   21     2.467087179    16.425594721    23.866222078    -0.412029568     0.204750585    -0.195726424
   22     9.799392850    11.809217176    25.906148799     0.457560507    -0.168559367     0.110571795
   23     9.683466431    19.336542888    26.770988430     0.408450095    -0.217897008     0.188916421
   24     4.630257005    14.224256536    27.599099850     0.417346250    -0.202079334     0.187045584
   25     5.908915815    10.468106818    20.884115921     0.402074578    -0.223059358     0.196419338
   26     2.468141772    11.050484701    27.421261129     0.104274563     0.382124432    -0.305135600
   27     1.132764949    13.050743178    22.709464554     0.416987714    -0.213922421     0.174236748
   28     8.125925667    15.489556925    20.978743418     0.423192646    -0.198254001     0.177773271
   29     8.838555488    18.142369828    25.058258244     0.400605928    -0.224728246     0.197514826
   30     7.608522218    19.056031208    21.755303518     0.413518329    -0.217145905     0.178466378
   31     6.120891280    20.019781900    28.769694734     0.406928953    -0.227647447     0.180514451
   32     8.247766168    10.670769137    27.998623236     0.405745178    -0.227185354     0.183732593
   33     1.310989500    18.045095725    25.400840621     0.408209823    -0.225103428     0.180812574
   34    10.908293471    13.029861686    28.119073096     0.483328050     0.104550180    -0.073913840
   35     8.280582682    17.631505952    20.295285595     0.415854916    -0.212886431     0.178168619
   36     7.794351051    12.618265827    25.629356302     0.449313785    -0.175546589     0.131531431
   37     8.299910412    15.231145712    27.566067561     0.410044017    -0.214541692     0.189303372
   38     6.384958602    16.148352483    24.265206308     0.426765625    -0.197275253     0.170157504
   39     8.571465302    15.843693197    23.690732298     0.434128977    -0.184807944     0.165463153
   40     3.337875734    18.862448944    26.237697199     0.407065874    -0.223542452     0.185273168
   41     6.837247778    12.054353508    23.678674312     0.448392363    -0.174639776     0.135813245
   42     1.121358057    18.495940974    23.127708362     0.417935210    -0.199433535     0.188564114
   43     4.659168785    17.080631468    25.272099373     0.423637491    -0.200164050     0.174544061
   44     9.599563993    14.079972857    24.555438207     0.435850683    -0.185394972     0.160196399
   45     4.938994803    19.596680307    24.731263458     0.412547495    -0.210493281     0.188406855
   46     8.031021213    11.275183948    22.031004803     0.446295072    -0.181160906     0.134169424
   47     7.455485243    11.844917687    29.595769533     0.413609374    -0.210439439     0.186125034
   48    10.660400349    13.501767554    20.516871624     0.407153172    -0.228203696     0.179302447
   49     3.899866787    15.353926161    21.606766452    -0.417564323     0.182612071    -0.205652298
   50     7.054626811    19.428012497    26.727820363     0.401926282    -0.217873466     0.202451022
   51    10.331596915    15.861624876    20.656205248     0.418312822    -0.196569681     0.190721638
   52    10.039049485    19.624006633    21.357383877     0.401902709    -0.213148595     0.207465393
   53     9.308276148    14.304168253    29.280396683     0.406642821    -0.224437332     0.185120232
   54     5.467388380    12.410877541    29.591814422     0.403512882    -0.243656214     0.166760317
   55     3.913611526    20.079186768    22.493220956     0.403563044    -0.221603465     0.195009676
   56     7.024753059    14.071808419    29.457273669     0.413986745    -0.212190906     0.183275733
   57     5.914419578    15.997976123    27.087042325     0.416324103    -0.207770650     0.183045344
   58     4.787379923    10.286107938    26.877371996     0.405019548    -0.225932213     0.186852350
   59     6.439109964    11.765137712    27.592485708     0.411395998    -0.219033088     0.181046510
   60     9.544415883    16.444452872    28.838106957     0.407368407    -0.219205178     0.189736845
   61     9.709293187    11.817949206    29.741516783     0.422833732    -0.205988079     0.169648303
   62     9.541062383    17.333859668    22.175678851     0.420394290    -0.198402143     0.184133731
   63     2.803641686    17.867491186    29.369514809     0.399570996    -0.227134365     0.196857815
   64     4.143601170    19.189183340    20.436333648     0.406136026    -0.212222379     0.200037973
   65     5.270546880    13.915807255    23.283286219     0.375969348    -0.267927595     0.191994409
   66     1.668856456    16.797554706    27.876642166     0.396164989    -0.231770005     0.198332968
   67     8.499839922    12.826458765    27.988438271     0.413154503    -0.221787670     0.173532666
   68     1.662880728    12.356944875    25.087806203     0.471006173    -0.151277790     0.072582474
   21    12.556743129    16.570254933    24.154308948    -0.412027235     0.204752642    -0.195729184
   22    19.889048799    11.953877388    26.194235668     0.457552462    -0.168547976     0.110622439
   23    19.773122381    19.481203099    27.059075299     0.408445391    -0.217909814     0.188911819
   24    14.719912955    14.368916747    27.887186720     0.417352011    -0.202067326     0.187045702
   25    15.998571765    10.612767030    21.172202791     0.402081326    -0.223033085     0.196435359
   26    12.557797722    11.195144913    27.709347998     0.103988506     0.382559056    -0.304688299
   27    11.222420899    13.195403390    22.997551424     0.416978795    -0.213934406     0.174243378
   28    18.215581617    15.634217137    21.266830288     0.423194643    -0.198260485     0.177761284
   29    18.928211438    18.287030040    25.346345114     0.400600886    -0.224742805     0.197508486
   30    17.698178168    19.200691420    22.043390388     0.413517068    -0.217149890     0.178464449
   31    16.210547229    20.164442112    29.057781603     0.406928078    -0.227658459     0.180502536
   32    18.337422118    10.815429349    28.286710106     0.405747939    -0.227177876     0.183735741
   33    11.400645449    18.189755937    25.688927490     0.408205903    -0.225103053     0.180821890
   34    20.997949421    13.174521897    28.407159965     0.483344589     0.104552220    -0.073802720
   35    18.370238632    17.776166163    20.583372465     0.415855268    -0.212890902     0.178162453
   36    17.884007001    12.762926039    25.917443172     0.449307271    -0.175537774     0.131565446
   37    18.389566362    15.375805924    27.854154431     0.410050173    -0.214530108     0.189303165
   38    16.474614552    16.293012695    24.553293177     0.426768467    -0.197270266     0.170156157
   39    18.661121252    15.988353408    23.978819168     0.434132294    -0.184805077     0.165457653
   40    13.427531684    19.007109156    26.525784069     0.407062838    -0.223542978     0.185279204
   41    16.926903728    12.199013720    23.966761181     0.448385462    -0.174629651     0.135849042
   42    11.211014007    18.640601186    23.415795232     0.417933502    -0.199425719     0.188576166
   43    14.748824734    17.225291680    25.560186243     0.423639245    -0.200159997     0.174544452
   44    19.689219943    14.224633069    24.843525076     0.435854417    -0.185392267     0.160189370
   45    15.028650752    19.741340519    25.019350328     0.412546365    -0.210494505     0.188407962
   46    18.120677163    11.419844159    22.319091673     0.446289695    -0.181149042     0.134203328
   47    17.545141193    11.989577899    29.883856402     0.413615220    -0.210419661     0.186134402
   48    20.750056299    13.646427766    20.804958494     0.407157627    -0.228221740     0.179269362
   49    13.989522737    15.498586373    21.894853321    -0.417565927     0.182946384    -0.205351691
   50    17.144282761    19.572672709    27.015907233     0.401924973    -0.217883229     0.202443115
   51    20.421252864    16.006285087    20.944292118     0.418314064    -0.196574343     0.190714109
   52    20.128705434    19.768666845    21.645470746     0.401900766    -0.213153895     0.207463710
   53    19.397932098    14.448828464    29.568483553     0.406649452    -0.224425651     0.185119827
   54    15.557044330    12.555537752    29.879901291     0.403519317    -0.243644897     0.166761282
   55    14.003267476    20.223846979    22.781307825     0.403566437    -0.221590937     0.195016890
   56    17.114409009    14.216468630    29.745360538     0.413994213    -0.212174858     0.183277444
   57    16.004075527    16.142636334    27.375129194     0.416329548    -0.207759977     0.183045074
   58    14.877035873    10.430768150    27.165458866     0.405026278    -0.225928180     0.186842639
   59    16.528765914    11.909797924    27.880572578     0.411400278    -0.219027448     0.181043608
   60    19.634071833    16.589113083    29.126193827     0.407375312    -0.219195000     0.189733780
   61    19.798949137    11.962609418    30.029603653     0.422839260    -0.205964229     0.169663482
   62    19.630718332    17.478519880    22.463765721     0.420394835    -0.198405441     0.184128933
   63    12.893297636    18.012151397    29.657601678     0.399569808    -0.227128804     0.196866643
   64    14.233257120    19.333843551    20.724420518     0.406139301    -0.212207346     0.200047272
   65    15.360202830    14.060467467    23.571373089     0.376062225    -0.267478620     0.192438019
   66    11.758512405    16.942214918    28.164729036     0.396164007    -0.231764574     0.198341275
   67    18.589495872    12.971118977    28.276525140     0.413159678    -0.221774123     0.173537657
   68    11.752536678    12.501605087    25.375893073     0.471048090    -0.151100141     0.072680423
   21    22.646399079    16.714915145    24.442395818    -0.412032801     0.204741598    -0.195729020
   22    29.978704749    12.098537599    26.482322538     0.457544874    -0.168513412     0.110706452
   23    29.862778331    19.625863311    27.347162169     0.408441029    -0.217924719     0.188904057
   24    24.809568905    14.513576959    28.175273589     0.417341057    -0.202085215     0.187050817
   25    26.088227715    10.757427241    21.460289660     0.402063688    -0.223071302     0.196428065
   26    22.647453672    11.339805124    27.997434868     0.104240781     0.382566988    -0.304592120
   27    21.312076849    13.340063602    23.285638293     0.416995916    -0.213935433     0.174201137
   28    28.305237567    15.778877348    21.554917157     0.423185129    -0.198271418     0.177771741
   29    29.017867388    18.431690251    25.634431983     0.400596528    -0.224756681     0.197501535
   30    27.787834118    19.345351631    22.331477258     0.413510101    -0.217158619     0.178469972
   31    26.300203179    20.309102324    29.345868473     0.406921642    -0.227667721     0.180505363
   32    28.427078068    10.960089561    28.574796975     0.405739231    -0.227193077     0.183736175
   33    21.490301399    18.334416148    25.977014360     0.408203822    -0.225106581     0.180822196
   34    31.087605370    13.319182109    28.695246835     0.483377768     0.104636426    -0.073465312
   35    28.459894582    17.920826375    20.871459334     0.415847050    -0.212900555     0.178170101
   36    27.973662950    12.907586251    26.205530042     0.449296943    -0.175528357     0.131613271
   37    28.479222312    15.520466135    28.142241300     0.410040222    -0.214551111     0.189300918
   38    26.564270501    16.437672906    24.841380047     0.426758092    -0.197287372     0.170162345
   39    28.750777202    16.133013620    24.266906037     0.434122490    -0.184821391     0.165465153
   40    23.517187634    19.151769367    26.813870938     0.407057960    -0.223550045     0.185281392
   41    27.016559677    12.343673931    24.254848051     0.448375859    -0.174628051     0.135882790
   42    21.300669957    18.785261398    23.703882101     0.417932524    -0.199430794     0.188572966
   43    24.838480684    17.369951892    25.848273112     0.423630134    -0.200175174     0.174549160
   44    29.778875892    14.369293280    25.131611946     0.435843967    -0.185408508     0.160199008
   45    25.118306702    19.886000730    25.307437197     0.412539180    -0.210505069     0.188411891
   46    28.210333113    11.564504371    22.607178542     0.446279342    -0.181156403     0.134227818
   47    27.634797143    12.134238110    30.171943272     0.413601715    -0.210444417     0.186136426
   48    30.839712249    13.791087977    21.093045363     0.407143226    -0.228232458     0.179288423
   49    24.079178686    15.643246585    22.182940191    -0.417651288     0.182644987    -0.205446369
   50    27.233938711    19.717332920    27.303994102     0.401916901    -0.217896237     0.202445139
   51    30.510908814    16.150945299    21.232378987     0.418305976    -0.196584868     0.190721001
   52    30.218361384    19.913327057    21.933557616     0.401891300    -0.213164074     0.207471590
   53    29.487588048    14.593488676    29.856570422     0.406640627    -0.224449206     0.185110655
   54    25.646700280    12.700197964    30.167988161     0.403506019    -0.243663356     0.166766487
   55    24.092923426    20.368507191    23.069394695     0.403556627    -0.221602190     0.195024403
   56    27.204064959    14.361128842    30.033447408     0.413982328    -0.212196577     0.183279144
   57    26.093731477    16.287296546    27.663216064     0.416318326    -0.207778241     0.183049868
   58    24.966691823    10.575428361    27.453545735     0.405015797    -0.225945783     0.186844072
   59    26.618421863    12.054458135    28.168659447     0.411390664    -0.219042370     0.181047402
   60    29.723727783    16.733773295    29.414280696     0.407366279    -0.219213365     0.189731956
   61    29.888605087    12.107269629    30.317690523     0.422823591    -0.205991150     0.169669846
   62    29.720374282    17.623180091    22.751852590     0.420386408    -0.198418563     0.184134031
   63    22.982953586    18.156811609    29.945688548     0.399572615    -0.227125720     0.196864504
   64    24.322913070    19.478503763    21.012507387     0.406129183    -0.212220281     0.200054090
   65    25.449858780    14.205127679    23.859459958     0.376188162    -0.267678636     0.191913039
   66    21.848168355    17.086875129    28.452815906     0.396167565    -0.231759452     0.198340154
   67    28.679151822    13.115779188    28.564612010     0.413149717    -0.221794956     0.173534748
   68    21.842192628    12.646265298    25.663979942     0.471041517    -0.151086578     0.072751186
   21    32.736055029    16.859575356    24.730482687    -0.412020477     0.204767025    -0.195728363
   22    40.068360699    12.243197811    26.770409407     0.457529122    -0.168685286     0.110509624
   23    39.952434281    19.770523523    27.635249039     0.408448933    -0.217912516     0.188901044
   24    34.899224854    14.658237170    28.463360459     0.417343172    -0.202100199     0.187029908
   25    36.177883664    10.902087453    21.748376530     0.402070880    -0.223070561     0.196414187
   26    32.737109622    11.484465336    28.285521738     0.104763602     0.382767419    -0.304160633
   27    31.401732799    13.484723813    23.573725163     0.416979191    -0.213985541     0.174179627
   28    38.394893516    15.923537560    21.843004027     0.423194524    -0.198271074     0.177749757
   29    39.107523338    18.576350463    25.922518853     0.400604323    -0.224744871     0.197499164
   30    37.877490067    19.490011843    22.619564127     0.413521165    -0.217151274     0.178453271
   31    36.389859129    20.453762535    29.633955342     0.406926615    -0.227662459     0.180500788
   32    38.516734018    11.104749772    28.862883845     0.405738191    -0.227217579     0.183708170
   33    31.579957349    18.479076360    26.265101230     0.408202255    -0.225114649     0.180815689
   34    41.177261320    13.463842321    28.983333704     0.483367522     0.104195930    -0.074155557
   35    38.549550532    18.065486586    21.159546204     0.415857103    -0.212898895     0.178148620
   36    38.063318900    13.052246462    26.493616911     0.449293441    -0.175629174     0.131490674
   37    38.568878261    15.665126347    28.430328170     0.410042369    -0.214553256     0.189293836
   38    36.653926451    16.582333118    25.129466916     0.426763724    -0.197292314     0.170142489
   39    38.840433152    16.277673831    24.554992907     0.434128246    -0.184826811     0.165443998
   40    33.606843584    19.296429579    27.101957808     0.407061680    -0.223551107     0.185271939
   41    37.106215627    12.488334143    24.542934921     0.448373294    -0.174711310     0.135784194
   42    31.390325907    18.929921609    23.991968971     0.417926731    -0.199442541     0.188573382
   43    34.928136634    17.514612103    26.136359982     0.423634915    -0.200180009     0.174532011
   44    39.868531842    14.513953492    25.419698815     0.435847519    -0.185419920     0.160176132
   45    35.207962652    20.030660942    25.595524067     0.412545991    -0.210500980     0.188401548
   46    38.299989062    11.709164583    22.895265412     0.446276705    -0.181222636     0.134147155
   47    37.724453093    12.278898322    30.460030141     0.413605771    -0.210463944     0.186105331
   48    40.929368199    13.935748189    21.381132233     0.407153485    -0.228234875     0.179262048
   49    34.168834636    15.787906796    22.471027061    -0.417610200     0.182727303    -0.205456696
   50    37.323594660    19.861993132    27.592080972     0.401924657    -0.217887281     0.202439381
   51    40.600564764    16.295605511    21.520465857     0.418315493    -0.196583217     0.190701828
   52    40.308017334    20.057987268    22.221644485     0.401905662    -0.213154804     0.207453292
   53    39.577243998    14.738148888    30.144657292     0.406639968    -0.224442671     0.185120025
   54    35.736356229    12.844858176    30.456075030     0.403502615    -0.243689689     0.166736244
   55    34.182579375    20.513167403    23.357481564     0.403566429    -0.221596366     0.195010738
   56    37.293720908    14.505789054    30.321534277     0.413983132    -0.212212189     0.183259251
   57    36.183387427    16.431956758    27.951302933     0.416320932    -0.207790464     0.183030066
   58    35.056347772    10.720088573    27.741632605     0.405011856    -0.225978279     0.186813313
   59    36.708077813    12.199118347    28.456746317     0.411389028    -0.219072688     0.181014434
   60    39.813383732    16.878433507    29.702367566     0.407368316    -0.219212129     0.189729012
   61    39.978261037    12.251929841    30.605777392     0.422832095    -0.206012874     0.169622273
   62    39.810030232    17.767840303    23.039939460     0.420395682    -0.198413843     0.184117945
   63    33.072609536    18.301471821    30.233775418     0.399567817    -0.227138199     0.196859843
   64    34.412569020    19.623163974    21.300594257     0.406137951    -0.212215184     0.200041696
   65    35.539514729    14.349787890    24.147546828     0.375842317    -0.267946521     0.192216582
   66    31.937824305    17.231535341    28.740902775     0.396161979    -0.231773513     0.198334882
   67    38.768807772    13.260439400    28.852698879     0.413148973    -0.221805912     0.173522515
   68    31.931848578    12.790925510    25.952066812     0.471037300    -0.151032156     0.072891358
   21     2.602162650    26.450688242    23.896847502    -0.412038751     0.204729521    -0.195729127
   22     9.934468321    21.834310697    25.936774222     0.457553198    -0.168521646     0.110659506
   23     9.818541902    29.361636409    26.801613853     0.408449096    -0.217915108     0.188897701
   24     4.765332476    24.249350057    27.629725274     0.417349698    -0.202065167     0.187053196
   25     6.043991286    20.493200339    20.914741345     0.402071954    -0.223061018     0.196422825
   26     2.603217243    21.075578222    27.451886552     0.104514039     0.382222250    -0.304931086
   27     1.267840420    23.075836699    22.740089977     0.416989132    -0.213936307     0.174216304
   28     8.261001138    25.514650446    21.009368842     0.423193144    -0.198257075     0.177768655
   29     8.973630959    28.167463349    25.088883668     0.400604080    -0.224747106     0.197497112
   30     7.743597689    29.081124729    21.785928942     0.413518251    -0.217145720     0.178466781
   31     6.255966751    30.044875421    28.800320157     0.406929682    -0.227662101     0.180494326
   32     8.382841639    20.695862658    28.029248660     0.405745221    -0.227177760     0.183741887
   33     1.446064971    28.070189246    25.431466044     0.408209058    -0.225097884     0.180821204
   34    11.043368942    23.054955207    28.149698519     0.483346813     0.104653060    -0.073645064
   35     8.415658154    27.656599473    20.325911019     0.415854436    -0.212889034     0.178166628
   36     7.929426522    22.643359348    25.659981726     0.449304838    -0.175529395     0.131584932
   37     8.434985883    25.256239233    27.596692985     0.410044883    -0.214540283     0.189303093
   38     6.520034073    26.173446004    24.295831731     0.426767099    -0.197267819     0.170162425
   39     8.706540773    25.868786718    23.721357722     0.434129789    -0.184805501     0.165463752
   40     3.472951205    28.887542465    26.268322623     0.407065532    -0.223539289     0.185277734
   41     6.972323249    22.079447029    23.709299735     0.448383230    -0.174628427     0.135857984
   42     1.256433528    28.521034495    23.158333786     0.417935794    -0.199422380     0.188574618
   43     4.794244256    27.105724989    25.302724797     0.423639277    -0.200155767     0.174549225
   44     9.734639464    24.105066378    24.586063630     0.435850472    -0.185394469     0.160197555
   45     5.074070274    29.621773828    24.761888882     0.412548757    -0.210490875     0.188406779
   46     8.166096684    21.300277469    22.061630227     0.446286577    -0.181153837     0.134207221
   47     7.590560714    21.870011208    29.626394956     0.413607386    -0.210434598     0.186134926
   48    10.795475820    23.526861075    20.547497048     0.407151597    -0.228217023     0.179289062
   49     4.034942258    25.379019682    21.637391875    -0.417690737     0.182535462    -0.205463508
   50     7.189702282    29.453106018    26.758445787     0.401927067    -0.217887576     0.202434278
   51    10.466672386    25.886718397    20.686830672     0.418312565    -0.196573317     0.190718454
   52    10.174124956    29.649100154    21.388009300     0.401901769    -0.213148988     0.207466809
   53     9.443351619    24.329261774    29.311022107     0.406641185    -0.224443001     0.185116952
   54     5.602463851    22.435971062    29.622439845     0.403516409    -0.243645002     0.166768165
   55     4.048686997    30.104280289    22.523846379     0.403566306    -0.221590608     0.195017535
   56     7.159828530    24.096901940    29.487899092     0.413987788    -0.212183630     0.183281801
   57     6.049495049    26.023069644    27.117667748     0.416326828    -0.207759320     0.183052007
   58     4.922455394    20.311201459    26.907997420     0.405020779    -0.225925650     0.186857618
   59     6.574185435    21.790231233    27.623111132     0.411397020    -0.219023879     0.181055329
   60     9.679491354    26.469546393    28.868732381     0.407368401    -0.219207944     0.189733664
   61     9.844368658    21.843042727    29.772142207     0.422829642    -0.205982964     0.169664707
   62     9.676137854    27.358953189    22.206304275     0.420393777    -0.198404090     0.184132802
   63     2.938717157    27.892584707    29.400140232     0.399570854    -0.227128855     0.196864460
   64     4.278676641    29.214276861    20.466959072     0.406138396    -0.212209179     0.200047163
   65     5.405622351    23.940900776    23.313911642     0.376170820    -0.267732995     0.191871201
   66     1.803931927    26.822648227    27.907267590     0.396164740    -0.231763381     0.198341207
   67     8.634915393    22.851552286    28.019063694     0.413152952    -0.221786472     0.173537889
   68     1.797956199    22.382038396    25.118431627     0.471030309    -0.151137845     0.072717257
   21    12.691818600    26.595348454    24.184934372    -0.412023442     0.204754885    -0.195734820
   22    20.024124270    21.978970909    26.224861092     0.457535839    -0.168576639     0.110647515
   23    19.908197852    29.506296620    27.089700723     0.408443490    -0.217918934     0.188905409
   24    14.854988426    24.394010268    27.917812143     0.417346147    -0.202077781     0.187047492
   25    16.133647236    20.637860551    21.202828214     0.402072094    -0.223055725     0.196428548
   26    12.692873193    21.220238434    27.739973422     0.104250741     0.382741745    -0.304369085
   27    11.357496370    23.220496911    23.028176847     0.416984169    -0.213958845     0.174200504
   28    18.350657088    25.659310658    21.297455711     0.423188404    -0.198255945     0.177781198
   29    19.063286909    28.312123561    25.376970537     0.400596457    -0.224753464     0.197505340
   30    17.833253639    29.225784941    22.074015812     0.413513511    -0.217150073     0.178472470
   31    16.345622700    30.189535633    29.088407027     0.406924755    -0.227666830     0.180499469
   32    18.472497589    20.840522870    28.317335529     0.405743412    -0.227186380     0.183735225
   33    11.535720921    28.214849458    25.719552914     0.408205636    -0.225107332     0.180817166
   34    21.133024892    23.199615419    28.437785389     0.483378114     0.104475036    -0.073692374
   35    18.505314103    27.801259684    20.613997888     0.415850753    -0.212889592     0.178174558
   36    18.019082472    22.788019560    25.948068596     0.449293516    -0.175562127     0.131579925
   37    18.524641833    25.400899445    27.884779854     0.410045794    -0.214541708     0.189299505
   38    16.609690023    26.318106216    24.583918601     0.426763094    -0.197277446     0.170161308
   39    18.796196723    26.013446929    24.009444591     0.434125980    -0.184810084     0.165468627
   40    13.562607155    29.032202677    26.556409492     0.407062081    -0.223548883     0.185273740
   41    17.061979199    22.224107241    23.997386605     0.448372128    -0.174656954     0.135857953
   42    11.346089478    28.665694707    23.446420655     0.417932167    -0.199431048     0.188573489
   43    14.883900205    27.250385201    25.590811666     0.423634791    -0.200167196     0.174547007
   44    19.824295414    24.249726590    24.874150500     0.435846275    -0.185398904     0.160203843
   45    15.163726223    29.766434040    25.049975751     0.412543589    -0.210502176     0.188405471
   46    18.255752634    21.444937680    22.349717096     0.446276857    -0.181177499     0.134207603
   47    17.680216664    22.014671420    29.914481826     0.413608188    -0.210435490     0.186132135
   48    20.885131770    23.671521287    20.835583917     0.407146210    -0.228208155     0.179312583
   49    14.124598208    25.523679894    21.925478745    -0.417585978     0.182619642    -0.205601598
   50    17.279358232    29.597766230    27.046532656     0.401920271    -0.217895980     0.202438725
   51    20.556328336    26.031378608    20.974917541     0.418309063    -0.196572478     0.190727001
   52    20.263780905    29.793760366    21.676096170     0.401896355    -0.213154925     0.207471198
   53    19.533007569    24.473921985    29.599108976     0.406645776    -0.224435703     0.185115717
   54    15.692119801    22.580631273    29.910526715     0.403516630    -0.243647683     0.166763712
   55    14.138342947    30.248940500    22.811933249     0.403560910    -0.221601892     0.195015879
   56    17.249484480    24.241562151    29.775985962     0.413987721    -0.212187305     0.183277697
   57    16.139150998    26.167729855    27.405754618     0.416323538    -0.207770381     0.183046935
   58    15.012111344    20.455861671    27.196084289     0.405019386    -0.225944998     0.186837242
   59    16.663841385    21.934891445    27.911198001     0.411394759    -0.219038957     0.181042226
   60    19.769147304    26.614206605    29.156819250     0.407371283    -0.219203429     0.189732692
   61    19.934024608    21.987702939    30.060229077     0.422831309    -0.205984816     0.169658302
   62    19.765793803    27.503613401    22.494391144     0.420389844    -0.198406743     0.184138926
   63    13.028373107    28.037244918    29.688227102     0.399570053    -0.227131175     0.196863410
   64    14.368332591    29.358937072    20.755045941     0.406133262    -0.212219757     0.200046364
   65    15.495278301    24.085560988    23.601998512     0.375796018    -0.267948707     0.192304038
   66    11.893587876    26.967308439    28.195354460     0.396164203    -0.231767444     0.198337530
   67    18.724571343    22.996212498    28.307150564     0.413154214    -0.221785843     0.173535690
   68    11.887612149    22.526698608    25.406518496     0.471045904    -0.151042560     0.072814159
   21    22.781474550    26.740008666    24.473021241    -0.412028623     0.204747500    -0.195731641
   22    30.113780220    22.123631120    26.512947961     0.457530225    -0.168619562     0.110605319
   23    29.997853802    29.650956832    27.377787592     0.408451191    -0.217896964     0.188914101
   24    24.944644376    24.538670480    28.205899013     0.417344450    -0.202078787     0.187050190
   25    26.223303186    20.782520762    21.490915084     0.402064245    -0.223060869     0.196438773
   26    22.782529143    21.364898645    28.028060291     0.104620281     0.382610864    -0.304406839
   27    21.447152320    23.365157123    23.316263717     0.416984391    -0.213939881     0.174223262
   28    28.440313038    25.803970869    21.585542581     0.423185183    -0.198259786     0.177784584
   29    29.152942859    28.456783772    25.665057407     0.400607840    -0.224726940     0.197512432
   30    27.922909589    29.370445152    22.362102681     0.413513183    -0.217147386     0.178476498
   31    26.435278650    30.334195845    29.376493896     0.406933639    -0.227648486     0.180502577
   32    28.562153539    20.985183082    28.605422399     0.405738374    -0.227196198     0.183734209
   33    21.625376870    28.359509669    26.007639784     0.408206664    -0.225102535     0.180820817
   34    31.222680841    23.344275630    28.725872258     0.483364780     0.104428950    -0.073844997
   35    28.594970053    27.945919896    20.902084758     0.415847543    -0.212892038     0.178179128
   36    28.108738421    22.932679772    26.236155465     0.449289562    -0.175591583     0.131554115
   37    28.614297783    25.545559656    28.172866724     0.410046133    -0.214537618     0.189303407
   38    26.699345972    26.462766427    24.872005470     0.426761676    -0.197278203     0.170163988
   39    28.885852673    26.158107141    24.297531461     0.434122093    -0.184815562     0.165472707
   40    23.652263105    29.176862888    26.844496362     0.407063812    -0.223542423     0.185277732
   41    27.151635148    22.368767453    24.285473475     0.448369833    -0.174680006     0.135835889
   42    21.435745428    28.810354919    23.734507525     0.417930276    -0.199430892     0.188577846
   43    24.973556155    27.395045413    25.878898536     0.423634595    -0.200165296     0.174549661
   44    29.913951363    24.394386801    25.162237369     0.435841063    -0.185408572     0.160206833
   45    25.253382173    29.911094251    25.338062621     0.412546263    -0.210492800     0.188410089
   46    28.345408584    21.589597892    22.637803966     0.446273996    -0.181196130     0.134191965
   47    27.769872614    22.159331631    30.202568695     0.413605619    -0.210441535     0.186131007
   48    30.974787720    23.816181498    21.123670787     0.407143448    -0.228214827     0.179310361
   49    24.214254157    25.668340106    22.213565615    -0.417544094     0.182861297    -0.205471837
   50    27.369014182    29.742426441    27.334619526     0.401929237    -0.217876541     0.202441848
   51    30.645984285    26.176038820    21.263004411     0.418305681    -0.196574962     0.190731858
   52    30.353436855    29.938420578    21.964183039     0.401895797    -0.213151235     0.207476070
   53    29.622663519    24.618582197    29.887195846     0.406643698    -0.224433838     0.185122540
   54    25.781775751    22.725291485    30.198613584     0.403507590    -0.243664291     0.166761321
   55    24.227998897    30.393600712    23.100020118     0.403560329    -0.221597922     0.195021593
   56    27.339140430    24.386222363    30.064072831     0.413984422    -0.212193026     0.183278527
   57    26.228806948    26.312390067    27.693841487     0.416322829    -0.207769153     0.183049941
   58    25.101767294    20.600521882    27.484171159     0.405011653    -0.225954562     0.186842438
   59    26.753497335    22.079551656    28.199284871     0.411387677    -0.219051116     0.181043606
   60    29.858803254    26.758866816    29.444906120     0.407372697    -0.219198106     0.189735807
   61    30.023680558    22.132363150    30.348315946     0.422831097    -0.205988610     0.169654225
   62    29.855449753    27.648273612    22.782478014     0.420388277    -0.198405932     0.184143376
   63    23.118029057    28.181905130    29.976313972     0.399577554    -0.227120340     0.196860686
   64    24.457988541    29.503597284    21.043132811     0.406131530    -0.212217832     0.200051923
   65    25.584934251    24.230221200    23.890085382     0.376133546    -0.267709457     0.191977089
   66    21.983243826    27.111968650    28.483441329     0.396169353    -0.231759979     0.198335968
   67    28.814227293    23.140872709    28.595237433     0.413150522    -0.221791251     0.173537568
   68    21.977268099    22.671358819    25.694605366     0.471022494    -0.151125579     0.072793335
   21    32.871130500    26.884668877    24.761108111    -0.412029634     0.204736769    -0.195740738
   22    40.203436170    22.268291332    26.801034831     0.457545346    -0.168581237     0.110601188
   23    40.087509752    29.795617044    27.665874462     0.408448061    -0.217900712     0.188916545
   24    35.034300325    24.683330692    28.493985883     0.417346359    -0.202077795     0.187047003
   25    36.312959135    20.927180974    21.779001954     0.402078405    -0.223049979     0.196422155
   26    32.872185093    21.509558857    28.316147161     0.104231085     0.382535055    -0.304635540
   27    31.536808270    23.509817334    23.604350586     0.416975588    -0.213939467     0.174244839
   28    38.529968987    25.948631081    21.873629450     0.423195993    -0.198254801     0.177764409
   29    39.242598809    28.601443984    25.953144276     0.400604401    -0.224731839     0.197513835
   30    38.012565538    29.515105364    22.650189551     0.413519502    -0.217140848     0.178469810
   31    36.524934600    30.478856056    29.664580766     0.406925165    -0.227655762     0.180512504
   32    38.651809489    21.129843293    28.893509268     0.405743412    -0.227189484     0.183731386
   33    31.715032820    28.504169881    26.295726653     0.408205628    -0.225097654     0.180829233
   34    41.312336791    23.488935842    29.013959128     0.483356262     0.104429451    -0.073900029
   35    38.684626003    28.090580107    21.190171627     0.415857250    -0.212884404     0.178165592
   36    38.198394371    23.077339983    26.524242335     0.449302817    -0.175559721     0.131551371
   37    38.703953732    25.690219868    28.460953594     0.410044129    -0.214540603     0.189304364
   38    36.789001922    26.607426639    25.160092340     0.426766050    -0.197272700     0.170159398
   39    38.975508623    26.302767353    24.585618331     0.434130872    -0.184805496     0.165460917
   40    33.741919055    29.321523100    27.132583231     0.407062337    -0.223538714     0.185285447
   41    37.241291098    22.513427664    24.573560344     0.448382321    -0.174649720     0.135833610
   42    31.525401378    28.955015130    24.022594394     0.417930131    -0.199425146     0.188584242
   43    35.063212105    27.539705624    26.166985405     0.423637600    -0.200160063     0.174548369
   44    40.003607313    24.539047013    25.450324239     0.435851590    -0.185395744     0.160193038
   45    35.343038123    30.055754463    25.626149490     0.412543861    -0.210492652     0.188415516
   46    38.435064533    21.734258104    22.925890835     0.446286311    -0.181168572     0.134188215
   47    37.859528564    22.303991843    30.490655565     0.413607750    -0.210438779     0.186129388
   48    41.064443670    23.960841710    21.411757656     0.407157017    -0.228215513     0.179278674
   49    34.303910107    25.813000317    22.501652484    -0.417649802     0.182608204    -0.205482084
   50    37.458670131    29.887086653    27.622706395     0.401919516    -0.217885100     0.202451935
   51    40.735640235    26.320699032    21.551091281     0.418315340    -0.196568265     0.190717575
   52    40.443092805    30.083080789    22.252269909     0.401900261    -0.213149072     0.207469645
   53    39.712319469    24.763242409    30.175282715     0.406642014    -0.224436036     0.185123575
   54    35.871431700    22.869951697    30.486700454     0.403510207    -0.243660772     0.166760130
   55    34.317654846    30.538260924    23.388106988     0.403561331    -0.221591954     0.195026302
   56    37.428796380    24.530882575    30.352159701     0.413985370    -0.212192223     0.183277314
   57    36.318462898    26.457050279    27.981928357     0.416324206    -0.207769215     0.183046739
   58    35.191423243    20.745182094    27.772258028     0.405018978    -0.225944671     0.186838522
   59    36.843153284    22.224211868    28.487371740     0.411394609    -0.219041495     0.181039497
   60    39.948459204    26.903527028    29.732992989     0.407368748    -0.219203854     0.189737643
   61    40.113336508    22.277023362    30.636402816     0.422831644    -0.205986861     0.169654985
   62    39.945105703    27.792933824    23.070564883     0.420396181    -0.198400012     0.184131708
   63    33.207685007    28.326565342    30.264400841     0.399573122    -0.227122158     0.196867583
   64    34.547644491    29.648257496    21.331219680     0.406133590    -0.212208898     0.200057219
   65    35.674590200    24.374881411    24.178172251     0.376004535    -0.267876450     0.191996867
   66    32.072899776    27.256628862    28.771528199     0.396167751    -0.231757182     0.198342436
   67    38.903883243    23.285532921    28.883324303     0.413152740    -0.221786526     0.173538326
   68    32.066924049    22.816019031    25.982692236     0.471016135    -0.151178600     0.072724355
   21     2.737238121    36.475781763    23.927472926    -0.412030246     0.204754231    -0.195721183
   22    10.069543792    31.859404218    25.967399646     0.457546444    -0.168584157     0.110592193
   23     9.953617373    39.386729930    26.832239277     0.408444150    -0.217900541     0.188925198
   24     4.900407947    34.274443578    27.660350697     0.417347580    -0.202076527     0.187045649
   25     6.179066757    30.518293860    20.945366768     0.402071339    -0.223053160     0.196433006
   26     2.738292714    31.100671743    27.482511976     0.104403959     0.382737001    -0.304322528
   27     1.402915891    33.100930220    22.770715401     0.416990280    -0.213942058     0.174206493
   28     8.396076609    35.539743967    21.039994265     0.423186098    -0.198261720     0.177780250
   29     9.108706430    38.192556870    25.119509091     0.400597577    -0.224733638     0.197525627
   30     7.878673160    39.106218250    21.816554366     0.413512337    -0.217150815     0.178474286
   31     6.391042222    40.069968942    28.830945581     0.406927719    -0.227645998     0.180519060
   32     8.517917110    30.720956179    28.059874083     0.405744639    -0.227192086     0.183725458
   33     1.581140442    38.095282767    25.462091468     0.408207700    -0.225106394     0.180813676
   34    11.178444413    33.080048728    28.180323943     0.483351416     0.104480121    -0.073860094
   35     8.550733625    37.681692994    20.356536442     0.415847963    -0.212893205     0.178176753
   36     8.064501993    32.668452869    25.690607150     0.449302015    -0.175565472     0.131546435
   37     8.570061354    35.281332754    27.627318408     0.410044986    -0.214541008     0.189302048
   38     6.655109544    36.198539525    24.326457155     0.426763242    -0.197276663     0.170161846
   39     8.841616244    35.893880239    23.751983145     0.434124063    -0.184813559     0.165469774
   40     3.608026677    38.912635986    26.298948046     0.407063212    -0.223544285     0.185276804
   41     7.107398720    32.104540550    23.739925159     0.448380823    -0.174656517     0.135829814
   42     1.391508999    38.546128016    23.188959209     0.417935109    -0.199432071     0.188565887
   43     4.929319727    37.130818510    25.333350220     0.423635583    -0.200164177     0.174548546
   44     9.869714935    34.130159899    24.616689054     0.435844655    -0.185403230     0.160203243
   45     5.209145745    39.646867349    24.792514305     0.412545294    -0.210492496     0.188412550
   46     8.301172155    31.325370990    22.092255650     0.446283809    -0.181176059     0.134186427
   47     7.725636185    31.895104729    29.657020380     0.413608850    -0.210444391     0.186120598
   48    10.930551291    33.551954596    20.578122471     0.407148566    -0.228211114     0.179303466
   49     4.170017729    35.404113203    21.668017299    -0.417641256     0.182760578    -0.205363950
   50     7.324777753    39.478199539    26.789071210     0.401923368    -0.217874128     0.202456095
   51    10.601747857    35.911811918    20.717456095     0.418306008    -0.196575755     0.190730324
   52    10.309200427    39.674193675    21.418634724     0.401894711    -0.213156431     0.207472836
   53     9.578427090    34.354355295    29.341647530     0.406642745    -0.224438549     0.185118923
   54     5.737539322    32.461064583    29.653065269     0.403513342    -0.243665309     0.166745914
   55     4.183762468    40.129373810    22.554471803     0.403560614    -0.221599781     0.195018890
   56     7.294904001    34.121995461    29.518524516     0.413987607    -0.212194067     0.183270127
   57     6.184570520    36.048163165    27.148293172     0.416324683    -0.207768682     0.183046259
   58     5.057530865    30.336294980    26.938622843     0.405021369    -0.225946983     0.186830543
   59     6.709260906    31.815324754    27.653736555     0.411396993    -0.219042132     0.181033308
   60     9.814566825    36.494639914    28.899357804     0.407369274    -0.219203212     0.189737257
   61     9.979444129    31.868136248    29.802767630     0.422832261    -0.205992608     0.169646470
   62     9.811213325    37.384046710    22.236929698     0.420387821    -0.198408620     0.184141520
   63     3.073792628    37.917678228    29.430765656     0.399572818    -0.227124615     0.196865367
   64     4.413752112    39.239370382    20.497584495     0.406133768    -0.212216489     0.200048804
   65     5.540697822    33.965994297    23.344537066     0.376162852    -0.267605552     0.192064514
   66     1.939007398    36.847741748    27.937893014     0.396166918    -0.231761727     0.198338789
   67     8.769990864    32.876645807    28.049689118     0.413153644    -0.221790403     0.173531218
   68     1.933031670    32.407131917    25.149057050     0.471036851    -0.151074245     0.072806986
   21    12.826894071    36.620441975    24.215559795    -0.412021603     0.204761415    -0.195731861
   22    20.159199741    32.004064430    26.255486515     0.457534002    -0.168595342     0.110626615
   23    20.043273323    39.531390141    27.120326146     0.408446328    -0.217920656     0.188897286
   24    14.990063897    34.419103789    27.948437567     0.417344164    -0.202086164     0.187042858
   25    16.268722707    30.662954072    21.233453638     0.402069140    -0.223060184     0.196429532
   26    12.827948664    31.245331955    27.770598845     0.104338449     0.382532411    -0.304602105
   27    11.492571841    33.245590432    23.058802271     0.416975925    -0.213936973     0.174247093
   28    18.485732559    35.684404179    21.328081135     0.423187900    -0.198269530     0.177767250
   29    19.198362380    38.337217082    25.407595961     0.400600886    -0.224752897     0.197497002
   30    17.968329110    39.250878462    22.104641235     0.413511533    -0.217160171     0.178464764
   31    16.480698171    40.214629154    29.119032450     0.406926407    -0.227663321     0.180500172
   32    18.607573060    30.865616391    28.347960953     0.405739791    -0.227196943     0.183730158
   33    11.670796392    38.239942979    25.750178338     0.408202800    -0.225106205     0.180824972
   34    21.268100363    33.224708940    28.468410812     0.483362464     0.104493366    -0.073769000
   35    18.640389574    37.826353205    20.644623312     0.415849326    -0.212901713     0.178163404
   36    18.154157943    32.813113081    25.978694019     0.449291892    -0.175578715     0.131563333
   37    18.659717304    35.425992966    27.915405278     0.410043921    -0.214546358     0.189298291
   38    16.744765494    36.343199737    24.614544024     0.426759229    -0.197290533     0.170155829
   39    18.931272194    36.038540450    24.040070015     0.434122167    -0.184828306     0.165458277
   40    13.697682626    39.057296198    26.587034916     0.407058300    -0.223550437     0.185280174
   41    17.197054670    32.249200762    24.028012029     0.448371730    -0.174669709     0.135842866
   42    11.481164949    38.690788228    23.477046079     0.417927428    -0.199431695     0.188583309
   43    15.018975677    37.275478722    25.621437090     0.423631275    -0.200177901     0.174543263
   44    19.959370885    34.274820111    24.904775923     0.435841806    -0.185420695     0.160190781
   45    15.298801694    39.791527561    25.080601175     0.412541516    -0.210503277     0.188408779
   46    18.390828105    31.470031201    22.380342520     0.446275791    -0.181188487     0.134196314
   47    17.815292135    32.039764941    29.945107249     0.413604957    -0.210448470     0.186124638
   48    21.020207241    33.696614808    20.866209341     0.407146569    -0.228228132     0.179286339
   49    14.259673679    35.548773415    21.956104168    -0.417534309     0.182869618    -0.205484314
   50    17.414433703    39.622859751    27.077158080     0.401922896    -0.217891090     0.202438777
   51    20.691403807    36.056472129    21.005542965     0.418308220    -0.196585720     0.190715200
   52    20.398856377    39.818853887    21.706721593     0.401894749    -0.213163822     0.207465167
   53    19.668083040    34.499015506    29.629734400     0.406642794    -0.224442778     0.185113687
   54    15.827195272    32.605724794    29.941152138     0.403509342    -0.243664275     0.166757105
   55    14.273418418    40.274034022    22.842558672     0.403557306    -0.221602934     0.195022155
   56    17.384559951    34.266655672    29.806611385     0.413985673    -0.212196563     0.183271606
   57    16.274226469    36.192823376    27.436380041     0.416321233    -0.207778682     0.183042756
   58    15.147186815    30.480955192    27.226709713     0.405017175    -0.225948744     0.186837505
   59    16.798916856    31.959984966    27.941823425     0.411392483    -0.219046491     0.181038283
   60    19.904222775    36.639300126    29.187444674     0.407369889    -0.219209404     0.189728782
   61    20.069100079    32.012796460    30.090854500     0.422828293    -0.205997591     0.169650308
   62    19.900869274    37.528706922    22.525016568     0.420389080    -0.198418776     0.184127702
   63    13.163448578    38.062338439    29.718852526     0.399570025    -0.227130846     0.196863847
   64    14.503408062    39.384030593    20.785671365     0.406128250    -0.212221939     0.200054226
   65    15.630353772    34.110654509    23.632623936     0.375962308    -0.267878879     0.192076155
   66    12.028663347    36.992401960    28.225979883     0.396163552    -0.231766207     0.198340278
   67    18.859646814    33.021306019    28.337775987     0.413150013    -0.221797398     0.173530922
   68    12.022687620    32.551792129    25.437143920     0.471032846    -0.151134131     0.072708546
   21    22.916550021    36.765102187    24.503646665    -0.412027778     0.204767379    -0.195712622
   22    30.248855691    32.148724641    26.543573385     0.457545633    -0.168548966     0.110649172
   23    30.132929273    39.676050353    27.408413016     0.408448462    -0.217906122     0.188909438
   24    25.079719847    34.563764001    28.236524437     0.417349148    -0.202074563     0.187044272
   25    26.358378657    30.807614283    21.521540508     0.402068896    -0.223056281     0.196434464
   26    22.917604614    31.389992166    28.058685715     0.104151734     0.382549820    -0.304644139
   27    21.582227791    33.390250644    23.346889140     0.416975634    -0.213969745     0.174207546
   28    28.575388509    35.829064391    21.616168004     0.423191455    -0.198254604     0.177775434
   29    29.288018330    38.481877293    25.695682830     0.400604005    -0.224737459     0.197508243
   30    28.057985060    39.395538673    22.392728105     0.413513978    -0.217150073     0.178471385
   31    26.570354121    40.359289366    29.407119320     0.406927137    -0.227654891     0.180509157
   32    28.697229010    31.010276603    28.636047822     0.405748727    -0.227177621     0.183734317
   33    21.760452341    38.384603190    26.038265207     0.408205348    -0.225112003     0.180812002
   34    31.357756312    33.369369151    28.756497682     0.483370563     0.104521974    -0.073675343
   35    28.730045524    37.971013417    20.932710181     0.415852741    -0.212887787     0.178172073
   36    28.243813893    32.957773293    26.266780889     0.449301022    -0.175543095     0.131579686
   37    28.749373254    35.570653177    28.203492148     0.410047792    -0.214538952     0.189298301
   38    26.834421443    36.487859948    24.902630894     0.426765736    -0.197271757     0.170161277
   39    29.020928144    36.183200662    24.328156885     0.434127238    -0.184807500     0.165468211
   40    23.787338576    39.201956410    26.875121785     0.407063817    -0.223545893     0.185273535
   41    27.286710619    32.393860974    24.316098898     0.448380481    -0.174637676     0.135855165
   42    21.570820899    38.835448440    23.765132948     0.417929833    -0.199442429     0.188566626
   43    25.108631626    37.420138934    25.909523959     0.423637711    -0.200160640     0.174547439
   44    30.049026835    34.419480322    25.192862793     0.435846999    -0.185397355     0.160203664
   45    25.388457644    39.936187772    25.368688044     0.412545206    -0.210495295     0.188409617
   46    28.480484055    31.614691413    22.668429389     0.446283869    -0.181161230     0.134206247
   47    27.904948085    32.184425152    30.233194119     0.413613655    -0.210428158     0.186128275
   48    31.109863191    33.841275019    21.154296210     0.407150309    -0.228210791     0.179299918
   49    24.349329628    35.693433627    22.244191038    -0.417552481     0.183084668    -0.205255768
   50    27.504089653    39.767519962    27.365244949     0.401922002    -0.217883571     0.202448645
   51    30.781059756    36.201132341    21.293629834     0.418310717    -0.196571560     0.190724319
   52    30.488512326    39.963514099    21.994808463     0.401897426    -0.213150757     0.207473406
   53    29.757738990    34.643675718    29.917821269     0.406648621    -0.224434395     0.185111051
   54    25.916851222    32.750385006    30.229239008     0.403520314    -0.243647011     0.166755779
   55    24.363074368    40.418694233    23.130645542     0.403558257    -0.221602662     0.195020496
   56    27.474215901    34.411315884    30.094698255     0.413992116    -0.212182835     0.183272945
   57    26.363882419    36.337483588    27.724466911     0.416326235    -0.207767015     0.183044621
   58    25.236842765    30.625615403    27.514796582     0.405024151    -0.225932419     0.186842125
   59    26.888572806    32.104645177    28.229910294     0.411399996    -0.219028847     0.181042558
   60    29.993878725    36.783960337    29.475531543     0.407373155    -0.219202950     0.189729227
   61    30.158756029    32.157456671    30.378941370     0.422836011    -0.205976710     0.169656425
   62    29.990525224    37.673367133    22.813103437     0.420392961    -0.198403177     0.184135650
   63    23.253104528    38.206998651    30.006939395     0.399571874    -0.227130832     0.196860109
   64    24.593064012    39.528690805    21.073758234     0.406129633    -0.212222495     0.200050829
   65    25.720009722    34.255314721    23.920710805     0.376362036    -0.267558736     0.191739252
   66    22.118319297    37.137062171    28.514066753     0.396165704    -0.231766930     0.198335133
   67    28.949302764    33.165966230    28.625862857     0.413158296    -0.221781820     0.173531111
   68    22.112343570    32.696452340    25.725230790     0.471022694    -0.151140656     0.072760732
   21    33.006205971    36.909762398    24.791733534    -0.412032578     0.204748516    -0.195722252
   22    40.338511641    32.293384853    26.831660255     0.457545386    -0.168543511     0.110658507
   23    40.222585223    39.820710565    27.696499886     0.408448881    -0.217924069     0.188887829
   24    35.169375796    34.708424213    28.524611306     0.417345907    -0.202076135     0.187049804
   25    36.448034606    30.952274495    21.809627377     0.402072713    -0.223047588     0.196436521
   26    33.007260564    31.534652378    28.346772585     0.104778513     0.382508025    -0.304481648
   27    31.671883741    33.534910855    23.634976010     0.416978888    -0.213953604     0.174219580
   28    38.665044458    35.973724602    21.904254874     0.423195296    -0.198251517     0.177769731
   29    39.377674280    38.626537505    25.983769700     0.400604368    -0.224755416     0.197487070
   30    38.147641010    39.540198885    22.680814974     0.413520564    -0.217148622     0.178457891
   31    36.660010071    40.503949577    29.695206190     0.406929555    -0.227664828     0.180491172
   32    38.786884960    31.154936814    28.924134692     0.405741722    -0.227183491     0.183742527
   33    31.850108291    38.529263402    26.326352077     0.408208197    -0.225103292     0.180816415
   34    41.447412262    33.514029363    29.044584552     0.483352579     0.104610500    -0.073667681
   35    38.819701474    38.115673629    21.220797051     0.415857454    -0.212885438     0.178163882
   36    38.333469842    33.102433504    26.554867758     0.449300125    -0.175539067     0.131588122
   37    38.839029203    35.715313389    28.491579017     0.410045292    -0.214540855     0.189301559
   38    36.924077393    36.632520160    25.190717763     0.426766526    -0.197273592     0.170157169
   39    39.110584094    36.327860874    24.616243754     0.434131500    -0.184803483     0.165461516
   40    33.876994526    39.346616621    27.163208655     0.407065086    -0.223545917     0.185270718
   41    37.376366569    32.538521185    24.604185768     0.448377837    -0.174635507     0.135866681
   42    31.660476849    38.980108651    24.053219818     0.417933952    -0.199426361     0.188574489
   43    35.198287576    37.564799145    26.197610829     0.423638181    -0.200162827     0.174543790
   44    40.138682784    34.564140534    25.480949662     0.435852641    -0.185389955     0.160196878
   45    35.478113594    40.080847984    25.656774914     0.412548714    -0.210495767     0.188401407
   46    38.570140004    31.759351625    22.956516259     0.446282281    -0.181158343     0.134215426
   47    37.994604035    32.329085364    30.521280988     0.413606004    -0.210433917     0.186138765
   48    41.199519141    33.985935231    21.442383080     0.407156588    -0.228201046     0.179298063
   49    34.438985578    35.838093838    22.532277908    -0.417819348     0.182445580    -0.205281765
   50    37.593745603    39.912180174    27.653331819     0.401927409    -0.217889697     0.202431318
   51    40.870715706    36.345792553    21.581716704     0.418315453    -0.196567871     0.190717732
   52    40.578168276    40.108174310    22.282895332     0.401903255    -0.213152723     0.207460093
   53    39.847394940    34.788335930    30.205908139     0.406643996    -0.224439274     0.185115296
   54    36.006507172    32.895045218    30.517325877     0.403510815    -0.243652164     0.166771237
   55    34.452730317    40.563354445    23.418732412     0.403565036    -0.221598773     0.195010886
   56    37.563871851    34.555976096    30.382785124     0.413985820    -0.212186876     0.183282488
   57    36.453538369    36.482143800    28.012553781     0.416324035    -0.207768679     0.183047737
   58    35.326498714    30.770275615    27.802883452     0.405014673    -0.225941640     0.186851518
   59    36.978228755    32.249305389    28.517997164     0.411391943    -0.219035954     0.181052258
   60    40.083534675    36.928620549    29.763618413     0.407371958    -0.219204260     0.189730284
   61    40.248411979    32.302116883    30.667028239     0.422828675    -0.205982451     0.169667740
   62    40.080181174    37.818027345    23.101190307     0.420396195    -0.198403321     0.184128112
   63    33.342760478    38.351658863    30.295026265     0.399573576    -0.227128659     0.196859161
   64    34.682719962    39.673351017    21.361845104     0.406136593    -0.212217031     0.200042494
   65    35.809665671    34.399974932    24.208797675     0.375815608    -0.267709789     0.192598280
   66    32.207975247    37.281722383    28.802153622     0.396166696    -0.231765356     0.198334991
   67    39.038958714    33.310626442    28.913949727     0.413153482    -0.221784715     0.173538873
   68    32.201999520    32.841112552    26.013317659     0.471033947    -0.151088091     0.072797043
   21     2.618882879     6.432636937    33.847582017    -0.412032401     0.204752468    -0.195718490
   22     9.951188550     1.816259391    35.887508737     0.457549429    -0.168544883     0.110639698
   23     9.835262131     9.343585103    36.752348368     0.408447799    -0.217912573     0.188903431
   24     4.782052705     4.231298751    37.580459788     0.417344811    -0.202078374     0.187049832
   25     6.060711515     0.475149034    30.865475860     0.402071982    -0.223045563     0.196440318
   26     2.619937472     1.057526916    37.402621067     0.104275158     0.382447136    -0.304730832
   27     1.284560649     3.057785394    32.690824492     0.416981728    -0.213942541     0.174226368
   28     8.277721367     5.496599141    30.960103356     0.423192290    -0.198257612     0.177770091
   29     8.990351188     8.149412043    35.039618182     0.400601322    -0.224747768     0.197501954
   30     7.760317918     9.063073424    31.736663457     0.413518447    -0.217147613     0.178464025
   31     6.272686979    10.026824116    38.751054672     0.406929067    -0.227649863     0.180511147
   32     8.399561868     0.677811353    37.979983174     0.405742161    -0.227179729     0.183746209
   33     1.462785200     8.052137940    35.382200559     0.408209592    -0.225107472     0.180808061
   34    11.060089171     3.036903901    38.100433034     0.483348553     0.104577771    -0.073740534
   35     8.432378382     7.638548167    30.276645533     0.415854533    -0.212888605     0.178166914
   36     7.946146751     2.625308043    35.610716241     0.449302566    -0.175542096     0.131575744
   37     8.451706112     5.238187928    37.547427500     0.410045551    -0.214536119     0.189306364
   38     6.536754302     6.155394698    34.246566246     0.426764326    -0.197276482     0.170159338
   39     8.723261002     5.850735412    33.672092237     0.434126791    -0.184812719     0.165463556
   40     3.489671434     8.869491160    36.219057137     0.407065996    -0.223544827     0.185270034
   41     6.989043478     2.061395724    33.660034250     0.448381535    -0.174635219     0.135854847
   42     1.273153757     8.502983190    33.109068300     0.417934662    -0.199438919     0.188559635
   43     4.810964485     7.087673684    35.253459311     0.423636884    -0.200164451     0.174545076
   44     9.751359693     4.087015073    34.536798145     0.435846564    -0.185403755     0.160197441
   45     5.090790502     9.603722522    34.712623396     0.412547276    -0.210494288     0.188406208
   46     8.182816913     1.282226163    32.012364741     0.446285328    -0.181156988     0.134207122
   47     7.607280943     1.851959902    39.577129471     0.413606345    -0.210432788     0.186139284
   48    10.812196049     3.508809770    30.498231562     0.407152792    -0.228213207     0.179291204
   49     4.051662487     5.360968377    31.588126390    -0.417540480     0.182703332    -0.205619650
   50     7.206422511     9.435054713    36.709180301     0.401924887    -0.217877556     0.202449391
   51    10.483392615     5.868667091    30.637565186     0.418312420    -0.196571903     0.190720230
   52    10.190845185     9.631048849    31.338743815     0.401901545    -0.213151350     0.207464817
   53     9.460071848     4.311210468    39.261756621     0.406644493    -0.224431964     0.185123067
   54     5.619184080     2.417919756    39.573174360     0.403510272    -0.243653662     0.166770362
   55     4.065407226    10.086228983    32.474580894     0.403564717    -0.221595488     0.195015278
   56     7.176548759     4.078850634    39.438633607     0.413986111    -0.212185045     0.183283950
   57     6.066215277     6.005018338    37.068402263     0.416323386    -0.207769629     0.183048135
   58     4.939175623     0.293150153    36.858731934     0.405018552    -0.225930681     0.186856363
   59     6.590905664     1.772179927    37.573845646     0.411393627    -0.219029949     0.181055696
   60     9.696211583     6.451495087    38.819466895     0.407372113    -0.219199061     0.189735956
   61     9.861088887     1.824991422    39.722876722     0.422830628    -0.205980704     0.169664993
   62     9.692858082     7.340901883    32.157038789     0.420392678    -0.198405400     0.184133900
   63     2.955437386     7.874533401    39.350874747     0.399573791    -0.227128704     0.196858674
   64     4.295396870     9.196225555    30.417693586     0.406136927    -0.212213907     0.200045130
   65     5.422342580     3.922849471    33.264646157     0.375999592    -0.267825787     0.192077210
   66     1.820652155     6.804596922    37.858002105     0.396168222    -0.231764139     0.198333365
   67     8.651635622     2.833500981    37.969798209     0.413153459    -0.221781792     0.173542664
   68     1.814676428     2.363987091    35.069166142     0.471026477    -0.151165722     0.072684125
   21    12.708538829     6.577297148    34.135668886    -0.412032722     0.204731757    -0.195739478
   22    20.040844499     1.960919603    36.175595606     0.457547085    -0.168570059     0.110611030
   23    19.924918081     9.488245315    37.040435238     0.408456373    -0.217882098     0.188920044
   24    14.871708655     4.375958963    37.868546658     0.417344832    -0.202073534     0.187055013
   25    16.150367465     0.619809245    31.153562729     0.402070559    -0.223057643     0.196429512
   26    12.709593422     1.202187128    37.690707937     0.104196092     0.382657082    -0.304494223
   27    11.374216599     3.202445605    32.978911362     0.416975122    -0.213967415     0.174211632
   28    18.367377317     5.641259352    31.248190226     0.423190653    -0.198246890     0.177785943
   29    19.080007138     8.294072255    35.327705052     0.400613326    -0.224714705     0.197515225
   30    17.849973868     9.207733635    32.024750326     0.413521142    -0.217130919     0.178478091
   31    16.362342929    10.171484328    39.039141541     0.406934832    -0.227633941     0.180518229
   32    18.489217818     0.822471564    38.268070044     0.405739960    -0.227191306     0.183736755
   33    11.552441149     8.196798152    35.670287429     0.408210844    -0.225092871     0.180823412
   34    21.149745120     3.181564113    38.388519904     0.483351998     0.104508543    -0.073816055
   35    18.522034332     7.783208379    30.564732403     0.415855753    -0.212875918     0.178179225
   36    18.035802701     2.769968254    35.898803110     0.449301415    -0.175556261     0.131560776
   37    18.541362062     5.382848139    37.835514369     0.410042652    -0.214538301     0.189310171
   38    16.626410251     6.300054910    34.534653115     0.426763754    -0.197268092     0.170170498
   39    18.812916952     5.995395624    33.960179106     0.434126399    -0.184803085     0.165475343
   40    13.579327384     9.014151371    36.507144007     0.407068610    -0.223529924     0.185282270
   41    17.078699427     2.206055935    33.948121120     0.448379176    -0.174650813     0.135842585
   42    11.362809707     8.647643401    33.397155170     0.417933654    -0.199424639     0.188576971
   43    14.900620434     7.232333895    35.541546181     0.423636505    -0.200154764     0.174557104
   44    19.841015643     4.231675284    34.824885014     0.435845636    -0.185395169     0.160209904
   45    15.180446452     9.748382734    35.000710266     0.412549514    -0.210480635     0.188416562
   46    18.272472863     1.426886375    32.300451611     0.446282803    -0.181171853     0.134195454
   47    17.696936893     1.996620114    39.865216340     0.413604113    -0.210440650     0.186135355
   48    20.901851999     3.653469981    30.786318432     0.407148605    -0.228203521     0.179313042
   49    14.141318436     5.505628588    31.876213260    -0.417577353     0.182610543    -0.205627197
   50    17.296078461     9.579714924    36.997267171     0.401931633    -0.217860627     0.202454215
   51    20.573048564     6.013327303    30.925652056     0.418312661    -0.196560550     0.190731401
   52    20.280501134     9.775709060    31.626830684     0.401899617    -0.213142661     0.207477478
   53    19.549727798     4.455870680    39.549843491     0.406639823    -0.224438163     0.185125811
   54    15.708840030     2.562579968    39.861261229     0.403505377    -0.243663450     0.166767903
   55    14.155063176    10.230889195    32.762667764     0.403566784    -0.221584358     0.195023647
   56    17.266204709     4.223510846    39.726720476     0.413982800    -0.212192542     0.183282748
   57    16.155871227     6.149678550    37.356489133     0.416322518    -0.207765184     0.183055153
   58    15.028831573     0.437810365    37.146818804     0.405016636    -0.225944647     0.186843627
   59    16.680561614     1.916840139    37.861932516     0.411391768    -0.219041823     0.181045555
   60    19.785867533     6.596155299    39.107553765     0.407367165    -0.219201686     0.189743548
   61    19.950744837     1.969651633    40.010963591     0.422828888    -0.205987125     0.169661533
   62    19.782514032     7.485562095    32.445125659     0.420392702    -0.198395404     0.184144617
   63    13.045093336     8.019193613    39.638961617     0.399576983    -0.227117550     0.196865064
   64    14.385052820     9.340885767    30.705780456     0.406137990    -0.212203834     0.200053658
   65    15.511998530     4.067509683    33.552733027     0.375861804    -0.267892699     0.192253493
   66    11.910308105     6.949257133    38.146088974     0.396169325    -0.231754721     0.198342167
   67    18.741291572     2.978161192    38.257885079     0.413149895    -0.221789175     0.173541714
   68    11.904332378     2.508647302    35.357253011     0.471040376    -0.151077564     0.072777288
   21    22.798194779     6.721957360    34.423755756    -0.412022934     0.204750764    -0.195740202
   22    30.130500449     2.105579815    36.463682476     0.457545965    -0.168613615     0.110549258
   23    30.014574031     9.632905526    37.328522107     0.408441854    -0.217918563     0.188909375
   24    24.961364604     4.520619174    38.156633528     0.417342614    -0.202081126     0.187051761
   25    26.240023414     0.764469457    31.441649599     0.402071993    -0.223053929     0.196430796
   26    22.799249372     1.346847340    37.978794806     0.104393870     0.382539601    -0.304574085
   27    21.463872549     3.347105817    33.266998231     0.416975651    -0.213936136     0.174248776
   28    28.457033266     5.785919564    31.536277096     0.423185361    -0.198265513     0.177777771
   29    29.169663088     8.438732467    35.615791922     0.400595174    -0.224752198     0.197509382
   30    27.939629818     9.352393847    32.312837196     0.413511447    -0.217152856     0.178473864
   31    26.451998879    10.316144539    39.327228411     0.406922576    -0.227668273     0.180502561
   32    28.578873768     0.967131776    38.556156913     0.405743806    -0.227190051     0.183729814
   33    21.642097099     8.341458364    35.958374298     0.408202985    -0.225101999     0.180829791
   34    31.239401070     3.326224325    38.676606773     0.483337706     0.104405452    -0.074055137
   35    28.611690282     7.927868590    30.852819272     0.415847580    -0.212896802     0.178173349
   36    28.125458650     2.914628466    36.186889980     0.449300767    -0.175584153     0.131525762
   37    28.631018011     5.527508351    38.123601239     0.410039904    -0.214543469     0.189310266
   38    26.716066201     6.444715122    34.822739985     0.426759506    -0.197281494     0.170165615
   39    28.902572902     6.140055835    34.248265976     0.434121889    -0.184818716     0.165469719
   40    23.668983334     9.158811583    36.795230876     0.407057003    -0.223547481     0.185286589
   41    27.168355377     2.350716147    34.236207989     0.448379352    -0.174672011     0.135814747
   42    21.452465657     8.792303613    33.685242040     0.417931608    -0.199422029     0.188584266
   43    24.990276384     7.376994107    35.829633050     0.423631144    -0.200169345     0.174553393
   44    29.930671592     4.376335496    35.112971884     0.435843137    -0.185407531     0.160202395
   45    25.270102402     9.893042946    35.288797136     0.412539325    -0.210502179     0.188414803
   46    28.362128812     1.571546586    32.588538481     0.446282214    -0.181188125     0.134175442
   47    27.786592843     2.141280326    40.153303210     0.413607858    -0.210440387     0.186127332
   48    30.991507949     3.798130193    31.074405302     0.407145241    -0.228219424     0.179300439
   49    24.230974386     5.650288800    32.164300129    -0.417532065     0.182858211    -0.205499026
   50    27.385734411     9.724375136    37.285354040     0.401919139    -0.217894589     0.202442470
   51    30.662704514     6.157987514    31.213738926     0.418305031    -0.196581813     0.190726222
   52    30.370157084     9.920369272    31.914917554     0.401891674    -0.213158758     0.207476327
   53    29.639383748     4.600530891    39.837930360     0.406638746    -0.224435407     0.185131516
   54    25.798495980     2.707240179    40.149348099     0.403512122    -0.243660293     0.166756197
   55    24.244719125    10.375549407    33.050754633     0.403556481    -0.221600829     0.195026253
   56    27.355860659     4.368171057    40.014807346     0.413985307    -0.212191626     0.183278147
   57    26.245527177     6.294338761    37.644576002     0.416319387    -0.207773631     0.183052686
   58    25.118487522     0.582470577    37.434905673     0.405019797    -0.225942753     0.186839065
   59    26.770217563     2.061500351    38.150019386     0.411394339    -0.219042524     0.181038865
   60    29.875523483     6.740815511    39.395640635     0.407364699    -0.219207165     0.189742512
   61    30.040400787     2.114311845    40.299050461     0.422832930    -0.205988355     0.169649966
   62    29.872169982     7.630222307    32.733212529     0.420386578    -0.198414588     0.184137927
   63    23.134749286     8.163853824    39.927048486     0.399566437    -0.227130820     0.196871158
   64    24.474708770     9.485545978    30.993867325     0.406129305    -0.212217683     0.200056599
   65    25.601654479     4.212169894    33.840819896     0.375943187    -0.267852516     0.192150332
   66    21.999964055     7.093917345    38.434175844     0.396161042    -0.231765261     0.198346396
   67    28.830947522     3.122821404    38.545971948     0.413151857    -0.221787209     0.173539553
   68    21.993988328     2.653307514    35.645339881     0.471034348    -0.151117245     0.072733905
   21    32.887850729     6.866617572    34.711842625    -0.412021559     0.204770587    -0.195722359
   22    40.220156399     2.250240026    36.751769346     0.457541721    -0.168606673     0.110577409
   23    40.104229981     9.777565738    37.616608977     0.408451499    -0.217924657     0.188881489
   24    35.051020554     4.665279386    38.444720397     0.417346979    -0.202082719     0.187040299
   25    36.329679364     0.909129668    31.729736468     0.402074530    -0.223058836     0.196420029
   26    32.888905321     1.491507551    38.266881676     0.104146115     0.382262426    -0.305006597
   27    31.553528499     3.491766029    33.555085101     0.416971626    -0.213932817     0.174262482
   28    38.546689216     5.930579776    31.824363965     0.423191648    -0.198266611     0.177761583
   29    39.259319038     8.583392678    35.903878791     0.400607651    -0.224755223     0.197480631
   30    38.029285767     9.497054058    32.600924065     0.413518292    -0.217161892     0.178447007
   31    36.541654829    10.460804751    39.615315281     0.406930186    -0.227663722     0.180491145
   32    38.668529717     1.111791988    38.844243783     0.405745950    -0.227185482     0.183730728
   33    31.731753049     8.486118575    36.246461168     0.408201489    -0.225115090     0.180816871
   34    41.329057020     3.470884536    38.964693643     0.483351820     0.104425343    -0.073934875
   35    38.701346232     8.072528802    31.140906142     0.415854433    -0.212898921     0.178154821
   36    38.215114600     3.059288678    36.474976850     0.449300394    -0.175579489     0.131533264
   37    38.720673961     5.672168562    38.411688108     0.410046282    -0.214542361     0.189297706
   38    36.805722151     6.589375333    35.110826855     0.426764130    -0.197285033     0.170149913
   39    38.992228851     6.284716047    34.536352845     0.434127546    -0.184821020     0.165452302
   40    33.758639284     9.303471795    37.083317746     0.407061599    -0.223552642     0.185270264
   41    37.258011327     2.495376359    34.524294859     0.448380476    -0.174668522     0.135815522
   42    31.542121607     8.936963825    33.973328909     0.417926001    -0.199440819     0.188576821
   43    35.079932334     7.521654319    36.117719920     0.423635983    -0.200173081     0.174537365
   44    40.020327542     4.520995708    35.401058754     0.435848227    -0.185410177     0.160185483
   45    35.359758352    10.037703157    35.576884005     0.412545844    -0.210504443     0.188397998
   46    38.451784762     1.716206798    32.876625350     0.446284152    -0.181186855     0.134170711
   47    37.876248792     2.285940537    40.441390080     0.413611151    -0.210439117     0.186121450
   48    41.081163898     3.942790405    31.362492171     0.407151717    -0.228213872     0.179292799
   49    34.320630336     5.794949012    32.452386999    -0.417600052     0.182800170    -0.205412498
   50    37.475390360     9.869035348    37.573440910     0.401927555    -0.217890255     0.202430427
   51    40.752360464     6.302647726    31.501825795     0.418312840    -0.196583126     0.190707741
   52    40.459813034    10.065029484    32.203004424     0.401900895    -0.213168379     0.207448580
   53    39.729039697     4.745191103    40.126017230     0.406645549    -0.224435085     0.185116964
   54    35.888151929     2.851900391    40.437434969     0.403518118    -0.243654970     0.166749465
   55    34.334375075    10.520209618    33.338841503     0.403561435    -0.221610139     0.195005422
   56    37.445516608     4.512831269    40.302894216     0.413989546    -0.212189594     0.183270925
   57    36.335183127     6.438998973    37.932662872     0.416324595    -0.207775059     0.183039220
   58    35.208143472     0.727130788    37.722992543     0.405024939    -0.225927020     0.186846944
   59    36.859873513     2.206160562    38.438106255     0.411398745    -0.219032396     0.181041106
   60    39.965179432     6.885475722    39.683727504     0.407371914    -0.219205927     0.189728452
   61    40.130056736     2.258972057    40.587137330     0.422834230    -0.205990851     0.169643695
   62    39.961825932     7.774882518    33.021299398     0.420393763    -0.198417005     0.184118920
   63    33.224405235     8.308514036    40.215135356     0.399570834    -0.227128078     0.196865396
   64    34.564364719     9.630206190    31.281954195     0.406133918    -0.212227985     0.200036304
   65    35.691310429     4.356830106    34.128906766     0.376259829    -0.267506357     0.192012733
   66    32.089620005     7.238577557    38.722262713     0.396162072    -0.231766007     0.198343466
   67    38.920603471     3.267481616    38.834058818     0.413154955    -0.221787784     0.173531445
   68    32.083644278     2.797967725    35.933426750     0.471030761    -0.151175422     0.072636173
   21     2.753958350    16.457730458    33.878207440    -0.412029041     0.204745141    -0.195733228
   22    10.086264021    11.841352912    35.918134160     0.457542362    -0.168623043     0.110549790
   23     9.970337602    19.368678624    36.782973792     0.408447764    -0.217910911     0.188905424
   24     4.917128176    14.256392272    37.611085212     0.417345176    -0.202073213     0.187054593
   25     6.195786986    10.500242555    30.896101283     0.402072951    -0.223052951     0.196429945
   26     2.755012943    11.082620437    37.433246491     0.104204933     0.382183740    -0.305085104
   27     1.419636120    13.082878915    32.721449916     0.416979228    -0.213916951     0.174263769
   28     8.412796838    15.521692662    30.990728780     0.423190239    -0.198257736     0.177774835
   29     9.125426659    18.174505564    35.070243606     0.400602489    -0.224743785     0.197504118
   30     7.895393389    19.088166945    31.767288880     0.413516049    -0.217145658     0.178471958
   31     6.407762451    20.051917637    38.781680095     0.406929401    -0.227657881     0.180500281
   32     8.534637339    10.702904874    38.010608598     0.405744029    -0.227181558     0.183739822
   33     1.597860671    18.077231461    35.412825983     0.408205487    -0.225101249     0.180825075
   34    11.195164642    13.061997422    38.131058457     0.483352222     0.104333704    -0.074061512
   35     8.567453853    17.663641688    30.307270957     0.415852822    -0.212887605     0.178172103
   36     8.081222222    12.650401564    35.641341664     0.449301430    -0.175584447     0.131523105
   37     8.586781583    15.263281449    37.578052923     0.410042696    -0.214535807     0.189312902
   38     6.671829773    16.180488219    34.277191669     0.426762763    -0.197275475     0.170164424
   39     8.858336473    15.875828933    33.702717660     0.434124526    -0.184812280     0.165469989
   40     3.624746905    18.894584681    36.249682561     0.407064062    -0.223539702     0.185280466
   41     7.124118949    12.086489245    33.690659674     0.448381222    -0.174670483     0.135810538
   42     1.408229228    18.528076711    33.139693724     0.417931417    -0.199428045     0.188578327
   43     4.946039956    17.112767205    35.284084735     0.423635487    -0.200162362     0.174550861
   44     9.886435164    14.112108594    34.567423568     0.435844594    -0.185403465     0.160203137
   45     5.225865974    19.628816043    34.743248820     0.412547232    -0.210491890     0.188408985
   46     8.317892384    11.307319684    32.042990165     0.446285001    -0.181185527     0.134169679
   47     7.742356414    11.877053423    39.607754894     0.413608072    -0.210433197     0.186134983
   48    10.947271520    13.533903291    30.528856986     0.407150765    -0.228212123     0.179297187
   49     4.186737958    15.386061898    31.618751814    -0.417653828     0.182643001    -0.205442971
   50     7.341497982    19.460148234    36.739805725     0.401926034    -0.217884989     0.202439112
   51    10.618468086    15.893760612    30.668190610     0.418310026    -0.196572472     0.190724895
   52    10.325920656    19.656142370    31.369369238     0.401897855    -0.213150046     0.207473305
   53     9.595147319    14.336303989    39.292382045     0.406641481    -0.224426611     0.185136172
   54     5.754259551    12.443013277    39.603799783     0.403512799    -0.243652095     0.166766537
   55     4.200482697    20.111322504    32.505206318     0.403563759    -0.221594808     0.195018035
   56     7.311624230    14.103944155    39.469259030     0.413985887    -0.212184596     0.183284976
   57     6.201290749    16.030111859    37.099027686     0.416323064    -0.207765116     0.183053990
   58     5.074251094    10.318243674    36.889357358     0.405021688    -0.225926901     0.186854135
   59     6.725981135    11.797273448    37.604471070     0.411395919    -0.219030496     0.181049826
   60     9.831287054    16.476588608    38.850092319     0.407367572    -0.219199188     0.189745558
   61     9.996164358    11.850084943    39.753502145     0.422832911    -0.205983472     0.169655941
   62     9.827933554    17.365995404    32.187664213     0.420390622    -0.198405844     0.184138118
   63     3.090512857    17.899626922    39.381500171     0.399569579    -0.227127564     0.196868538
   64     4.430472341    19.221319076    30.448319010     0.406135450    -0.212214542     0.200047455
   65     5.557418051    13.947942992    33.295271581     0.376162180    -0.267674404     0.191969861
   66     1.955727626    16.829690443    37.888627528     0.396163352    -0.231762218     0.198345338
   67     8.786711093    12.858594502    38.000423632     0.413152799    -0.221780264     0.173546187
   68     1.949751899    12.389080612    35.099791565     0.471023333    -0.151228612     0.072573592
   21    12.843614300    16.602390669    34.166294310    -0.412027967     0.204746248    -0.195734330
   22    20.175919970    11.986013124    36.206221030     0.457571595    -0.168463702     0.110671662
   23    20.059993552    19.513338836    37.071060661     0.408448551    -0.217906799     0.188908465
   24    15.006784126    14.401052484    37.899172082     0.417349332    -0.202066896     0.187052144
   25    16.285442936    10.644902766    31.184188153     0.402077405    -0.223041169     0.196434206
   26    12.844668893    11.227280649    37.721333360     0.104351120     0.382212218    -0.304999449
   27    11.509292070    13.227539126    33.009536785     0.416975722    -0.213923621     0.174263971
   28    18.502452788    15.666352873    31.278815650     0.423197074    -0.198245883     0.177771782
   29    19.215082609    18.319165776    35.358330476     0.400606526    -0.224738124     0.197502372
   30    17.985049339    19.232827156    32.055375750     0.413521618    -0.217138626     0.178467611
   31    16.497418400    20.196577849    39.069766965     0.406925518    -0.227656173     0.180511190
   32    18.624293289    10.847565085    38.298695467     0.405750250    -0.227166208     0.183745065
   33    11.687516620    18.221891673    35.700912852     0.408204320    -0.225101957     0.180826828
   34    21.284820591    13.206657634    38.419145327     0.483329051     0.104780135    -0.073580921
   35    18.657109803    17.808301900    30.595357826     0.415859335    -0.212877623     0.178168827
   36    18.170878172    12.795061775    35.929428534     0.449318293    -0.175487167     0.131595312
   37    18.676437533    15.407941660    37.866139793     0.410044636    -0.214538356     0.189305811
   38    16.761485722    16.325148431    34.565278539     0.426767975    -0.197265465     0.170162956
   39    18.947992423    16.020489145    33.990804530     0.434134556    -0.184793691     0.165464435
   40    13.714402855    19.039244892    36.537769430     0.407062621    -0.223540644     0.185282495
   41    17.213774899    12.231149456    33.978746543     0.448395252    -0.174589239     0.135868669
   42    11.497885178    18.672736922    33.427780593     0.417930090    -0.199428844     0.188580424
   43    15.035695905    17.257427416    35.572171604     0.423639104    -0.200154756     0.174550804
   44    19.976091114    14.256768805    34.855510438     0.435857586    -0.185377038     0.160198373
   45    15.315521923    19.773476255    35.031335690     0.412545808    -0.210490336     0.188413840
   46    18.407548334    11.451979896    32.331077034     0.446298646    -0.181117786     0.134215745
   47    17.832012364    12.021713635    39.895841764     0.413613115    -0.210419316     0.186139470
   48    21.036927470    13.678563502    30.816943855     0.407158990    -0.228197709     0.179296856
   49    14.276393908    15.530722109    31.906838683    -0.417649895     0.182594849    -0.205493762
   50    17.431153932    19.604808445    37.027892594     0.401923696    -0.217880851     0.202448209
   51    20.708124035    16.038420824    30.956277480     0.418317608    -0.196560950     0.190720139
   52    20.415576605    19.800802581    31.657456108     0.401904571    -0.213146030     0.207464419
   53    19.684803269    14.480964201    39.580468914     0.406643373    -0.224439968     0.185115823
   54    15.843915501    12.587673489    39.891886653     0.403515668    -0.243644632     0.166770497
   55    14.290138647    20.255982716    32.793293187     0.403562780    -0.221592736     0.195022413
   56    17.401280180    14.248604367    39.757345900     0.413991244    -0.212175700     0.183283176
   57    16.290946698    16.174772071    37.387114556     0.416326729    -0.207760243     0.183051184
   58    15.163907044    10.462903886    37.177444227     0.405025838    -0.225911870     0.186863312
   59    16.815637085    11.941933660    37.892557939     0.411401776    -0.219011501     0.181059495
   60    19.920943004    16.621248820    39.138179189     0.407367543    -0.219207668     0.189735825
   61    20.085820308    11.994745154    40.041589015     0.422835271    -0.205965116     0.169672344
   62    19.917589503    17.510655616    32.475751082     0.420398524    -0.198394179     0.184132646
   63    13.180168807    18.044287134    39.669587040     0.399565497    -0.227127858     0.196876484
   64    14.520128291    19.365979288    30.736405879     0.406135054    -0.212210690     0.200052345
   65    15.647074001    14.092603204    33.583358450     0.376169349    -0.267623153     0.192027260
   66    12.045383576    16.974350654    38.176714398     0.396160747    -0.231761731     0.198351109
   67    18.876367043    13.003254713    38.288510502     0.413159154    -0.221775220     0.173537504
   68    12.039407849    12.533740823    35.387878435     0.471023838    -0.151198137     0.072633787
   21    22.933270250    16.747050881    34.454381179    -0.412037015     0.204738964    -0.195722904
   22    30.265575920    12.130673336    36.494307900     0.457547720    -0.168558063     0.110626683
   23    30.149649502    19.657999047    37.359147531     0.408445908    -0.217909470     0.188911098
   24    25.096440076    14.545712695    38.187258951     0.417340771    -0.202081052     0.187055953
   25    26.375098886    10.789562978    31.472275022     0.402066398    -0.223059791     0.196435590
   26    22.934324843    11.371940861    38.009420230     0.104176687     0.382879581    -0.304221046
   27    21.598948020    13.372199338    33.297623655     0.416987274    -0.213951851     0.174201662
   28    28.592108738    15.811013085    31.566902519     0.423190125    -0.198263985     0.177768137
   29    29.304738559    18.463825988    35.646417345     0.400600985    -0.224741676     0.197509569
   30    28.074705289    19.377487368    32.343462619     0.413514491    -0.217152931     0.178466719
   31    26.587074350    20.341238060    39.357853835     0.406928672    -0.227650528     0.180511198
   32    28.713949239    10.992225297    38.586782337     0.405737763    -0.227195480     0.183736446
   33    21.777172570    18.366551885    35.988999722     0.408208518    -0.225097503     0.180822896
   34    31.374476541    13.351317846    38.707232197     0.483344045     0.104584187    -0.073760982
   35    28.746765753    17.952962111    30.883444696     0.415851229    -0.212895482     0.178166409
   36    28.260534121    12.939721987    36.217515403     0.449300009    -0.175552985     0.131569951
   37    28.766093482    15.552601872    38.154226662     0.410037816    -0.214544532     0.189313585
   38    26.851141672    16.469808643    34.853365409     0.426760716    -0.197279588     0.170164788
   39    29.037648373    16.165149356    34.278891399     0.434124145    -0.184815635     0.165467242
   40    23.804058805    19.183905104    36.825856300     0.407063359    -0.223539622     0.185282108
   41    27.303430848    12.375809668    34.266833413     0.448377884    -0.174647573     0.135851014
   42    21.587541128    18.817397134    33.715867463     0.417937203    -0.199420028     0.188573983
   43    25.125351855    17.402087628    35.860258474     0.423632703    -0.200167106     0.174552176
   44    30.065747063    14.401429017    35.143597308     0.435844118    -0.185405193     0.160202430
   45    25.405177873    19.918136467    35.319422559     0.412545435    -0.210491214     0.188413674
   46    28.497204284    11.596640107    32.619163904     0.446280919    -0.181169059     0.134205490
   47    27.921668314    12.166373847    40.183928634     0.413600634    -0.210444212     0.186139058
   48    31.126583420    13.823223714    31.105030725     0.407148197    -0.228227571     0.179283355
   49    24.366049857    15.675382321    32.194925553    -0.417704905     0.182722743    -0.205268146
   50    27.520809882    19.749468657    37.315979464     0.401924767    -0.217876814     0.202450427
   51    30.797779985    16.183081035    31.244364349     0.418308732    -0.196580180     0.190719789
   52    30.505232555    19.945462793    31.945542978     0.401899103    -0.213155642     0.207465139
   53    29.774459219    14.625624412    39.868555784     0.406635130    -0.224443348     0.185129833
   54    25.933571451    12.732333700    40.179973523     0.403506224    -0.243662287     0.166767554
   55    24.379794596    20.400642928    33.081380057     0.403562818    -0.221592639     0.195022445
   56    27.490936130    14.393264578    40.045432770     0.413980902    -0.212195160     0.183284005
   57    26.380602648    16.319432282    37.675201426     0.416318097    -0.207773509     0.183055761
   58    25.253562993    10.607564098    37.465531097     0.405015533    -0.225954252     0.186834401
   59    26.905293034    12.086593872    38.180644809     0.411390895    -0.219047994     0.181040073
   60    30.010598954    16.765909032    39.426266058     0.407361290    -0.219207992     0.189748876
   61    30.175476258    12.139405366    40.329675884     0.422823473    -0.205991514     0.169669700
   62    30.007245453    17.655315828    32.763837952     0.420389299    -0.198411518     0.184135024
   63    23.269824757    18.188947345    39.957673910     0.399567182    -0.227127899     0.196873016
   64    24.609784241    19.510639499    31.024492749     0.406134714    -0.212211122     0.200052577
   65    25.736729950    14.237263415    33.871445320     0.375959893    -0.267908325     0.192039808
   66    22.135039526    17.119010866    38.464801267     0.396160380    -0.231766559     0.198346202
   67    28.966022993    13.147914925    38.576597372     0.413146195    -0.221794206     0.173544092
   68    22.129063799    12.678401035    35.675965304     0.471067825    -0.150964556     0.072834106
   21    33.022926200    16.891711093    34.742468049    -0.412023477     0.204760040    -0.195729355
   22    40.355231870    12.275333547    36.782394769     0.457543339    -0.168649857     0.110504836
   23    40.239305452    19.802659259    37.647234400     0.408446435    -0.217902476     0.188918026
   24    35.186096025    14.690372907    38.475345821     0.417343137    -0.202086197     0.187045115
   25    36.464754835    10.934223190    31.760361892     0.402069131    -0.223076710     0.196410781
   26    33.023980792    11.516601072    38.297507099     0.104280936     0.382602165    -0.304534184
   27    31.688603970    13.516859550    33.585710525     0.416972934    -0.213958029     0.174228396
   28    38.681764687    15.955673297    31.854989389     0.423190666    -0.198258615     0.177772836
   29    39.394394509    18.608486199    35.934504215     0.400601403    -0.224736134     0.197515026
   30    38.164361238    19.522147580    32.631549489     0.413515505    -0.217151420     0.178466210
   31    36.676730300    20.485898272    39.645940704     0.406924271    -0.227653694     0.180517127
   32    38.803605188    11.136885509    38.874869207     0.405745651    -0.227193820     0.183721079
   33    31.866828520    18.511212096    36.277086591     0.408200994    -0.225109597     0.180824826
   34    41.464132491    13.495978057    38.995319066     0.483341010     0.104306789    -0.074172515
   35    38.836421703    18.097622323    31.171531566     0.415851976    -0.212892773     0.178167901
   36    38.350190071    13.084382199    36.505602273     0.449303655    -0.175602685     0.131491149
   37    38.855749432    15.697262083    38.442313532     0.410043114    -0.214539595     0.189307703
   38    36.940797622    16.614468854    35.141452278     0.426761790    -0.197282466     0.170158759
   39    39.127304322    16.309809568    34.566978269     0.434126795    -0.184815150     0.165460830
   40    33.893714755    19.328565316    37.113943170     0.407057802    -0.223548975     0.185283031
   41    37.393086798    12.520469880    34.554920282     0.448383821    -0.174687271     0.135780361
   42    31.677197078    18.962057346    34.003954333     0.417928272    -0.199435822     0.188577072
   43    35.215007805    17.546747840    36.148345344     0.423633143    -0.200170915     0.174546741
   44    40.155403013    14.546089229    35.431684177     0.435846461    -0.185407753     0.160193095
   45    35.494833823    20.062796678    35.607509429     0.412541496    -0.210499771     0.188412740
   46    38.586860233    11.741300319    32.907250774     0.446286549    -0.181202687     0.134141354
   47    38.011324263    12.311034058    40.472015503     0.413610609    -0.210441185     0.186120315
   48    41.216239369    13.967883926    31.393117595     0.407150749    -0.228211222     0.179298371
   49    34.455705807    15.820042533    32.483012422    -0.417635374     0.182783989    -0.205355078
   50    37.610465831    19.894128869    37.604066334     0.401919899    -0.217882665     0.202453795
   51    40.887435935    16.327741247    31.532451219     0.418311348    -0.196574916     0.190719477
   52    40.594888505    20.090123005    32.233629847     0.401898464    -0.213155558     0.207466462
   53    39.864115169    14.770284624    40.156642654     0.406642812    -0.224426711     0.185133127
   54    36.023227400    12.876993912    40.468060392     0.403516306    -0.243659045     0.166747896
   55    34.469450546    20.545303139    33.369466926     0.403559752    -0.221602130     0.195018005
   56    37.580592079    14.537924790    40.333519639     0.413988849    -0.212189996     0.183272034
   57    36.470258598    16.464092494    37.963288295     0.416320894    -0.207776158     0.183046392
   58    35.343218943    10.752224309    37.753617967     0.405021249    -0.225948602     0.186828845
   59    36.994948984    12.231254083    38.468731679     0.411396757    -0.219046787     0.181028213
   60    40.100254903    16.910569243    39.714352928     0.407368230    -0.219199650     0.189743612
   61    40.265132207    12.284065578    40.617762754     0.422835364    -0.205990840     0.169640882
   62    40.096901403    17.799976039    33.051924822     0.420391447    -0.198407463     0.184134488
   63    33.359480706    18.333607557    40.245760779     0.399562873    -0.227131114     0.196878053
   64    34.699440191    19.655299711    31.312579619     0.406131859    -0.212221173     0.200047711
   65    35.826385900    14.381923627    34.159532189     0.376322282    -0.267376882     0.192070673
   66    32.224695476    17.263671078    38.752888137     0.396156755    -0.231768346     0.198351353
   67    39.055678942    13.292575137    38.864684241     0.413153246    -0.221787749     0.173535557
   68    32.218719749    12.823061247    35.964052174     0.471039097    -0.151089999     0.072759750
   21     2.889033821    26.482823979    33.908832864    -0.412029357     0.204741032    -0.195736861
   22    10.221339492    21.866446433    35.948759584     0.457549854    -0.168571426     0.110597493
   23    10.105413073    29.393772145    36.813599215     0.408441532    -0.217925783     0.188901741
   24     5.052203647    24.281485793    37.641710636     0.417347323    -0.202073076     0.187049951
   25     6.330862457    20.525336076    30.926726707     0.402071630    -0.223050574     0.196435348
   26     2.890088414    21.107713958    37.463871914     0.104160627     0.382763660    -0.304372377
   27     1.554711591    23.107972436    32.752075339     0.416986121    -0.213947650     0.174209582
   28     8.547872309    25.546786183    31.021354203     0.423189273    -0.198263250     0.177770985
   29     9.260502130    28.199599085    35.100869030     0.400597617    -0.224756806     0.197499182
   30     8.030468860    29.113260466    31.797914304     0.413516644    -0.217151944     0.178462932
   31     6.542837922    30.077011158    38.812305519     0.406922755    -0.227665053     0.180506219
   32     8.669712810    20.727998395    38.041234021     0.405744282    -0.227187060     0.183732461
   33     1.732936142    28.102324982    35.443451406     0.408204054    -0.225100604     0.180829114
   34    11.330240113    23.087090943    38.161683881     0.483344461     0.104492576    -0.073887983
   35     8.702529324    27.688735209    30.337896380     0.415851865    -0.212893849     0.178166875
   36     8.216297693    22.675495085    35.671967088     0.449303758    -0.175556494     0.131552462
   37     8.721857054    25.288374970    37.608678347     0.410042689    -0.214541382     0.189306600
   38     6.806905244    26.205581740    34.307817093     0.426762214    -0.197277066     0.170163955
   39     8.993411944    25.900922454    33.733343084     0.434123010    -0.184817207     0.165468464
   40     3.759822376    28.919678202    36.280307984     0.407059235    -0.223544507     0.185285273
   41     7.259194420    22.111582766    33.721285097     0.448382069    -0.174647897     0.135836786
   42     1.543304699    28.553170232    33.170319147     0.417931250    -0.199424760     0.188582172
   43     5.081115427    27.137860726    35.314710158     0.423634788    -0.200163749     0.174550967
   44    10.021510635    24.137202115    34.598048992     0.435842403    -0.185408588     0.160203168
   45     5.360941445    29.653909564    34.773874244     0.412542801    -0.210497357     0.188412579
   46     8.452967855    21.332413205    32.073615588     0.446284995    -0.181168351     0.134192889
   47     7.877431885    21.902146944    39.638380318     0.413607563    -0.210438596     0.186130012
   48    11.082346991    23.558996812    30.559482409     0.407148129    -0.228220852     0.179292062
   49     4.321813429    25.411155419    31.649377237    -0.417535907     0.182764650    -0.205574438
   50     7.476573453    29.485241755    36.770431148     0.401919576    -0.217889600     0.202446972
   51    10.753543557    25.918854133    30.698816034     0.418309132    -0.196578025     0.190721133
   52    10.460996127    29.681235891    31.399994662     0.401896242    -0.213158531     0.207467711
   53     9.730222790    24.361397510    39.323007468     0.406640045    -0.224438647     0.185124736
   54     5.889335022    22.468106798    39.634425207     0.403510884    -0.243659308     0.166760632
   55     4.335558168    30.136416025    32.535831741     0.403563243    -0.221596205     0.195017513
   56     7.446699701    24.129037676    39.499884454     0.413986461    -0.212189633     0.183277849
   57     6.336366220    26.055205380    37.129653110     0.416323468    -0.207766550     0.183051442
   58     5.209326565    20.343337195    36.919982781     0.405022395    -0.225941687     0.186834723
   59     6.861056606    21.822366969    37.635096493     0.411397197    -0.219037309     0.181038680
   60     9.966362525    26.501682129    38.880717742     0.407365791    -0.219207063     0.189740284
   61    10.131239829    21.875178464    39.784127569     0.422831329    -0.205986537     0.169656163
   62     9.963009025    27.391088925    32.218289636     0.420388635    -0.198413056     0.184134881
   63     3.225588328    27.924720443    39.412125594     0.399566704    -0.227129380     0.196872278
   64     4.565547812    29.246412597    30.478944433     0.406135902    -0.212213292     0.200047863
   65     5.692493522    23.973036513    33.325897004     0.376121270    -0.267723614     0.191981397
   66     2.090803098    26.854783964    37.919252952     0.396160358    -0.231764189     0.198349013
   67     8.921786564    22.883688023    38.031049056     0.413152859    -0.221786477     0.173538103
   68     2.084827370    22.414174133    35.130416989     0.471044536    -0.151058547     0.072789838
   21    12.978689771    26.627484190    34.196919733    -0.412015557     0.204765672    -0.195740134
   22    20.310995441    22.011106645    36.236846454     0.457542513    -0.168569219     0.110631219
   23    20.195069023    29.538432357    37.101686085     0.408441472    -0.217925421     0.188902289
   24    15.141859597    24.426146005    37.929797505     0.417342371    -0.202082250     0.187051089
   25    16.420518407    20.669996287    31.214813576     0.402073068    -0.223051462     0.196431395
   26    12.979744364    21.252374170    37.751958784     0.104234857     0.382457024    -0.304732209
   27    11.644367541    23.252632647    33.040162209     0.416967743    -0.213959409     0.174239124
   28    18.637528259    25.691446394    31.309441073     0.423193344    -0.198256149     0.177769213
   29    19.350158080    28.344259297    35.388955899     0.400597881    -0.224757047     0.197498375
   30    18.120124810    29.257920677    32.086001173     0.413518136    -0.217148636     0.178463501
   31    16.632493871    30.221671370    39.100392389     0.406921370    -0.227664683     0.180509808
   32    18.759368760    20.872658606    38.329320891     0.405742051    -0.227187046     0.183737405
   33    11.822592091    28.246985194    35.731538276     0.408200633    -0.225112017     0.180822628
   34    21.419896063    23.231751155    38.449770751     0.483358379     0.104515118    -0.073764950
   35    18.792185274    27.833395421    30.625983250     0.415856258    -0.212888065     0.178163532
   36    18.305953643    22.820155296    35.960053957     0.449298531    -0.175556988     0.131569654
   37    18.811513004    25.433035181    37.896765216     0.410041269    -0.214548692     0.189301392
   38    16.896561194    26.350241952    34.595903963     0.426761578    -0.197282018     0.170159810
   39    19.083067894    26.045582666    34.021429953     0.434128877    -0.184811449     0.165459501
   40    13.849478326    29.064338413    36.568394854     0.407058112    -0.223551859     0.185278869
   41    17.348850370    22.256242977    34.009371967     0.448377969    -0.174648616     0.135849394
   42    11.632960649    28.697830443    33.458406017     0.417925952    -0.199440929     0.188576815
   43    15.170771376    27.282520937    35.602797028     0.423632558    -0.200170590     0.174548534
   44    20.111166585    24.281862326    34.886135862     0.435849538    -0.185400793     0.160192777
   45    15.450597394    29.798569776    35.061961113     0.412541579    -0.210500373     0.188411885
   46    18.542623805    21.477073417    32.361702458     0.446282573    -0.181168059     0.134201340
   47    17.967087835    22.046807156    39.926467187     0.413603190    -0.210445284     0.186132168
   48    21.172002941    23.703657023    30.847569279     0.407156066    -0.228209688     0.179288249
   49    14.411469379    25.555815631    31.937464107    -0.417549737     0.182703377    -0.205600810
   50    17.566229403    29.629901966    37.058518018     0.401918486    -0.217892221     0.202446315
   51    20.843199506    26.063514345    30.986902903     0.418313897    -0.196572662     0.190716208
   52    20.550652076    29.825896102    31.688081532     0.401901476    -0.213153413     0.207462831
   53    19.819878740    24.506057722    39.611094338     0.406639844    -0.224445383     0.185117011
   54    15.978990972    22.612767010    39.922512077     0.403505020    -0.243664330     0.166767481
   55    14.425214118    30.281076237    32.823918611     0.403561204    -0.221598815     0.195018768
   56    17.536355651    24.273697888    39.787971324     0.413983545    -0.212193893     0.183279503
   57    16.426022169    26.199865592    37.417739980     0.416319971    -0.207775897     0.183048787
   58    15.298982515    20.487997407    37.208069651     0.405018331    -0.225934814     0.186851842
   59    16.950712556    21.967027181    37.923183363     0.411393274    -0.219035216     0.181050127
   60    20.056018475    26.646342341    39.168804612     0.407367354    -0.219212875     0.189730214
   61    20.220895779    22.019838675    40.072214438     0.422825666    -0.205996692     0.169657946
   62    20.052664974    27.535749137    32.506376506     0.420393433    -0.198406778     0.184130693
   63    13.315244278    28.069380655    39.700212464     0.399565781    -0.227136356     0.196866103
   64    14.655203762    29.391072809    30.767031303     0.406134561    -0.212215572     0.200048168
   65    15.782149472    24.117696725    33.613983874     0.376043016    -0.267643041     0.192246853
   66    12.180459047    26.999444175    38.207339821     0.396160194    -0.231770518     0.198341947
   67    19.011442514    23.028348234    38.319135926     0.413150163    -0.221792747     0.173536510
   68    12.174483320    22.558834344    35.418503858     0.471037285    -0.151119089     0.072711051
   21    23.068345721    26.772144402    34.485006603    -0.412038642     0.204739349    -0.195719075
   22    30.400651391    22.155766857    36.524933323     0.457543586    -0.168583879     0.110604440
   23    30.284724973    29.683092568    37.389772954     0.408457773    -0.217890360     0.188907488
   24    25.231515547    24.570806216    38.217884375     0.417350830    -0.202064228     0.187051685
   25    26.510174357    20.814656499    31.502900446     0.402068457    -0.223058442     0.196432908
   26    23.069400314    21.397034382    38.040045653     0.104120113     0.382556828    -0.304646147
   27    21.734023491    23.397292859    33.328249078     0.416987812    -0.213945847     0.174207747
   28    28.727184209    25.836106606    31.597527943     0.423195527    -0.198247342     0.177773837
   29    29.439814030    28.488919509    35.677042769     0.400615378    -0.224719466     0.197505646
   30    28.209780760    29.402580889    32.374088043     0.413523160    -0.217135495     0.178467850
   31    26.722149821    30.366331581    39.388479258     0.406936820    -0.227639542     0.180506684
   32    28.849024710    21.017318818    38.617407761     0.405744659    -0.227179791     0.183740616
   33    21.912248041    28.391645406    36.019625145     0.408209366    -0.225101718     0.180815735
   34    31.509552012    23.376411367    38.737857620     0.483354145     0.104464508    -0.073864313
   35    28.881841224    27.978055632    30.914070120     0.415858588    -0.212878638     0.178169359
   36    28.395609592    22.964815508    36.248140827     0.449301512    -0.175559965     0.131555501
   37    28.901168954    25.577695393    38.184852086     0.410050515    -0.214526290     0.189306751
   38    26.986217143    26.494902164    34.883990832     0.426768644    -0.197265317     0.170161450
   39    29.172723844    26.190242877    34.309516823     0.434131462    -0.184800574     0.165464866
   40    23.939134276    29.208998625    36.856481724     0.407069522    -0.223535641     0.185273369
   41    27.438506319    22.400903189    34.297458836     0.448381442    -0.174649149     0.135837246
   42    21.722616599    28.842490655    33.746492887     0.417935124    -0.199429003     0.188569099
   43    25.260427326    27.427181149    35.890883898     0.423641198    -0.200153449     0.174547221
   44    30.200822534    24.426522538    35.174222731     0.435851197    -0.185391395     0.160199140
   45    25.540253344    29.943229988    35.350047983     0.412553542    -0.210482061     0.188406149
   46    28.632279755    21.621733629    32.649789328     0.446284718    -0.181170153     0.134191378
   47    28.056743785    22.191467368    40.214554057     0.413611263    -0.210424798     0.186137387
   48    31.261658891    23.848317235    31.135656149     0.407153566    -0.228206512     0.179297968
   49    24.501125328    25.700475842    32.225550976    -0.417719379     0.182755733    -0.205209314
   50    27.655885353    29.774562178    37.346604888     0.401935024    -0.217863728     0.202444148
   51    30.932855456    26.208174556    31.274989773     0.418316602    -0.196561600     0.190721676
   52    30.640308026    29.970556314    31.976168401     0.401906111    -0.213141058     0.207466545
   53    29.909534690    24.650717933    39.899181208     0.406649456    -0.224420437     0.185126139
   54    26.068646922    22.757427221    40.210598946     0.403517400    -0.243642534     0.166769373
   55    24.514870068    30.425736449    33.112005480     0.403572146    -0.221581591     0.195015696
   56    27.626011601    24.418358099    40.076058193     0.413991562    -0.212174578     0.183283755
   57    26.515678119    26.344525803    37.705826849     0.416328618    -0.207756114     0.183051575
   58    25.388638464    20.632657619    37.496156521     0.405021690    -0.225931794     0.186848214
   59    27.040368505    22.111687393    38.211270233     0.411396533    -0.219030192     0.181048799
   60    30.145674425    26.791002553    39.456891482     0.407375783    -0.219187878     0.189740996
   61    30.310551729    22.164498887    40.360301308     0.422836178    -0.205972215     0.169661468
   62    30.142320924    27.680409349    32.794463376     0.420398087    -0.198392496     0.184135456
   63    23.404900228    28.214040866    39.988299333     0.399573891    -0.227127468     0.196859897
   64    24.744859712    29.535733020    31.055118173     0.406143382    -0.212200563     0.200046181
   65    25.871805421    24.262356936    33.902070743     0.376362557    -0.267242656     0.192178532
   66    22.270114997    27.144104387    38.495426691     0.396165833    -0.231766662     0.198335187
   67    29.101098464    23.173008446    38.607222795     0.413157134    -0.221774994     0.173542601
   68    22.264139270    22.703494556    35.706590728     0.471029734    -0.151115823     0.072766732
   21    33.158001671    26.916804614    34.773093473    -0.412043527     0.204724009    -0.195724838
   22    40.490307341    22.300427068    36.813020193     0.457552306    -0.168533410     0.110645277
   23    40.374380923    29.827752780    37.677859824     0.408443438    -0.217900703     0.188926551
   24    35.321171496    24.715466428    38.505971244     0.417345722    -0.202070690     0.187056101
   25    36.599830306    20.959316711    31.790987315     0.402069874    -0.223059781     0.196428487
   26    33.159056263    21.541694593    38.328132523     0.104268550     0.382499710    -0.304667099
   27    31.823679441    23.541953071    33.616335948     0.416986436    -0.213930472     0.174229921
   28    38.816840158    25.980766818    31.885614812     0.423191831    -0.198253077     0.177776240
   29    39.529469980    28.633579720    35.965129638     0.400599226    -0.224733527     0.197522409
   30    38.299436709    29.547241101    32.662174913     0.413516378    -0.217143521     0.178473798
   31    36.811805771    30.510991793    39.676566128     0.406924675    -0.227648093     0.180523279
   32    38.938680660    21.161979030    38.905494630     0.405741420    -0.227181209     0.183746015
   33    32.001903991    28.536305617    36.307712015     0.408213063    -0.225088251     0.180824152
   34    41.599207962    23.521071578    39.025944490     0.483341878     0.104638093    -0.073698703
   35    38.971497174    28.122715844    31.202156989     0.415854079    -0.212885293     0.178171930
   36    38.485265542    23.109475720    36.536227697     0.449304844    -0.175535049     0.131577368
   37    38.990824903    25.722355604    38.472938955     0.410040155    -0.214538827     0.189314984
   38    37.075873093    26.639562375    35.172077702     0.426765972    -0.197268422     0.170164554
   39    39.262379794    26.334903089    34.597603692     0.434130432    -0.184803153     0.165464688
   40    34.028790226    29.353658837    37.144568593     0.407066265    -0.223531978     0.185284945
   41    37.528162269    22.545563401    34.585545706     0.448384114    -0.174630722     0.135852117
   42    31.812272549    28.987150867    34.034579756     0.417938854    -0.199414813     0.188575839
   43    35.350083276    27.571841361    36.178970767     0.423638356    -0.200155284     0.174552014
   44    40.290478484    24.571182750    35.462309601     0.435851441    -0.185392088     0.160197676
   45    35.629909294    30.087890199    35.638134852     0.412546604    -0.210485068     0.188417981
   46    38.721935704    21.766393840    32.937876197     0.446287198    -0.181156114     0.134202085
   47    38.146399734    22.336127579    40.502640927     0.413605431    -0.210428296     0.186146392
   48    41.351314841    23.992977447    31.423743018     0.407152102    -0.228208278     0.179299045
   49    34.590781278    25.845136054    32.513637846    -0.417714256     0.182617368    -0.205342877
   50    37.745541302    29.919222390    37.634691757     0.401920944    -0.217874583     0.202460417
   51    41.022511406    26.352834768    31.563076642     0.418312114    -0.196568794     0.190724105
   52    40.729963976    30.115216526    32.264255271     0.401897885    -0.213150584     0.207472693
   53    39.999190640    24.795378145    40.187268077     0.406638632    -0.224436294     0.185130691
   54    36.158302871    22.902087433    40.498685816     0.403512757    -0.243644689     0.166777457
   55    34.604526017    30.570396660    33.400092350     0.403564338    -0.221587756     0.195024849
   56    37.715667550    24.563018311    40.364145063     0.413985426    -0.212180869     0.183290333
   57    36.605334069    26.489186015    37.993913719     0.416323166    -0.207763512     0.183055579
   58    35.478294414    20.777317830    37.784243390     0.405015317    -0.225938746     0.186853623
   59    37.130024455    22.256347604    38.499357102     0.411392160    -0.219033209     0.181055085
   60    40.235330374    26.935662764    39.744978351     0.407364844    -0.219200953     0.189749376
   61    40.400207679    22.309159099    40.648388178     0.422829756    -0.205972860     0.169676689
   62    40.231976874    27.825069560    33.082550245     0.420392377    -0.198401795     0.184138472
   63    33.494556177    28.358701078    40.276386203     0.399573184    -0.227115824     0.196874765
   64    34.834515662    29.680393232    31.343205042     0.406136403    -0.212205733     0.200054864
   65    35.961461371    24.407017148    34.190157613     0.376215701    -0.267674091     0.191865389
   66    32.359770947    27.288764599    38.783513561     0.396169120    -0.231750516     0.198347491
   67    39.190754413    23.317668658    38.895309665     0.413150612    -0.221783057     0.173547825
   68    32.353795220    22.848154768    35.994677597     0.471029416    -0.151138956     0.072720733
   21     3.024109292    36.507917500    33.939458287    -0.412022625     0.204748916    -0.195742785
   22    10.356414963    31.891539954    35.979385008     0.457537939    -0.168637135     0.110546603
   23    10.240488544    39.418865666    36.844224639     0.408447188    -0.217898040     0.188921515
   24     5.187279118    34.306579314    37.672336059     0.417340654    -0.202078104     0.187059398
   25     6.465937928    30.550429597    30.957352130     0.402072773    -0.223058232     0.196424313
   26     3.025163885    31.132807479    37.494497338     0.104366366     0.382679842    -0.304407294
   27     1.689787062    33.133065957    32.782700763     0.416992055    -0.213952447     0.174189486
   28     8.682947780    35.571879704    31.051979627     0.423192132    -0.198252819     0.177775811
   29     9.395577601    38.224692606    35.131494453     0.400602069    -0.224728750     0.197522077
   30     8.165544331    39.138353987    31.828539727     0.413518325    -0.217139252     0.178474480
   31     6.677913393    40.102104679    38.842930943     0.406926637    -0.227649702     0.180516827
   32     8.804788281    30.753091916    38.071859445     0.405738029    -0.227193713     0.183738043
   33     1.868011613    38.127418504    35.474076830     0.408204855    -0.225101505     0.180826183
   34    11.465315584    33.112184464    38.192309305     0.483361691     0.104299280    -0.074048197
   35     8.837604795    37.713828730    30.368521804     0.415854007    -0.212884745     0.178172753
   36     8.351373164    32.700588606    35.702592511     0.449299270    -0.175592650     0.131519533
   37     8.856932525    35.313468491    37.639303770     0.410038340    -0.214540055     0.189317523
   38     6.941980715    36.230675261    34.338442517     0.426761781    -0.197274065     0.170168521
   39     9.128487415    35.926015975    33.763968507     0.434127525    -0.184805895     0.165469253
   40     3.894897847    38.944771723    36.310933408     0.407062042    -0.223538473     0.185286386
   41     7.394269891    32.136676287    33.751910521     0.448379932    -0.174675930     0.135807791
   42     1.678380170    38.578263753    33.200944571     0.417931667    -0.199428986     0.188576778
   43     5.216190898    37.162954247    35.345335582     0.423633248    -0.200162272     0.174556398
   44    10.156586106    34.162295636    34.628674415     0.435848843    -0.185395517     0.160200775
   45     5.496016916    39.679003085    34.804499667     0.412544722    -0.210488099     0.188418716
   46     8.588043326    31.357506726    32.104241012     0.446283791    -0.181189996     0.134167667
   47     8.012507356    31.927240465    39.669005741     0.413602252    -0.210442848     0.186137006
   48    11.217422462    33.584090333    30.590107833     0.407152120    -0.228211484     0.179294922
   49     4.456888900    35.436248940    31.680002661    -0.417591809     0.182636129    -0.205575110
   50     7.611648924    39.510335276    36.801056572     0.401922893    -0.217876449     0.202454540
   51    10.888619028    35.943947654    30.729441457     0.418311539    -0.196568300     0.190725877
   52    10.596071598    39.706329412    31.430620086     0.401899878    -0.213144458     0.207475127
   53     9.865298261    34.386491031    39.353632892     0.406636429    -0.224430322     0.185142771
   54     6.024410493    32.493200319    39.665050631     0.403504226    -0.243665192     0.166768144
   55     4.470633639    40.161509546    32.566457165     0.403563621    -0.221587551     0.195026566
   56     7.581775172    34.154131197    39.530509877     0.413979988    -0.212192766     0.183288842
   57     6.471441691    36.080298901    37.160278534     0.416318090    -0.207770088     0.183059657
   58     5.344402036    30.368430716    36.950608205     0.405014756    -0.225948942     0.186842509
   59     6.996132077    31.847460490    37.665721917     0.411389654    -0.219047053     0.181044031
   60    10.101437996    36.526775650    38.911343166     0.407362252    -0.219202677     0.189752951
   61    10.266315300    31.900271985    39.814752992     0.422826931    -0.205993059     0.169659206
   62    10.098084496    37.416182446    32.248915060     0.420392385    -0.198399304     0.184141139
   63     3.360663799    37.949813964    39.442751018     0.399568144    -0.227124997     0.196874412
   64     4.700623283    39.271506118    30.509569857     0.406135538    -0.212206778     0.200055512
   65     5.827568993    33.998130034    33.356522428     0.375946460    -0.267690937     0.192368972
   66     2.225878569    36.879877485    37.949878375     0.396162596    -0.231761739     0.198347407
   67     9.056862035    32.908781544    38.061674480     0.413147589    -0.221787736     0.173549040
   68     2.219902841    32.439267654    35.161042412     0.471039023    -0.151055795     0.072831213
   21    13.113765242    36.652577711    34.227545157    -0.412023013     0.204747803    -0.195743132
   22    20.446070912    32.036200166    36.267471877     0.457526236    -0.168641281     0.110588705
   23    20.330144494    39.563525878    37.132311508     0.408447024    -0.217911021     0.188906896
   24    15.276935068    34.451239526    37.960422929     0.417341061    -0.202083465     0.187052699
   25    16.555593878    30.695089808    31.245439000     0.402071640    -0.223058119     0.196426759
   26    13.114819835    31.277467691    37.782584207     0.104430054     0.382209608    -0.304975703
   27    11.779443012    33.277726168    33.070787632     0.416987986    -0.213907727     0.174254135
   28    18.772603730    35.716539915    31.340066497     0.423191945    -0.198260679     0.177767490
   29    19.485233551    38.369352818    35.419581323     0.400602690    -0.224742841     0.197504786
   30    18.255200281    39.283014198    32.116626597     0.413516303    -0.217151096     0.178464754
   31    16.767569342    40.246764891    39.131017812     0.406924160    -0.227662408     0.180506387
   32    18.894444231    30.897752128    38.359946314     0.405737180    -0.227197011     0.183735840
   33    11.957667562    38.272078715    35.762163699     0.408202903    -0.225102437     0.180829431
   34    21.554971534    33.256844676    38.480396174     0.483379293     0.104302650    -0.073928453
   35    18.927260745    37.858488942    30.656608674     0.415853185    -0.212891642     0.178166431
   36    18.441029114    32.845248818    35.990679381     0.449289776    -0.175599338     0.131543033
   37    18.946588475    35.458128702    37.927390640     0.410036835    -0.214551893     0.189307368
   38    17.031636665    36.375335473    34.626529386     0.426761794    -0.197280229     0.170161342
   39    19.218143365    36.070676187    34.052055377     0.434127190    -0.184812001     0.165463311
   40    13.984553797    39.089431934    36.599020277     0.407058234    -0.223546152     0.185285489
   41    17.483925841    32.281336498    34.039997390     0.448371172    -0.174684060     0.135826254
   42    11.768036120    38.722923965    33.489031441     0.417930320    -0.199423857     0.188585187
   43    15.305846847    37.307614458    35.633422452     0.423632395    -0.200169842     0.174549788
   44    20.246242056    34.306955847    34.916761285     0.435848390    -0.185401151     0.160195486
   45    15.585672865    39.823663297    35.092586537     0.412541587    -0.210499295     0.188413072
   46    18.677699276    31.502166938    32.392327882     0.446276169    -0.181198104     0.134182072
   47    18.102163306    32.071900677    39.957092611     0.413601097    -0.210452670     0.186128467
   48    21.307078412    33.728750544    30.878194703     0.407152599    -0.228216352     0.179287639
   49    14.546544850    35.580909152    31.968089530    -0.417553684     0.182780972    -0.205523812
   50    17.701304874    39.654995487    37.089143442     0.401919596    -0.217890982     0.202445446
   51    20.978274977    36.088607866    31.017528327     0.418311657    -0.196575838     0.190717848
   52    20.685727547    39.850989623    31.718706955     0.401899047    -0.213156368     0.207464500
   53    19.954954211    34.531151243    39.641719762     0.406634006    -0.224446586     0.185128376
   54    16.114066443    32.637860531    39.953137500     0.403502188    -0.243672763     0.166762013
   55    14.560289589    40.306169758    32.854544034     0.403559900    -0.221599652     0.195020516
   56    17.671431122    34.298791409    39.818596747     0.413978990    -0.212201321     0.183281191
   57    16.561097640    36.224959113    37.448365403     0.416318437    -0.207776399     0.183051705
   58    15.434057986    30.513090928    37.238695074     0.405012740    -0.225941656     0.186855690
   59    17.085788027    31.992120702    37.953808787     0.411388201    -0.219045187     0.181049590
   60    20.191093946    36.671435862    39.199430036     0.407361436    -0.219215707     0.189739649
   61    20.355971250    32.044932196    40.102839862     0.422824051    -0.206007266     0.169649132
   62    20.187740445    37.560842658    32.537001930     0.420393261    -0.198407704     0.184130087
   63    13.450319749    38.094474176    39.730837887     0.399563347    -0.227135919     0.196871548
   64    14.790279233    39.416166330    30.797656726     0.406132366    -0.212218108     0.200049933
   65    15.917224943    34.142790246    33.644609297     0.376083291    -0.267735587     0.192039094
   66    12.315534518    37.024537696    38.237965245     0.396156886    -0.231769057     0.198350260
   67    19.146517985    33.053441755    38.349761349     0.413145658    -0.221797759     0.173540828
   68    12.309558791    32.583927865    35.449129282     0.471017685    -0.151216945     0.072634536
   21    23.203421192    36.797237923    34.515632027    -0.412035250     0.204735728    -0.195730004
   22    30.535726862    32.180860378    36.555558747     0.457546737    -0.168560076     0.110627685
   23    30.419800444    39.708186089    37.420398378     0.408450892    -0.217914920     0.188894036
   24    25.366591018    34.595899737    38.248509798     0.417355695    -0.202062645     0.187042538
   25    26.645249828    30.839750020    31.533525869     0.402079080    -0.223042776     0.196428954
   26    23.204475785    31.422127903    38.070671077     0.104390498     0.382341693    -0.304823643
   27    21.869098962    33.422386380    33.358874502     0.416993385    -0.213917560     0.174229143
   28    28.862259680    35.861200127    31.628153366     0.423195536    -0.198255222     0.177765027
   29    29.574889501    38.514013030    35.707668192     0.400607167    -0.224744208     0.197494148
   30    28.344856231    39.427674410    32.404713467     0.413518679    -0.217147754     0.178463316
   31    26.857225292    40.391425102    39.419104682     0.406927816    -0.227660672     0.180500335
   32    28.984100181    31.042412339    38.648033184     0.405754185    -0.227167437     0.183734854
   33    22.047323512    38.416738927    36.050250569     0.408207138    -0.225103039     0.180819120
   34    31.644627483    33.401504888    38.768483044     0.483364500     0.104463596    -0.073797816
   35    29.016916695    38.003149153    30.944695543     0.415856796    -0.212887574     0.178162864
   36    28.530685063    32.989909029    36.278766251     0.449304423    -0.175545103     0.131565391
   37    29.036244425    35.602788914    38.215477509     0.410053814    -0.214528139     0.189297509
   38    27.121292614    36.519995685    34.914616256     0.426769967    -0.197268715     0.170154193
   39    29.307799315    36.215336398    34.340142246     0.434133792    -0.184803248     0.165455764
   40    24.074209747    39.234092146    36.887107147     0.407063351    -0.223544699     0.185275999
   41    27.573581790    32.425996710    34.328084260     0.448384741    -0.174635858     0.135843444
   42    21.857692070    38.867584176    33.777118310     0.417932919    -0.199429502     0.188573459
   43    25.395502797    37.452274670    35.921509321     0.423640972    -0.200158735     0.174541707
   44    30.335898005    34.451616059    35.204848155     0.435854670    -0.185391392     0.160189694
   45    25.675328815    39.968323509    35.380673406     0.412546822    -0.210495067     0.188406334
   46    28.767355226    31.646827150    32.680414751     0.446289385    -0.181155301     0.134195909
   47    28.191819256    32.216560889    40.245179481     0.413616638    -0.210420445     0.186130365
   48    31.396734362    33.873410756    31.166281572     0.407159631    -0.228206017     0.179284825
   49    24.636200799    35.725569363    32.256176400    -0.417568220     0.182672641    -0.205590584
   50    27.790960824    39.799655699    37.377230311     0.401924729    -0.217887251     0.202439270
   51    31.067930927    36.233268077    31.305615196     0.418316053    -0.196570109     0.190714112
   52    30.775383497    39.995649835    32.006793825     0.401902069    -0.213149055     0.207466158
   53    30.044610161    34.675811454    39.929806631     0.406653367    -0.224421294     0.185116508
   54    26.203722393    32.782520742    40.241224370     0.403522855    -0.243639296     0.166760904
   55    24.649945539    40.450829970    33.142630904     0.403564270    -0.221596091     0.195015518
   56    27.761087072    34.443451620    40.106683617     0.413995800    -0.212173617     0.183275296
   57    26.650753590    36.369619324    37.736452273     0.416332951    -0.207756224     0.183041593
   58    25.523713935    30.657751140    37.526781944     0.405028264    -0.225919699     0.186848587
   59    27.175443976    32.136780914    38.241895656     0.411403531    -0.219019351     0.181046012
   60    30.280749896    36.816096074    39.487516905     0.407378777    -0.219192677     0.189729023
   61    30.445627200    32.189592408    40.390926731     0.422839493    -0.205969047     0.169657050
   62    30.277396395    37.705502870    32.825088799     0.420396922    -0.198401847     0.184128041
   63    23.539975699    38.239134387    40.018924757     0.399564759    -0.227137823     0.196866486
   64    24.879935183    39.560826541    31.085743596     0.406136289    -0.212213850     0.200046487
   65    26.006880893    34.287450457    33.932696167     0.376098624    -0.267761388     0.191973082
   66    22.405190468    37.169197908    38.526052115     0.396157742    -0.231774368     0.198342346
   67    29.236173935    33.198101967    38.637848219     0.413164186    -0.221768248     0.173534433
   68    22.399214741    32.728588077    35.737216151     0.471007267    -0.151218862     0.072698075
   21    33.293077142    36.941898135    34.803718896    -0.412034518     0.204742841    -0.195724105
   22    40.625382812    32.325520589    36.843645616     0.457546557    -0.168530229     0.110673891
   23    40.509456394    39.852846301    37.708485247     0.408447556    -0.217915398     0.188900696
   24    35.456246967    34.740559949    38.536596668     0.417346434    -0.202072404     0.187052661
   25    36.734905777    30.984410232    31.821612739     0.402070630    -0.223050780     0.196437160
   26    33.294131734    31.566788114    38.358757946     0.104509825     0.382312864    -0.304818915
   27    31.958754912    33.567046592    33.646961372     0.416995153    -0.213934031     0.174204686
   28    38.951915629    36.005860339    31.916240236     0.423195108    -0.198255952     0.177765234
   29    39.664545451    38.658673241    35.995755062     0.400601862    -0.224749093     0.197499351
   30    38.434512180    39.572334622    32.692800336     0.413520336    -0.217147760     0.178459469
   31    36.946881242    40.536085314    39.707191551     0.406932516    -0.227650619     0.180502419
   32    39.073756131    31.187072551    38.936120054     0.405740089    -0.227179202     0.183751438
   33    32.136979462    38.561399138    36.338337439     0.408211200    -0.225101971     0.180811279
   34    41.734283433    33.546165099    39.056569913     0.483353822     0.104632386    -0.073628433
   35    39.106572645    38.147809365    31.232782413     0.415855680    -0.212887984     0.178164979
   36    38.620341013    33.134569241    36.566853120     0.449299807    -0.175534979     0.131594661
   37    39.125900374    35.747449126    38.503564379     0.410043316    -0.214539513     0.189307360
   38    37.210948564    36.664655896    35.202703125     0.426768105    -0.197270835     0.170156406
   39    39.397455265    36.359996610    34.628229116     0.434131482    -0.184805142     0.165459710
   40    34.163865697    39.378752358    37.175194017     0.407068204    -0.223541508     0.185269186
   41    37.663237740    32.570656922    34.616171130     0.448378890    -0.174630975     0.135869032
   42    31.947348020    39.012244388    34.065205180     0.417937301    -0.199426470     0.188566951
   43    35.485158747    37.596934882    36.209596191     0.423640028    -0.200159273     0.174543382
   44    40.425553955    34.596276271    35.492935024     0.435852592    -0.185392981     0.160193510
   45    35.764984765    40.112983720    35.668760276     0.412551019    -0.210489042     0.188403876
   46    38.857011175    31.791487361    32.968501621     0.446282949    -0.181154991     0.134217728
   47    38.281475205    32.361221100    40.533266350     0.413603923    -0.210431039     0.186146644
   48    41.486390312    34.018070968    31.454368442     0.407151421    -0.228217516     0.179288832
   49    34.725856749    35.870229575    32.544263269    -0.417593703     0.182636963    -0.205570521
   50    37.880616773    39.944315911    37.665317181     0.401928496    -0.217879005     0.202440666
   51    41.157586877    36.377928289    31.593702066     0.418313872    -0.196570469     0.190718524
   52    40.865039447    40.140310047    32.294880694     0.401903926    -0.213151245     0.207460312
   53    40.134266111    34.820471666    40.217893501     0.406640745    -0.224439209     0.185122516
   54    36.293378342    32.927180954    40.529311239     0.403508525    -0.243650756     0.166778833
   55    34.739601488    40.595490181    33.430717773     0.403565834    -0.221594039     0.195014614
   56    37.850743021    34.588111832    40.394770486     0.413983974    -0.212184195     0.183289762
   57    36.740409540    36.514279536    38.024539142     0.416324421    -0.207766025     0.183049870
   58    35.613369885    30.802411351    37.814868814     0.405016710    -0.225927501     0.186864198
   59    37.265099926    32.281441125    38.529982526     0.411391511    -0.219027730     0.181063189
   60    40.370405845    36.960756285    39.775603775     0.407366753    -0.219205160     0.189740419
   61    40.535283150    32.334252620    40.679013601     0.422825976    -0.205979573     0.169677959
   62    40.367052345    37.850163081    33.113175669     0.420395299    -0.198402537     0.184131001
   63    33.629631649    38.383794599    40.307011627     0.399577786    -0.227121376     0.196859020
   64    34.969591133    39.705486753    31.373830466     0.406138161    -0.212211878     0.200044778
   65    36.096536842    34.432110669    34.220783037     0.376029425    -0.267847842     0.191988034
   66    32.494846418    37.313858120    38.814138984     0.396172283    -0.231756634     0.198334023
   67    39.325829884    33.342762179    38.925935088     0.413151261    -0.221783689     0.173545470
   68    32.488870691    32.873248289    36.025303021     0.471032331    -0.151110616     0.072760735
